Node Number	X Location (in)	Y Location (in)	Z Location (in)	Middle Principal Stress (psi)
1	16.8	2.1818	0.	80.519
2	16.8	2.3636	0.	-14.238
3	16.8	2.5455	0.	0.2201
4	16.8	2.7273	0.	-1.631
5	16.8	2.9091	0.	-0.88545
6	16.8	3.0909	0.	-0.88545
7	16.8	3.2727	0.	-1.631
8	16.8	3.4545	0.	0.2201
9	16.8	3.6364	0.	-14.238
10	16.8	3.8182	0.	80.519
11	16.967	2.1818	0.	9.0138
12	16.967	2.3636	0.	-16.613
13	16.967	2.5455	0.	0.52421
14	16.967	2.7273	0.	-1.7618
15	16.967	2.9091	0.	-0.85561
16	16.967	3.0909	0.	-0.85561
17	16.967	3.2727	0.	-1.7618
18	16.967	3.4545	0.	0.52421
19	16.967	3.6364	0.	-16.613
20	16.967	3.8182	0.	9.0137
21	16.615	5.8182	0.	-7.4204
22	16.615	5.6364	0.	-3.3715
23	16.615	5.4545	0.	-2.6286
24	16.615	5.2727	0.	-2.3669
25	16.615	5.0909	0.	-2.3303
26	16.615	4.9091	0.	-3.0618
27	16.615	4.7273	0.	-2.0043
28	16.615	4.5455	0.	-9.3426
29	16.615	4.3636	0.	9.046
30	16.615	4.1818	0.	-51.456
31	16.615	4.	0.	-230.09
32	16.615	3.8182	0.	11.884
33	16.615	3.6364	0.	-6.9799
34	16.615	3.4545	0.	2.2345
35	16.615	3.2727	0.	-1.3995
36	16.615	3.0909	0.	-0.31825
37	16.615	2.9091	0.	-0.31825
38	16.615	2.7273	0.	-1.3995
39	16.615	2.5455	0.	2.2345
40	16.615	2.3636	0.	-6.98
41	16.615	2.1818	0.	11.884
42	16.615	2.	0.	-230.09
43	16.615	1.8182	0.	-51.455
44	16.615	1.6364	0.	9.046
45	16.615	1.4545	0.	-9.3426
46	16.615	1.2727	0.	-2.0043
47	16.615	1.0909	0.	-3.0618
48	16.615	0.90909	0.	-2.3303
49	16.615	0.72727	0.	-2.3669
50	16.615	0.54545	0.	-2.6286
51	16.615	0.36364	0.	-3.3715
52	16.615	0.18182	0.	-7.4204
53	16.431	5.8182	0.	-0.72775
54	16.431	5.6364	0.	-4.8155e-002
55	16.431	5.4545	0.	0.26993
56	16.431	5.2727	0.	0.50802
57	16.431	5.0909	0.	0.60871
58	16.431	4.9091	0.	0.77306
59	16.431	4.7273	0.	0.69374
60	16.431	4.5455	0.	0.61558
61	16.431	4.3636	0.	2.8913
62	16.431	4.1818	0.	7.4478
63	16.431	4.	0.	27.869
64	16.431	3.8182	0.	14.315
65	16.431	3.6364	0.	-2.2137
66	16.431	3.4545	0.	0.53485
67	16.431	3.2727	0.	-8.0523e-002
68	16.431	3.0909	0.	-0.11134
69	16.431	2.9091	0.	-0.11134
70	16.431	2.7273	0.	-8.052e-002
71	16.431	2.5455	0.	0.53485
72	16.431	2.3636	0.	-2.2137
73	16.431	2.1818	0.	14.315
74	16.431	2.	0.	27.869
75	16.431	1.8182	0.	7.4478
76	16.431	1.6364	0.	2.8913
77	16.431	1.4545	0.	0.61558
78	16.431	1.2727	0.	0.69374
79	16.431	1.0909	0.	0.77306
80	16.431	0.90909	0.	0.60871
81	16.431	0.72727	0.	0.50802
82	16.431	0.54545	0.	0.26993
83	16.431	0.36364	0.	-4.8155e-002
84	16.431	0.18182	0.	-0.72775
85	16.246	5.8182	0.	-8.1192e-003
86	16.246	5.6364	0.	-0.18463
87	16.246	5.4545	0.	-0.16157
88	16.246	5.2727	0.	-0.20508
89	16.246	5.0909	0.	-0.26044
90	16.246	4.9091	0.	-0.44468
91	16.246	4.7273	0.	-0.54389
92	16.246	4.5455	0.	-0.52413
93	16.246	4.3636	0.	-3.7236
94	16.246	4.1818	0.	-1.7654
95	16.246	4.	0.	-5.0764
96	16.246	3.8182	0.	-3.7063
97	16.246	3.6364	0.	2.1665
98	16.246	3.4545	0.	0.26941
99	16.246	3.2727	0.	0.28198
100	16.246	3.0909	0.	0.17132
101	16.246	2.9091	0.	0.17132
102	16.246	2.7273	0.	0.28198
103	16.246	2.5455	0.	0.26941
104	16.246	2.3636	0.	2.1665
105	16.246	2.1818	0.	-3.7063
106	16.246	2.	0.	-5.0764
107	16.246	1.8182	0.	-1.7654
108	16.246	1.6364	0.	-3.7236
109	16.246	1.4545	0.	-0.52413
110	16.246	1.2727	0.	-0.54389
111	16.246	1.0909	0.	-0.44468
112	16.246	0.90909	0.	-0.26043
113	16.246	0.72727	0.	-0.20508
114	16.246	0.54545	0.	-0.16157
115	16.246	0.36364	0.	-0.18464
116	16.246	0.18182	0.	-8.1192e-003
117	16.062	5.8182	0.	0.44435
118	16.062	5.6364	0.	8.835e-002
119	16.062	5.4545	0.	7.2913e-002
120	16.062	5.2727	0.	-1.311e-002
121	16.062	5.0909	0.	-8.3402e-002
122	16.062	4.9091	0.	-0.15167
123	16.062	4.7273	0.	-0.29423
124	16.062	4.5455	0.	-0.43775
125	16.062	4.3636	0.	0.28468
126	16.062	4.1818	0.	-0.17898
127	16.062	4.	0.	0.87152
128	16.062	3.8182	0.	1.4475
129	16.062	3.6364	0.	0.18315
130	16.062	3.4545	0.	0.36157
131	16.062	3.2727	0.	0.31994
132	16.062	3.0909	0.	0.26438
133	16.062	2.9091	0.	0.26438
134	16.062	2.7273	0.	0.31994
135	16.062	2.5455	0.	0.36157
136	16.062	2.3636	0.	0.18315
137	16.062	2.1818	0.	1.4475
138	16.062	2.	0.	0.87152
139	16.062	1.8182	0.	-0.17898
140	16.062	1.6364	0.	0.28468
141	16.062	1.4545	0.	-0.43775
142	16.062	1.2727	0.	-0.29423
143	16.062	1.0909	0.	-0.15167
144	16.062	0.90909	0.	-8.34e-002
145	16.062	0.72727	0.	-1.3108e-002
146	16.062	0.54545	0.	7.2914e-002
147	16.062	0.36364	0.	8.835e-002
148	16.062	0.18182	0.	0.44435
149	15.877	5.8182	0.	0.36718
150	15.877	5.6364	0.	3.4568e-002
151	15.877	5.4545	0.	5.9903e-002
152	15.877	5.2727	0.	-3.2824e-002
153	15.877	5.0909	0.	-9.8332e-002
154	15.877	4.9091	0.	-0.16601
155	15.877	4.7273	0.	-0.21032
156	15.877	4.5455	0.	-0.27102
157	15.877	4.3636	0.	-0.42792
158	15.877	4.1818	0.	-0.30088
159	15.877	4.	0.	-0.40264
160	15.877	3.8182	0.	-0.35097
161	15.877	3.6364	0.	0.10228
162	15.877	3.4545	0.	0.22971
163	15.877	3.2727	0.	0.24096
164	15.877	3.0909	0.	0.2554
165	15.877	2.9091	0.	0.2554
166	15.877	2.7273	0.	0.24096
167	15.877	2.5455	0.	0.22971
168	15.877	2.3636	0.	0.10228
169	15.877	2.1818	0.	-0.35097
170	15.877	2.	0.	-0.40263
171	15.877	1.8182	0.	-0.30088
172	15.877	1.6364	0.	-0.42791
173	15.877	1.4545	0.	-0.27102
174	15.877	1.2727	0.	-0.21032
175	15.877	1.0909	0.	-0.16601
176	15.877	0.90909	0.	-9.833e-002
177	15.877	0.72727	0.	-3.2821e-002
178	15.877	0.54545	0.	5.9902e-002
179	15.877	0.36364	0.	3.4567e-002
180	15.877	0.18182	0.	0.36717
181	15.692	5.8182	0.	0.23513
182	15.692	5.6364	0.	-1.083e-002
183	15.692	5.4545	0.	6.4519e-002
184	15.692	5.2727	0.	-1.1766e-002
185	15.692	5.0909	0.	-5.5147e-002
186	15.692	4.9091	0.	-9.8433e-002
187	15.692	4.7273	0.	-0.13357
188	15.692	4.5455	0.	-0.14849
189	15.692	4.3636	0.	-0.13851
190	15.692	4.1818	0.	-0.16005
191	15.692	4.	0.	-0.10511
192	15.692	3.8182	0.	-2.9486e-002
193	15.692	3.6364	0.	8.5435e-003
194	15.692	3.4545	0.	9.6065e-002
195	15.692	3.2727	0.	0.173
196	15.692	3.0909	0.	0.20193
197	15.692	2.9091	0.	0.20193
198	15.692	2.7273	0.	0.173
199	15.692	2.5455	0.	9.6064e-002
200	15.692	2.3636	0.	8.5439e-003
201	15.692	2.1818	0.	-2.9486e-002
202	15.692	2.	0.	-0.10511
203	15.692	1.8182	0.	-0.16005
204	15.692	1.6364	0.	-0.13851
205	15.692	1.4545	0.	-0.14849
206	15.692	1.2727	0.	-0.13356
207	15.692	1.0909	0.	-9.8432e-002
208	15.692	0.90909	0.	-5.5144e-002
209	15.692	0.72727	0.	-1.1764e-002
210	15.692	0.54545	0.	6.452e-002
211	15.692	0.36364	0.	-1.083e-002
212	15.692	0.18182	0.	0.23513
213	15.508	5.8182	0.	9.6056e-002
214	15.508	5.6364	0.	-5.8558e-002
215	15.508	5.4545	0.	5.3249e-002
216	15.508	5.2727	0.	-3.1892e-003
217	15.508	5.0909	0.	-3.0721e-002
218	15.508	4.9091	0.	-6.0113e-002
219	15.508	4.7273	0.	-8.2914e-002
220	15.508	4.5455	0.	-0.10469
221	15.508	4.3636	0.	-0.12753
222	15.508	4.1818	0.	-0.13965
223	15.508	4.	0.	-0.14541
224	15.508	3.8182	0.	-0.1141
225	15.508	3.6364	0.	-3.5283e-002
226	15.508	3.4545	0.	4.7786e-002
227	15.508	3.2727	0.	0.11227
228	15.508	3.0909	0.	0.14798
229	15.508	2.9091	0.	0.14798
230	15.508	2.7273	0.	0.11227
231	15.508	2.5455	0.	4.7785e-002
232	15.508	2.3636	0.	-3.5284e-002
233	15.508	2.1818	0.	-0.1141
234	15.508	2.	0.	-0.14541
235	15.508	1.8182	0.	-0.13965
236	15.508	1.6364	0.	-0.12753
237	15.508	1.4545	0.	-0.10469
238	15.508	1.2727	0.	-8.2913e-002
239	15.508	1.0909	0.	-6.0113e-002
240	15.508	0.90909	0.	-3.072e-002
241	15.508	0.72727	0.	-3.1869e-003
242	15.508	0.54545	0.	5.3248e-002
243	15.508	0.36364	0.	-5.8558e-002
244	15.508	0.18182	0.	9.6057e-002
245	15.323	5.8182	0.	-6.7122e-003
246	15.323	5.6364	0.	-8.8415e-002
247	15.323	5.4545	0.	4.4983e-002
248	15.323	5.2727	0.	5.7112e-003
249	15.323	5.0909	0.	-9.4966e-003
250	15.323	4.9091	0.	-3.0344e-002
251	15.323	4.7273	0.	-4.7825e-002
252	15.323	4.5455	0.	-6.4926e-002
253	15.323	4.3636	0.	-8.1333e-002
254	15.323	4.1818	0.	-9.5326e-002
255	15.323	4.	0.	-9.5725e-002
256	15.323	3.8182	0.	-7.6603e-002
257	15.323	3.6364	0.	-3.6669e-002
258	15.323	3.4545	0.	1.9696e-002
259	15.323	3.2727	0.	7.3268e-002
260	15.323	3.0909	0.	0.10491
261	15.323	2.9091	0.	0.10491
262	15.323	2.7273	0.	7.327e-002
263	15.323	2.5455	0.	1.9696e-002
264	15.323	2.3636	0.	-3.6669e-002
265	15.323	2.1818	0.	-7.6603e-002
266	15.323	2.	0.	-9.5725e-002
267	15.323	1.8182	0.	-9.5326e-002
268	15.323	1.6364	0.	-8.1331e-002
269	15.323	1.4545	0.	-6.4926e-002
270	15.323	1.2727	0.	-4.7824e-002
271	15.323	1.0909	0.	-3.0342e-002
272	15.323	0.90909	0.	-9.4964e-003
273	15.323	0.72727	0.	5.7135e-003
274	15.323	0.54545	0.	4.4985e-002
275	15.323	0.36364	0.	-8.8415e-002
276	15.323	0.18182	0.	-6.7106e-003
277	15.138	5.8182	0.	-7.2131e-002
278	15.138	5.6364	0.	-0.10478
279	15.138	5.4545	0.	3.7297e-002
280	15.138	5.2727	0.	1.1175e-002
281	15.138	5.0909	0.	4.292e-003
282	15.138	4.9091	0.	-1.0639e-002
283	15.138	4.7273	0.	-2.4788e-002
284	15.138	4.5455	0.	-4.0136e-002
285	15.138	4.3636	0.	-5.5679e-002
286	15.138	4.1818	0.	-6.8192e-002
287	15.138	4.	0.	-7.2317e-002
288	15.138	3.8182	0.	-6.1034e-002
289	15.138	3.6364	0.	-3.184e-002
290	15.138	3.4545	0.	8.9075e-003
291	15.138	3.2727	0.	4.8931e-002
292	15.138	3.0909	0.	7.3855e-002
293	15.138	2.9091	0.	7.3855e-002
294	15.138	2.7273	0.	4.8931e-002
295	15.138	2.5455	0.	8.9075e-003
296	15.138	2.3636	0.	-3.1838e-002
297	15.138	2.1818	0.	-6.1034e-002
298	15.138	2.	0.	-7.2317e-002
299	15.138	1.8182	0.	-6.8194e-002
300	15.138	1.6364	0.	-5.5678e-002
301	15.138	1.4545	0.	-4.0134e-002
302	15.138	1.2727	0.	-2.4787e-002
303	15.138	1.0909	0.	-1.0638e-002
304	15.138	0.90909	0.	4.2912e-003
305	15.138	0.72727	0.	1.1178e-002
306	15.138	0.54545	0.	3.7296e-002
307	15.138	0.36364	0.	-0.10478
308	15.138	0.18182	0.	-7.213e-002
309	14.954	5.8182	0.	-0.10584
310	14.954	5.6364	0.	-0.11062
311	14.954	5.4545	0.	3.0858e-002
312	14.954	5.2727	0.	1.4412e-002
313	14.954	5.0909	0.	1.3078e-002
314	14.954	4.9091	0.	2.4398e-003
315	14.954	4.7273	0.	-8.6976e-003
316	14.954	4.5455	0.	-2.143e-002
317	14.954	4.3636	0.	-3.4164e-002
318	14.954	4.1818	0.	-4.4451e-002
319	14.954	4.	0.	-4.815e-002
320	14.954	3.8182	0.	-4.1385e-002
321	14.954	3.6364	0.	-2.2547e-002
322	14.954	3.4545	0.	5.4668e-003
323	14.954	3.2727	0.	3.4188e-002
324	14.954	3.0909	0.	5.2537e-002
325	14.954	2.9091	0.	5.2538e-002
326	14.954	2.7273	0.	3.4188e-002
327	14.954	2.5455	0.	5.4668e-003
328	14.954	2.3636	0.	-2.2548e-002
329	14.954	2.1818	0.	-4.1384e-002
330	14.954	2.	0.	-4.815e-002
331	14.954	1.8182	0.	-4.445e-002
332	14.954	1.6364	0.	-3.4165e-002
333	14.954	1.4545	0.	-2.143e-002
334	14.954	1.2727	0.	-8.6981e-003
335	14.954	1.0909	0.	2.4412e-003
336	14.954	0.90909	0.	1.3081e-002
337	14.954	0.72727	0.	1.4413e-002
338	14.954	0.54545	0.	3.0856e-002
339	14.954	0.36364	0.	-0.11062
340	14.954	0.18182	0.	-0.10584
341	14.769	5.8182	0.	-0.11701
342	14.769	5.6364	0.	-0.10965
343	14.769	5.4545	0.	2.522e-002
344	14.769	5.2727	0.	1.5692e-002
345	14.769	5.0909	0.	1.8003e-002
346	14.769	4.9091	0.	1.0659e-002
347	14.769	4.7273	0.	2.0761e-003
348	14.769	4.5455	0.	-8.2367e-003
349	14.769	4.3636	0.	-1.859e-002
350	14.769	4.1818	0.	-2.696e-002
351	14.769	4.	0.	-3.0507e-002
352	14.769	3.8182	0.	-2.6503e-002
353	14.769	3.6364	0.	-1.386e-002
354	14.769	3.4545	0.	5.3125e-003
355	14.769	3.2727	0.	2.5254e-002
356	14.769	3.0909	0.	3.8155e-002
357	14.769	2.9091	0.	3.8154e-002
358	14.769	2.7273	0.	2.5256e-002
359	14.769	2.5455	0.	5.3118e-003
360	14.769	2.3636	0.	-1.386e-002
361	14.769	2.1818	0.	-2.6503e-002
362	14.769	2.	0.	-3.0507e-002
363	14.769	1.8182	0.	-2.696e-002
364	14.769	1.6364	0.	-1.859e-002
365	14.769	1.4545	0.	-8.2361e-003
366	14.769	1.2727	0.	2.077e-003
367	14.769	1.0909	0.	1.0659e-002
368	14.769	0.90909	0.	1.8004e-002
369	14.769	0.72727	0.	1.5693e-002
370	14.769	0.54545	0.	2.5222e-002
371	14.769	0.36364	0.	-0.10964
372	14.769	0.18182	0.	-0.11701
373	14.585	5.8182	0.	-0.11382
374	14.585	5.6364	0.	-0.10448
375	14.585	5.4545	0.	2.0313e-002
376	14.585	5.2727	0.	1.565e-002
377	14.585	5.0909	0.	2.0296e-002
378	14.585	4.9091	0.	1.5524e-002
379	14.585	4.7273	0.	9.1566e-003
380	14.585	4.5455	0.	1.0592e-003
381	14.585	4.3636	0.	-7.1343e-003
382	14.585	4.1818	0.	-1.3822e-002
383	14.585	4.	0.	-1.696e-002
384	14.585	3.8182	0.	-1.4763e-002
385	14.585	3.6364	0.	-6.5468e-003
386	14.585	3.4545	0.	6.2679e-003
387	14.585	3.2727	0.	1.9748e-002
388	14.585	3.0909	0.	2.8507e-002
389	14.585	2.9091	0.	2.8508e-002
390	14.585	2.7273	0.	1.9747e-002
391	14.585	2.5455	0.	6.2681e-003
392	14.585	2.3636	0.	-6.5473e-003
393	14.585	2.1818	0.	-1.4762e-002
394	14.585	2.	0.	-1.6959e-002
395	14.585	1.8182	0.	-1.3822e-002
396	14.585	1.6364	0.	-7.1341e-003
397	14.585	1.4545	0.	1.0592e-003
398	14.585	1.2727	0.	9.157e-003
399	14.585	1.0909	0.	1.5524e-002
400	14.585	0.90909	0.	2.0298e-002
401	14.585	0.72727	0.	1.5652e-002
402	14.585	0.54545	0.	2.0314e-002
403	14.585	0.36364	0.	-0.10449
404	14.585	0.18182	0.	-0.11382
405	14.4	5.8182	0.	-0.1027
406	14.4	5.6364	0.	-9.7063e-002
407	14.4	5.4545	0.	1.6038e-002
408	14.4	5.2727	0.	1.4737e-002
409	14.4	5.0909	0.	2.0811e-002
410	14.4	4.9091	0.	1.8037e-002
411	14.4	4.7273	0.	1.3514e-002
412	14.4	4.5455	0.	7.3025e-003
413	14.4	4.3636	0.	8.9244e-004
414	14.4	4.1818	0.	-4.4396e-003
415	14.4	4.	0.	-7.2148e-003
416	14.4	3.8182	0.	-6.2132e-003
417	14.4	3.6364	0.	-1.0158e-003
418	14.4	3.4545	0.	7.3571e-003
419	14.4	3.2727	0.	1.623e-002
420	14.4	3.0909	0.	2.2006e-002
421	14.4	2.9091	0.	2.2007e-002
422	14.4	2.7273	0.	1.623e-002
423	14.4	2.5455	0.	7.3577e-003
424	14.4	2.3636	0.	-1.017e-003
425	14.4	2.1818	0.	-6.2125e-003
426	14.4	2.	0.	-7.2139e-003
427	14.4	1.8182	0.	-4.4386e-003
428	14.4	1.6364	0.	8.9374e-004
429	14.4	1.4545	0.	7.3032e-003
430	14.4	1.2727	0.	1.3514e-002
431	14.4	1.0909	0.	1.8038e-002
432	14.4	0.90909	0.	2.0812e-002
433	14.4	0.72727	0.	1.4738e-002
434	14.4	0.54545	0.	1.6038e-002
435	14.4	0.36364	0.	-9.7064e-002
436	14.4	0.18182	0.	-0.1027
437	14.215	5.8182	0.	-8.8123e-002
438	14.215	5.6364	0.	-8.8647e-002
439	14.215	5.4545	0.	1.2332e-002
440	14.215	5.2727	0.	1.3299e-002
441	14.215	5.0909	0.	2.0169e-002
442	14.215	4.9091	0.	1.8924e-002
443	14.215	4.7273	0.	1.5896e-002
444	14.215	4.5455	0.	1.1246e-002
445	14.215	4.3636	0.	6.2879e-003
446	14.215	4.1818	0.	2.043e-003
447	14.215	4.	0.	-4.0048e-004
448	14.215	3.8182	0.	-1.9757e-004
449	14.215	3.6364	0.	2.9059e-003
450	14.215	3.4545	0.	8.1957e-003
451	14.215	3.2727	0.	1.3868e-002
452	14.215	3.0909	0.	1.757e-002
453	14.215	2.9091	0.	1.757e-002
454	14.215	2.7273	0.	1.3869e-002
455	14.215	2.5455	0.	8.1948e-003
456	14.215	2.3636	0.	2.9068e-003
457	14.215	2.1818	0.	-1.9799e-004
458	14.215	2.	0.	-4.0062e-004
459	14.215	1.8182	0.	2.0425e-003
460	14.215	1.6364	0.	6.2874e-003
461	14.215	1.4545	0.	1.1246e-002
462	14.215	1.2727	0.	1.5897e-002
463	14.215	1.0909	0.	1.8924e-002
464	14.215	0.90909	0.	2.017e-002
465	14.215	0.72727	0.	1.3299e-002
466	14.215	0.54545	0.	1.2332e-002
467	14.215	0.36364	0.	-8.8646e-002
468	14.215	0.18182	0.	-8.8121e-002
469	14.031	5.8182	0.	-7.2908e-002
470	14.031	5.6364	0.	-8.0014e-002
471	14.031	5.4545	0.	9.1694e-003
472	14.031	5.2727	0.	1.1613e-002
473	14.031	5.0909	0.	1.8838e-002
474	14.031	4.9091	0.	1.8738e-002
475	14.031	4.7273	0.	1.6895e-002
476	14.031	4.5455	0.	1.35e-002
477	14.031	4.3636	0.	9.7034e-003
478	14.031	4.1818	0.	6.3196e-003
479	14.031	4.	0.	4.1701e-003
480	14.031	3.8182	0.	3.8519e-003
481	14.031	3.6364	0.	5.5328e-003
482	14.031	3.4545	0.	8.7195e-003
483	14.031	3.2727	0.	1.222e-002
484	14.031	3.0909	0.	1.4517e-002
485	14.031	2.9091	0.	1.4516e-002
486	14.031	2.7273	0.	1.222e-002
487	14.031	2.5455	0.	8.7196e-003
488	14.031	2.3636	0.	5.5331e-003
489	14.031	2.1818	0.	3.8519e-003
490	14.031	2.	0.	4.1709e-003
491	14.031	1.8182	0.	6.3207e-003
492	14.031	1.6364	0.	9.7037e-003
493	14.031	1.4545	0.	1.3501e-002
494	14.031	1.2727	0.	1.6895e-002
495	14.031	1.0909	0.	1.874e-002
496	14.031	0.90909	0.	1.8839e-002
497	14.031	0.72727	0.	1.1615e-002
498	14.031	0.54545	0.	9.1691e-003
499	14.031	0.36364	0.	-8.0014e-002
500	14.031	0.18182	0.	-7.2907e-002
501	13.846	5.8182	0.	-5.8653e-002
502	13.846	5.6364	0.	-7.1624e-002
503	13.846	5.4545	0.	6.5178e-003
504	13.846	5.2727	0.	9.8713e-003
505	13.846	5.0909	0.	1.7146e-002
506	13.846	4.9091	0.	1.7884e-002
507	13.846	4.7273	0.	1.6954e-002
508	13.846	4.5455	0.	1.4558e-002
509	13.846	4.3636	0.	1.1682e-002
510	13.846	4.1818	0.	8.9856e-003
511	13.846	4.	0.	7.1004e-003
512	13.846	3.8182	0.	6.4628e-003
513	13.846	3.6364	0.	7.1973e-003
514	13.846	3.4545	0.	8.977e-003
515	13.846	3.2727	0.	1.1031e-002
516	13.846	3.0909	0.	1.2399e-002
517	13.846	2.9091	0.	1.2399e-002
518	13.846	2.7273	0.	1.1032e-002
519	13.846	2.5455	0.	8.9767e-003
520	13.846	2.3636	0.	7.1971e-003
521	13.846	2.1818	0.	6.4628e-003
522	13.846	2.	0.	7.1009e-003
523	13.846	1.8182	0.	8.986e-003
524	13.846	1.6364	0.	1.1682e-002
525	13.846	1.4545	0.	1.4558e-002
526	13.846	1.2727	0.	1.6955e-002
527	13.846	1.0909	0.	1.7884e-002
528	13.846	0.90909	0.	1.7146e-002
529	13.846	0.72727	0.	9.8734e-003
530	13.846	0.54545	0.	6.5178e-003
531	13.846	0.36364	0.	-7.1625e-002
532	13.846	0.18182	0.	-5.8652e-002
533	13.662	5.8182	0.	-4.615e-002
534	13.662	5.6364	0.	-6.3758e-002
535	13.662	5.4545	0.	4.3086e-003
536	13.662	5.2727	0.	8.1703e-003
537	13.662	5.0909	0.	1.5286e-002
538	13.662	4.9091	0.	1.6617e-002
539	13.662	4.7273	0.	1.6382e-002
540	13.662	4.5455	0.	1.4766e-002
541	13.662	4.3636	0.	1.2619e-002
542	13.662	4.1818	0.	1.0475e-002
543	13.662	4.	0.	8.8333e-003
544	13.662	3.8182	0.	8.0221e-003
545	13.662	3.6364	0.	8.1503e-003
546	13.662	3.4545	0.	9.0153e-003
547	13.662	3.2727	0.	1.0129e-002
548	13.662	3.0909	0.	1.0894e-002
549	13.662	2.9091	0.	1.0895e-002
550	13.662	2.7273	0.	1.0129e-002
551	13.662	2.5455	0.	9.0142e-003
552	13.662	2.3636	0.	8.1507e-003
553	13.662	2.1818	0.	8.0222e-003
554	13.662	2.	0.	8.8325e-003
555	13.662	1.8182	0.	1.0476e-002
556	13.662	1.6364	0.	1.2619e-002
557	13.662	1.4545	0.	1.4767e-002
558	13.662	1.2727	0.	1.6382e-002
559	13.662	1.0909	0.	1.6618e-002
560	13.662	0.90909	0.	1.5288e-002
561	13.662	0.72727	0.	8.1707e-003
562	13.662	0.54545	0.	4.308e-003
563	13.662	0.36364	0.	-6.3758e-002
564	13.662	0.18182	0.	-4.6149e-002
565	13.477	5.8182	0.	-3.5642e-002
566	13.477	5.6364	0.	-5.6519e-002
567	13.477	5.4545	0.	2.5091e-003
568	13.477	5.2727	0.	6.5989e-003
569	13.477	5.0909	0.	1.3422e-002
570	13.477	4.9091	0.	1.5155e-002
571	13.477	4.7273	0.	1.5434e-002
572	13.477	4.5455	0.	1.4425e-002
573	13.477	4.3636	0.	1.2854e-002
574	13.477	4.1818	0.	1.1162e-002
575	13.477	4.	0.	9.743e-003
576	13.477	3.8182	0.	8.8675e-003
577	13.477	3.6364	0.	8.6272e-003
578	13.477	3.4545	0.	8.917e-003
579	13.477	3.2727	0.	9.4357e-003
580	13.477	3.0909	0.	9.8213e-003
581	13.477	2.9091	0.	9.8215e-003
582	13.477	2.7273	0.	9.4347e-003
583	13.477	2.5455	0.	8.9164e-003
584	13.477	2.3636	0.	8.6282e-003
585	13.477	2.1818	0.	8.8674e-003
586	13.477	2.	0.	9.7436e-003
587	13.477	1.8182	0.	1.1162e-002
588	13.477	1.6364	0.	1.2854e-002
589	13.477	1.4545	0.	1.4425e-002
590	13.477	1.2727	0.	1.5434e-002
591	13.477	1.0909	0.	1.5156e-002
592	13.477	0.90909	0.	1.3422e-002
593	13.477	0.72727	0.	6.5996e-003
594	13.477	0.54545	0.	2.5099e-003
595	13.477	0.36364	0.	-5.6519e-002
596	13.477	0.18182	0.	-3.564e-002
597	13.292	5.8182	0.	-2.7118e-002
598	13.292	5.6364	0.	-4.9985e-002
599	13.292	5.4545	0.	1.0325e-003
600	13.292	5.2727	0.	5.1534e-003
601	13.292	5.0909	0.	1.16e-002
602	13.292	4.9091	0.	1.3589e-002
603	13.292	4.7273	0.	1.4243e-002
604	13.292	4.5455	0.	1.3702e-002
605	13.292	4.3636	0.	1.2587e-002
606	13.292	4.1818	0.	1.1263e-002
607	13.292	4.	0.	1.0059e-002
608	13.292	3.8182	0.	9.1884e-003
609	13.292	3.6364	0.	8.7493e-003
610	13.292	3.4545	0.	8.6929e-003
611	13.292	3.2727	0.	8.8487e-003
612	13.292	3.0909	0.	9.0013e-003
613	13.292	2.9091	0.	9.0012e-003
614	13.292	2.7273	0.	8.8496e-003
615	13.292	2.5455	0.	8.694e-003
616	13.292	2.3636	0.	8.7491e-003
617	13.292	2.1818	0.	9.1892e-003
618	13.292	2.	0.	1.0059e-002
619	13.292	1.8182	0.	1.1265e-002
620	13.292	1.6364	0.	1.2587e-002
621	13.292	1.4545	0.	1.3702e-002
622	13.292	1.2727	0.	1.4243e-002
623	13.292	1.0909	0.	1.3591e-002
624	13.292	0.90909	0.	1.1602e-002
625	13.292	0.72727	0.	5.1554e-003
626	13.292	0.54545	0.	1.0327e-003
627	13.292	0.36364	0.	-4.9984e-002
628	13.292	0.18182	0.	-2.7118e-002
629	13.108	5.8182	0.	-2.0327e-002
630	13.108	5.6364	0.	-4.4082e-002
631	13.108	5.4545	0.	-1.146e-004
632	13.108	5.2727	0.	3.9105e-003
633	13.108	5.0909	0.	9.9361e-003
634	13.108	4.9091	0.	1.207e-002
635	13.108	4.7273	0.	1.2986e-002
636	13.108	4.5455	0.	1.2804e-002
637	13.108	4.3636	0.	1.2052e-002
638	13.108	4.1818	0.	1.1037e-002
639	13.108	4.	0.	1.003e-002
640	13.108	3.8182	0.	9.2147e-003
641	13.108	3.6364	0.	8.6865e-003
642	13.108	3.4545	0.	8.4407e-003
643	13.108	3.2727	0.	8.386e-003
644	13.108	3.0909	0.	8.4013e-003
645	13.108	2.9091	0.	8.4016e-003
646	13.108	2.7273	0.	8.3862e-003
647	13.108	2.5455	0.	8.4407e-003
648	13.108	2.3636	0.	8.6868e-003
649	13.108	2.1818	0.	9.2146e-003
650	13.108	2.	0.	1.003e-002
651	13.108	1.8182	0.	1.1037e-002
652	13.108	1.6364	0.	1.2052e-002
653	13.108	1.4545	0.	1.2804e-002
654	13.108	1.2727	0.	1.2987e-002
655	13.108	1.0909	0.	1.2071e-002
656	13.108	0.90909	0.	9.937e-003
657	13.108	0.72727	0.	3.9133e-003
658	13.108	0.54545	0.	-1.1435e-004
659	13.108	0.36364	0.	-4.4082e-002
660	13.108	0.18182	0.	-2.0327e-002
661	12.923	5.8182	0.	-1.5012e-002
662	12.923	5.6364	0.	-3.8768e-002
663	12.923	5.4545	0.	-9.7449e-004
664	12.923	5.2727	0.	2.8726e-003
665	12.923	5.0909	0.	8.4539e-003
666	12.923	4.9091	0.	1.0652e-002
667	12.923	4.7273	0.	1.1747e-002
668	12.923	4.5455	0.	1.1838e-002
669	12.923	4.3636	0.	1.1374e-002
670	12.923	4.1818	0.	1.0617e-002
671	12.923	4.	0.	9.793e-003
672	12.923	3.8182	0.	9.0622e-003
673	12.923	3.6364	0.	8.5189e-003
674	12.923	3.4545	0.	8.1841e-003
675	12.923	3.2727	0.	8.0172e-003
676	12.923	3.0909	0.	7.9576e-003
677	12.923	2.9091	0.	7.957e-003
678	12.923	2.7273	0.	8.0177e-003
679	12.923	2.5455	0.	8.1838e-003
680	12.923	2.3636	0.	8.5193e-003
681	12.923	2.1818	0.	9.0624e-003
682	12.923	2.	0.	9.7935e-003
683	12.923	1.8182	0.	1.0618e-002
684	12.923	1.6364	0.	1.1375e-002
685	12.923	1.4545	0.	1.184e-002
686	12.923	1.2727	0.	1.1748e-002
687	12.923	1.0909	0.	1.0653e-002
688	12.923	0.90909	0.	8.4552e-003
689	12.923	0.72727	0.	2.8734e-003
690	12.923	0.54545	0.	-9.7428e-004
691	12.923	0.36364	0.	-3.8767e-002
692	12.923	0.18182	0.	-1.5011e-002
693	12.738	5.8182	0.	-1.096e-002
694	12.738	5.6364	0.	-3.4032e-002
695	12.738	5.4545	0.	-1.6389e-003
696	12.738	5.2727	0.	1.9801e-003
697	12.738	5.0909	0.	7.1135e-003
698	12.738	4.9091	0.	9.3172e-003
699	12.738	4.7273	0.	1.0527e-002
700	12.738	4.5455	0.	1.0823e-002
701	12.738	4.3636	0.	1.0589e-002
702	12.738	4.1818	0.	1.0046e-002
703	12.738	4.	0.	9.3906e-003
704	12.738	3.8182	0.	8.7589e-003
705	12.738	3.6364	0.	8.2445e-003
706	12.738	3.4545	0.	7.8836e-003
707	12.738	3.2727	0.	7.6686e-003
708	12.738	3.0909	0.	7.5719e-003
709	12.738	2.9091	0.	7.5722e-003
710	12.738	2.7273	0.	7.6687e-003
711	12.738	2.5455	0.	7.8839e-003
712	12.738	2.3636	0.	8.2459e-003
713	12.738	2.1818	0.	8.7594e-003
714	12.738	2.	0.	9.3899e-003
715	12.738	1.8182	0.	1.0047e-002
716	12.738	1.6364	0.	1.059e-002
717	12.738	1.4545	0.	1.0824e-002
718	12.738	1.2727	0.	1.0527e-002
719	12.738	1.0909	0.	9.3176e-003
720	12.738	0.90909	0.	7.1148e-003
721	12.738	0.72727	0.	1.9812e-003
722	12.738	0.54545	0.	-1.6385e-003
723	12.738	0.36364	0.	-3.4032e-002
724	12.738	0.18182	0.	-1.096e-002
725	12.554	5.8182	0.	-7.8921e-003
726	12.554	5.6364	0.	-2.9771e-002
727	12.554	5.4545	0.	-2.0995e-003
728	12.554	5.2727	0.	1.2629e-003
729	12.554	5.0909	0.	5.9565e-003
730	12.554	4.9091	0.	8.122e-003
731	12.554	4.7273	0.	9.3979e-003
732	12.554	4.5455	0.	9.8479e-003
733	12.554	4.3636	0.	9.7969e-003
734	12.554	4.1818	0.	9.4336e-003
735	12.554	4.	0.	8.9287e-003
736	12.554	3.8182	0.	8.4026e-003
737	12.554	3.6364	0.	7.9421e-003
738	12.554	3.4545	0.	7.5925e-003
739	12.554	3.2727	0.	7.3669e-003
740	12.554	3.0909	0.	7.258e-003
741	12.554	2.9091	0.	7.2584e-003
742	12.554	2.7273	0.	7.3666e-003
743	12.554	2.5455	0.	7.5934e-003
744	12.554	2.3636	0.	7.9419e-003
745	12.554	2.1818	0.	8.4021e-003
746	12.554	2.	0.	8.9287e-003
747	12.554	1.8182	0.	9.4344e-003
748	12.554	1.6364	0.	9.7969e-003
749	12.554	1.4545	0.	9.8484e-003
750	12.554	1.2727	0.	9.3988e-003
751	12.554	1.0909	0.	8.1228e-003
752	12.554	0.90909	0.	5.9578e-003
753	12.554	0.72727	0.	1.2648e-003
754	12.554	0.54545	0.	-2.0989e-003
755	12.554	0.36364	0.	-2.977e-002
756	12.554	0.18182	0.	-7.892e-003
757	12.369	5.8182	0.	-5.6218e-003
758	12.369	5.6364	0.	-2.5933e-002
759	12.369	5.4545	0.	-2.4038e-003
760	12.369	5.2727	0.	6.909e-004
761	12.369	5.0909	0.	4.9558e-003
762	12.369	4.9091	0.	7.0546e-003
763	12.369	4.7273	0.	8.3596e-003
764	12.369	4.5455	0.	8.9296e-003
765	12.369	4.3636	0.	9.0145e-003
766	12.369	4.1818	0.	8.8032e-003
767	12.369	4.	0.	8.4311e-003
768	12.369	3.8182	0.	8.0078e-003
769	12.369	3.6364	0.	7.6131e-003
770	12.369	3.4545	0.	7.298e-003
771	12.369	3.2727	0.	7.0826e-003
772	12.369	3.0909	0.	6.9749e-003
773	12.369	2.9091	0.	6.9755e-003
774	12.369	2.7273	0.	7.0832e-003
775	12.369	2.5455	0.	7.2977e-003
776	12.369	2.3636	0.	7.6136e-003
777	12.369	2.1818	0.	8.008e-003
778	12.369	2.	0.	8.4311e-003
779	12.369	1.8182	0.	8.8034e-003
780	12.369	1.6364	0.	9.0146e-003
781	12.369	1.4545	0.	8.9296e-003
782	12.369	1.2727	0.	8.3599e-003
783	12.369	1.0909	0.	7.0554e-003
784	12.369	0.90909	0.	4.9568e-003
785	12.369	0.72727	0.	6.9185e-004
786	12.369	0.54545	0.	-2.4039e-003
787	12.369	0.36364	0.	-2.5933e-002
788	12.369	0.18182	0.	-5.6209e-003
789	12.185	5.8182	0.	-3.9567e-003
790	12.185	5.6364	0.	-2.2434e-002
791	12.185	5.4545	0.	-2.5546e-003
792	12.185	5.2727	0.	2.6852e-004
793	12.185	5.0909	0.	4.1228e-003
794	12.185	4.9091	0.	6.132e-003
795	12.185	4.7273	0.	7.4392e-003
796	12.185	4.5455	0.	8.0805e-003
797	12.185	4.3636	0.	8.2885e-003
798	12.185	4.1818	0.	8.2023e-003
799	12.185	4.	0.	7.9478e-003
800	12.185	3.8182	0.	7.6206e-003
801	12.185	3.6364	0.	7.2957e-003
802	12.185	3.4545	0.	7.0244e-003
803	12.185	3.2727	0.	6.8319e-003
804	12.185	3.0909	0.	6.7336e-003
805	12.185	2.9091	0.	6.734e-003
806	12.185	2.7273	0.	6.8319e-003
807	12.185	2.5455	0.	7.0244e-003
808	12.185	2.3636	0.	7.2963e-003
809	12.185	2.1818	0.	7.6207e-003
810	12.185	2.	0.	7.9477e-003
811	12.185	1.8182	0.	8.2028e-003
812	12.185	1.6364	0.	8.289e-003
813	12.185	1.4545	0.	8.0811e-003
814	12.185	1.2727	0.	7.4402e-003
815	12.185	1.0909	0.	6.1322e-003
816	12.185	0.90909	0.	4.1241e-003
817	12.185	0.72727	0.	2.6948e-004
818	12.185	0.54545	0.	-2.5541e-003
819	12.185	0.36364	0.	-2.2434e-002
820	12.185	0.18182	0.	-3.9562e-003
821	12.	5.8182	0.	-2.7793e-003
822	12.	5.6364	0.	-1.9229e-002
823	12.	5.4545	0.	-2.5877e-003
824	12.	5.2727	0.	-3.4001e-005
825	12.	5.0909	0.	3.425e-003
826	12.	4.9091	0.	5.3291e-003
827	12.	4.7273	0.	6.6181e-003
828	12.	4.5455	0.	7.3148e-003
829	12.	4.3636	0.	7.6117e-003
830	12.	4.1818	0.	7.6297e-003
831	12.	4.	0.	7.477e-003
832	12.	3.8182	0.	7.2376e-003
833	12.	3.6364	0.	6.9819e-003
834	12.	3.4545	0.	6.7566e-003
835	12.	3.2727	0.	6.5923e-003
836	12.	3.0909	0.	6.5069e-003
837	12.	2.9091	0.	6.5067e-003
838	12.	2.7273	0.	6.593e-003
839	12.	2.5455	0.	6.7575e-003
840	12.	2.3636	0.	6.9818e-003
841	12.	2.1818	0.	7.2381e-003
842	12.	2.	0.	7.4772e-003
843	12.	1.8182	0.	7.6306e-003
844	12.	1.6364	0.	7.6117e-003
845	12.	1.4545	0.	7.3147e-003
846	12.	1.2727	0.	6.6187e-003
847	12.	1.0909	0.	5.3302e-003
848	12.	0.90909	0.	3.4264e-003
849	12.	0.72727	0.	-3.257e-005
850	12.	0.54545	0.	-2.5871e-003
851	12.	0.36364	0.	-1.9228e-002
852	12.	0.18182	0.	-2.7787e-003
853	11.815	5.8182	0.	-2.0093e-003
854	11.815	5.6364	0.	-1.6288e-002
855	11.815	5.4545	0.	-2.5454e-003
856	11.815	5.2727	0.	-2.5571e-004
857	11.815	5.0909	0.	2.8192e-003
858	11.815	4.9091	0.	4.6071e-003
859	11.815	4.7273	0.	5.8609e-003
860	11.815	4.5455	0.	6.5924e-003
861	11.815	4.3636	0.	6.961e-003
862	11.815	4.1818	0.	7.0658e-003
863	11.815	4.	0.	7.0013e-003
864	11.815	3.8182	0.	6.8416e-003
865	11.815	3.6364	0.	6.6498e-003
866	11.815	3.4545	0.	6.4714e-003
867	11.815	3.2727	0.	6.3367e-003
868	11.815	3.0909	0.	6.2649e-003
869	11.815	2.9091	0.	6.265e-003
870	11.815	2.7273	0.	6.3372e-003
871	11.815	2.5455	0.	6.4714e-003
872	11.815	2.3636	0.	6.6499e-003
873	11.815	2.1818	0.	6.8422e-003
874	11.815	2.	0.	7.0019e-003
875	11.815	1.8182	0.	7.0661e-003
876	11.815	1.6364	0.	6.9614e-003
877	11.815	1.4545	0.	6.5933e-003
878	11.815	1.2727	0.	5.8619e-003
879	11.815	1.0909	0.	4.6083e-003
880	11.815	0.90909	0.	2.8209e-003
881	11.815	0.72727	0.	-2.56e-004
882	11.815	0.54545	0.	-2.5444e-003
883	11.815	0.36364	0.	-1.6288e-002
884	11.815	0.18182	0.	-2.0091e-003
885	11.631	5.8182	0.	-1.5509e-003
886	11.631	5.6364	0.	-1.354e-002
887	11.631	5.4545	0.	-2.4199e-003
888	11.631	5.2727	0.	-3.9455e-004
889	11.631	5.0909	0.	2.3073e-003
890	11.631	4.9091	0.	3.9669e-003
891	11.631	4.7273	0.	5.1726e-003
892	11.631	4.5455	0.	5.9239e-003
893	11.631	4.3636	0.	6.348e-003
894	11.631	4.1818	0.	6.528e-003
895	11.631	4.	0.	6.541e-003
896	11.631	3.8182	0.	6.4544e-003
897	11.631	3.6364	0.	6.321e-003
898	11.631	3.4545	0.	6.1887e-003
899	11.631	3.2727	0.	6.0833e-003
900	11.631	3.0909	0.	6.026e-003
901	11.631	2.9091	0.	6.0257e-003
902	11.631	2.7273	0.	6.0835e-003
903	11.631	2.5455	0.	6.1891e-003
904	11.631	2.3636	0.	6.3217e-003
905	11.631	2.1818	0.	6.4539e-003
906	11.631	2.	0.	6.5414e-003
907	11.631	1.8182	0.	6.5278e-003
908	11.631	1.6364	0.	6.3484e-003
909	11.631	1.4545	0.	5.9246e-003
910	11.631	1.2727	0.	5.1729e-003
911	11.631	1.0909	0.	3.9682e-003
912	11.631	0.90909	0.	2.3087e-003
913	11.631	0.72727	0.	-3.9321e-004
914	11.631	0.54545	0.	-2.4203e-003
915	11.631	0.36364	0.	-1.354e-002
916	11.631	0.18182	0.	-1.5494e-003
917	11.446	5.8182	0.	-1.3324e-003
918	11.446	5.6364	0.	-1.0928e-002
919	11.446	5.4545	0.	-2.207e-003
920	11.446	5.2727	0.	-4.4916e-004
921	11.446	5.0909	0.	1.8761e-003
922	11.446	4.9091	0.	3.3924e-003
923	11.446	4.7273	0.	4.5356e-003
924	11.446	4.5455	0.	5.294e-003
925	11.446	4.3636	0.	5.7647e-003
926	11.446	4.1818	0.	6.0112e-003
927	11.446	4.	0.	6.0982e-003
928	11.446	3.8182	0.	6.0801e-003
929	11.446	3.6364	0.	6.0086e-003
930	11.446	3.4545	0.	5.9201e-003
931	11.446	3.2727	0.	5.8451e-003
932	11.446	3.0909	0.	5.8016e-003
933	11.446	2.9091	0.	5.8021e-003
934	11.446	2.7273	0.	5.8444e-003
935	11.446	2.5455	0.	5.9204e-003
936	11.446	2.3636	0.	6.0086e-003
937	11.446	2.1818	0.	6.0809e-003
938	11.446	2.	0.	6.0987e-003
939	11.446	1.8182	0.	6.0115e-003
940	11.446	1.6364	0.	5.7652e-003
941	11.446	1.4545	0.	5.2953e-003
942	11.446	1.2727	0.	4.5359e-003
943	11.446	1.0909	0.	3.3922e-003
944	11.446	0.90909	0.	1.8772e-003
945	11.446	0.72727	0.	-4.4792e-004
946	11.446	0.54545	0.	-2.2086e-003
947	11.446	0.36364	0.	-1.0927e-002
948	11.446	0.18182	0.	-1.3301e-003
949	11.262	5.8182	0.	-1.3458e-003
950	11.262	5.6364	0.	-8.4352e-003
951	11.262	5.4545	0.	-1.9454e-003
952	11.262	5.2727	0.	-4.6909e-004
953	11.262	5.0909	0.	1.4604e-003
954	11.262	4.9091	0.	2.8042e-003
955	11.262	4.7273	0.	3.8609e-003
956	11.262	4.5455	0.	4.6101e-003
957	11.262	4.3636	0.	5.1166e-003
958	11.262	4.1818	0.	5.4283e-003
959	11.262	4.	0.	5.5939e-003
960	11.262	3.8182	0.	5.6551e-003
961	11.262	3.6364	0.	5.6535e-003
962	11.262	3.4545	0.	5.6227e-003
963	11.262	3.2727	0.	5.5868e-003
964	11.262	3.0909	0.	5.5649e-003
965	11.262	2.9091	0.	5.5652e-003
966	11.262	2.7273	0.	5.5873e-003
967	11.262	2.5455	0.	5.6232e-003
968	11.262	2.3636	0.	5.6538e-003
969	11.262	2.1818	0.	5.6548e-003
970	11.262	2.	0.	5.5944e-003
971	11.262	1.8182	0.	5.4289e-003
972	11.262	1.6364	0.	5.1171e-003
973	11.262	1.4545	0.	4.6106e-003
974	11.262	1.2727	0.	3.8615e-003
975	11.262	1.0909	0.	2.8051e-003
976	11.262	0.90909	0.	1.462e-003
977	11.262	0.72727	0.	-4.6802e-004
978	11.262	0.54545	0.	-1.946e-003
979	11.262	0.36364	0.	-8.4344e-003
980	11.262	0.18182	0.	-1.345e-003
981	11.077	5.8182	0.	-1.5504e-003
982	11.077	5.6364	0.	-6.0078e-003
983	11.077	5.4545	0.	-1.6221e-003
984	11.077	5.2727	0.	-4.6475e-004
985	11.077	5.0909	0.	1.0115e-003
986	11.077	4.9091	0.	2.1061e-003
987	11.077	4.7273	0.	3.0006e-003
988	11.077	4.5455	0.	3.6715e-003
989	11.077	4.3636	0.	4.1547e-003
990	11.077	4.1818	0.	4.4808e-003
991	11.077	4.	0.	4.6816e-003
992	11.077	3.8182	0.	4.7842e-003
993	11.077	3.6364	0.	4.8106e-003
994	11.077	3.4545	0.	4.7546e-003
995	11.077	3.2727	0.	4.1183e-003
996	11.077	3.0909	0.	-9.1537e-002
997	11.077	2.9091	0.	-9.1537e-002
998	11.077	2.7273	0.	4.1184e-003
999	11.077	2.5455	0.	4.7547e-003
1000	11.077	2.3636	0.	4.8119e-003
1001	11.077	2.1818	0.	4.7834e-003
1002	11.077	2.	0.	4.6823e-003
1003	11.077	1.8182	0.	4.4814e-003
1004	11.077	1.6364	0.	4.1548e-003
1005	11.077	1.4545	0.	3.6721e-003
1006	11.077	1.2727	0.	3.0014e-003
1007	11.077	1.0909	0.	2.107e-003
1008	11.077	0.90909	0.	1.0126e-003
1009	11.077	0.72727	0.	-4.6413e-004
1010	11.077	0.54545	0.	-1.6225e-003
1011	11.077	0.36364	0.	-6.0073e-003
1012	11.077	0.18182	0.	-1.5492e-003
1013	10.892	5.8182	0.	-1.9958e-003
1014	10.892	5.6364	0.	-3.6689e-003
1015	10.892	5.4545	0.	-1.3019e-003
1016	10.892	5.2727	0.	-5.4886e-004
1017	10.892	5.0909	0.	2.9957e-004
1018	10.892	4.9091	0.	8.6148e-004
1019	10.892	4.7273	0.	1.1325e-003
1020	10.892	4.5455	0.	8.1837e-004
1021	10.892	4.3636	0.	-1.7812e-003
1022	10.892	4.1818	0.	-0.23464
1023	10.892	4.	0.	-1.1002
1024	10.892	3.8182	0.	-1.8766
1025	10.892	3.6364	0.	-2.5304
1026	10.892	3.4545	0.	-3.0406
1027	10.892	3.2727	0.	-3.3905
1028	10.892	3.0909	0.	-3.5684
1029	10.892	2.9091	0.	-3.5684
1030	10.892	2.7273	0.	-3.3905
1031	10.892	2.5455	0.	-3.0406
1032	10.892	2.3636	0.	-2.5304
1033	10.892	2.1818	0.	-1.8766
1034	10.892	2.	0.	-1.1002
1035	10.892	1.8182	0.	-0.23464
1036	10.892	1.6364	0.	-1.7804e-003
1037	10.892	1.4545	0.	8.195e-004
1038	10.892	1.2727	0.	1.1328e-003
1039	10.892	1.0909	0.	8.6272e-004
1040	10.892	0.90909	0.	3.0054e-004
1041	10.892	0.72727	0.	-5.4831e-004
1042	10.892	0.54545	0.	-1.3018e-003
1043	10.892	0.36364	0.	-3.6683e-003
1044	10.892	0.18182	0.	-1.9946e-003
1045	10.708	5.8182	0.	-2.6288e-003
1046	10.708	5.6364	0.	-1.3224e-003
1047	10.708	5.4545	0.	-9.3288e-004
1048	10.708	5.2727	0.	-8.0282e-004
1049	10.708	5.0909	0.	-1.2568e-003
1050	10.708	4.9091	0.	-3.5865e-003
1051	10.708	4.7273	0.	-3.7338e-002
1052	10.708	4.5455	0.	-1.0874
1053	10.708	4.3636	0.	-2.2844
1054	10.708	4.1818	0.	-3.4005
1055	10.708	4.	0.	-4.4112
1056	10.708	3.8182	0.	-5.2942
1057	10.708	3.6364	0.	-6.0289
1058	10.708	3.4545	0.	-6.5971
1059	10.708	3.2727	0.	-6.9844
1060	10.708	3.0909	0.	-7.1807
1061	10.708	2.9091	0.	-7.1807
1062	10.708	2.7273	0.	-6.9844
1063	10.708	2.5455	0.	-6.5971
1064	10.708	2.3636	0.	-6.0289
1065	10.708	2.1818	0.	-5.2942
1066	10.708	2.	0.	-4.4112
1067	10.708	1.8182	0.	-3.4005
1068	10.708	1.6364	0.	-2.2844
1069	10.708	1.4545	0.	-1.0874
1070	10.708	1.2727	0.	-3.7339e-002
1071	10.708	1.0909	0.	-3.5857e-003
1072	10.708	0.90909	0.	-1.2554e-003
1073	10.708	0.72727	0.	-8.0094e-004
1074	10.708	0.54545	0.	-9.3205e-004
1075	10.708	0.36364	0.	-1.3211e-003
1076	10.708	0.18182	0.	-2.628e-003
1077	10.523	5.8182	0.	-3.482e-003
1078	10.523	5.6364	0.	1.0545e-003
1079	10.523	5.4545	0.	-5.4718e-004
1080	10.523	5.2727	0.	-1.7763e-003
1081	10.523	5.0909	0.	-1.1005e-002
1082	10.523	4.9091	0.	-0.87882
1083	10.523	4.7273	0.	-2.4564
1084	10.523	4.5455	0.	-3.9629
1085	10.523	4.3636	0.	-5.3744
1086	10.523	4.1818	0.	-6.6704
1087	10.523	4.	0.	-7.83
1088	10.523	3.8182	0.	-8.833
1089	10.523	3.6364	0.	-9.6608
1090	10.523	3.4545	0.	-10.297
1091	10.523	3.2727	0.	-10.729
1092	10.523	3.0909	0.	-10.947
1093	10.523	2.9091	0.	-10.947
1094	10.523	2.7273	0.	-10.729
1095	10.523	2.5455	0.	-10.297
1096	10.523	2.3636	0.	-9.6608
1097	10.523	2.1818	0.	-8.833
1098	10.523	2.	0.	-7.83
1099	10.523	1.8182	0.	-6.6704
1100	10.523	1.6364	0.	-5.3744
1101	10.523	1.4545	0.	-3.9629
1102	10.523	1.2727	0.	-2.4564
1103	10.523	1.0909	0.	-0.87882
1104	10.523	0.90909	0.	-1.1004e-002
1105	10.523	0.72727	0.	-1.7755e-003
1106	10.523	0.54545	0.	-5.4706e-004
1107	10.523	0.36364	0.	1.0545e-003
1108	10.523	0.18182	0.	-3.4809e-003
1109	10.338	5.8182	0.	-4.6839e-003
1110	10.338	5.6364	0.	3.3988e-003
1111	10.338	5.4545	0.	-3.2092e-004
1112	10.338	5.2727	0.	-9.3356e-003
1113	10.338	5.0909	0.	-1.3225
1114	10.338	4.9091	0.	-3.2861
1115	10.338	4.7273	0.	-5.1608
1116	10.338	4.5455	0.	-6.9267
1117	10.338	4.3636	0.	-8.5649
1118	10.338	4.1818	0.	-10.055
1119	10.338	4.	0.	-11.379
1120	10.338	3.8182	0.	-12.515
1121	10.338	3.6364	0.	-13.448
1122	10.338	3.4545	0.	-14.162
1123	10.338	3.2727	0.	-14.644
1124	10.338	3.0909	0.	-14.888
1125	10.338	2.9091	0.	-14.888
1126	10.338	2.7273	0.	-14.644
1127	10.338	2.5455	0.	-14.162
1128	10.338	2.3636	0.	-13.448
1129	10.338	2.1818	0.	-12.515
1130	10.338	2.	0.	-11.379
1131	10.338	1.8182	0.	-10.055
1132	10.338	1.6364	0.	-8.5649
1133	10.338	1.4545	0.	-6.9267
1134	10.338	1.2727	0.	-5.1608
1135	10.338	1.0909	0.	-3.2861
1136	10.338	0.90909	0.	-1.3226
1137	10.338	0.72727	0.	-9.334e-003
1138	10.338	0.54545	0.	-3.2038e-004
1139	10.338	0.36364	0.	3.3997e-003
1140	10.338	0.18182	0.	-4.6832e-003
1141	10.154	5.8182	0.	-6.2529e-003
1142	10.154	5.6364	0.	5.7914e-003
1143	10.154	5.4545	0.	-6.6859e-004
1144	10.154	5.2727	0.	-1.0732
1145	10.154	5.0909	0.	-3.4763
1146	10.154	4.9091	0.	-5.7777
1147	10.154	4.7273	0.	-7.9578
1148	10.154	4.5455	0.	-9.9978
1149	10.154	4.3636	0.	-11.878
1150	10.154	4.1818	0.	-13.579
1151	10.154	4.	0.	-15.08
1152	10.154	3.8182	0.	-16.364
1153	10.154	3.6364	0.	-17.413
1154	10.154	3.4545	0.	-18.213
1155	10.154	3.2727	0.	-18.753
1156	10.154	3.0909	0.	-19.025
1157	10.154	2.9091	0.	-19.025
1158	10.154	2.7273	0.	-18.753
1159	10.154	2.5455	0.	-18.213
1160	10.154	2.3636	0.	-17.413
1161	10.154	2.1818	0.	-16.364
1162	10.154	2.	0.	-15.08
1163	10.154	1.8182	0.	-13.579
1164	10.154	1.6364	0.	-11.878
1165	10.154	1.4545	0.	-9.9978
1166	10.154	1.2727	0.	-7.9578
1167	10.154	1.0909	0.	-5.7777
1168	10.154	0.90909	0.	-3.4763
1169	10.154	0.72727	0.	-1.0732
1170	10.154	0.54545	0.	-6.6821e-004
1171	10.154	0.36364	0.	5.7924e-003
1172	10.154	0.18182	0.	-6.2521e-003
1173	9.9692	5.8182	0.	-8.3746e-003
1174	9.9692	5.6364	0.	8.1543e-003
1175	9.9692	5.4545	0.	-6.9015e-002
1176	9.9692	5.2727	0.	-2.9318
1177	9.9692	5.0909	0.	-5.7149
1178	9.9692	4.9091	0.	-8.3668
1179	9.9692	4.7273	0.	-10.868
1180	9.9692	4.5455	0.	-13.199
1181	9.9692	4.3636	0.	-15.338
1182	9.9692	4.1818	0.	-17.265
1183	9.9692	4.	0.	-18.96
1184	9.9692	3.8182	0.	-20.404
1185	9.9692	3.6364	0.	-21.581
1186	9.9692	3.4545	0.	-22.476
1187	9.9692	3.2727	0.	-23.08
1188	9.9692	3.0909	0.	-23.383
1189	9.9692	2.9091	0.	-23.383
1190	9.9692	2.7273	0.	-23.08
1191	9.9692	2.5455	0.	-22.476
1192	9.9692	2.3636	0.	-21.581
1193	9.9692	2.1818	0.	-20.404
1194	9.9692	2.	0.	-18.96
1195	9.9692	1.8182	0.	-17.265
1196	9.9692	1.6364	0.	-15.338
1197	9.9692	1.4545	0.	-13.199
1198	9.9692	1.2727	0.	-10.868
1199	9.9692	1.0909	0.	-8.3669
1200	9.9692	0.90909	0.	-5.7149
1201	9.9692	0.72727	0.	-2.9318
1202	9.9692	0.54545	0.	-6.902e-002
1203	9.9692	0.36364	0.	8.1554e-003
1204	9.9692	0.18182	0.	-8.3731e-003
1205	9.7846	5.8182	0.	-1.1278e-002
1206	9.7846	5.6364	0.	1.0318e-002
1207	9.7846	5.4545	0.	-1.5584
1208	9.7846	5.2727	0.	-4.8746
1209	9.7846	5.0909	0.	-8.0521
1210	9.7846	4.9091	0.	-11.072
1211	9.7846	4.7273	0.	-13.913
1212	9.7846	4.5455	0.	-16.553
1213	9.7846	4.3636	0.	-18.968
1214	9.7846	4.1818	0.	-21.138
1215	9.7846	4.	0.	-23.042
1216	9.7846	3.8182	0.	-24.66
1217	9.7846	3.6364	0.	-25.976
1218	9.7846	3.4545	0.	-26.976
1219	9.7846	3.2727	0.	-27.649
1220	9.7846	3.0909	0.	-27.988
1221	9.7846	2.9091	0.	-27.988
1222	9.7846	2.7273	0.	-27.649
1223	9.7846	2.5455	0.	-26.976
1224	9.7846	2.3636	0.	-25.976
1225	9.7846	2.1818	0.	-24.66
1226	9.7846	2.	0.	-23.042
1227	9.7846	1.8182	0.	-21.138
1228	9.7846	1.6364	0.	-18.968
1229	9.7846	1.4545	0.	-16.553
1230	9.7846	1.2727	0.	-13.913
1231	9.7846	1.0909	0.	-11.072
1232	9.7846	0.90909	0.	-8.0521
1233	9.7846	0.72727	0.	-4.8746
1234	9.7846	0.54545	0.	-1.5584
1235	9.7846	0.36364	0.	1.0319e-002
1236	9.7846	0.18182	0.	-1.1277e-002
1237	9.6	5.8182	0.	-1.5297e-002
1238	9.6	5.6364	0.	1.1006e-002
1239	9.6	5.4545	0.	-3.1591
1240	9.6	5.2727	0.	-6.9124
1241	9.6	5.0909	0.	-10.505
1242	9.6	4.9091	0.	-13.914
1243	9.6	4.7273	0.	-17.114
1244	9.6	4.5455	0.	-20.083
1245	9.6	4.3636	0.	-22.794
1246	9.6	4.1818	0.	-25.224
1247	9.6	4.	0.	-27.353
1248	9.6	3.8182	0.	-29.16
1249	9.6	3.6364	0.	-30.627
1250	9.6	3.4545	0.	-31.741
1251	9.6	3.2727	0.	-32.49
1252	9.6	3.0909	0.	-32.867
1253	9.6	2.9091	0.	-32.867
1254	9.6	2.7273	0.	-32.49
1255	9.6	2.5455	0.	-31.741
1256	9.6	2.3636	0.	-30.627
1257	9.6	2.1818	0.	-29.16
1258	9.6	2.	0.	-27.353
1259	9.6	1.8182	0.	-25.224
1260	9.6	1.6364	0.	-22.794
1261	9.6	1.4545	0.	-20.083
1262	9.6	1.2727	0.	-17.114
1263	9.6	1.0909	0.	-13.914
1264	9.6	0.90909	0.	-10.505
1265	9.6	0.72727	0.	-6.9124
1266	9.6	0.54545	0.	-3.1591
1267	9.6	0.36364	0.	1.1007e-002
1268	9.6	0.18182	0.	-1.5296e-002
1269	9.4154	5.8182	0.	-2.1073e-002
1270	9.4154	5.6364	0.	-0.42623
1271	9.4154	5.4545	0.	-4.8452
1272	9.4154	5.2727	0.	-9.0589
1273	9.4154	5.0909	0.	-13.089
1274	9.4154	4.9091	0.	-16.91
1275	9.4154	4.7273	0.	-20.494
1276	9.4154	4.5455	0.	-23.812
1277	9.4154	4.3636	0.	-26.84
1278	9.4154	4.1818	0.	-29.55
1279	9.4154	4.	0.	-31.921
1280	9.4154	3.8182	0.	-33.932
1281	9.4154	3.6364	0.	-35.563
1282	9.4154	3.4545	0.	-36.8
1283	9.4154	3.2727	0.	-37.632
1284	9.4154	3.0909	0.	-38.05
1285	9.4154	2.9091	0.	-38.05
1286	9.4154	2.7273	0.	-37.632
1287	9.4154	2.5455	0.	-36.8
1288	9.4154	2.3636	0.	-35.563
1289	9.4154	2.1818	0.	-33.932
1290	9.4154	2.	0.	-31.921
1291	9.4154	1.8182	0.	-29.55
1292	9.4154	1.6364	0.	-26.84
1293	9.4154	1.4545	0.	-23.812
1294	9.4154	1.2727	0.	-20.494
1295	9.4154	1.0909	0.	-16.91
1296	9.4154	0.90909	0.	-13.089
1297	9.4154	0.72727	0.	-9.0589
1298	9.4154	0.54545	0.	-4.8452
1299	9.4154	0.36364	0.	-0.42622
1300	9.4154	0.18182	0.	-2.1072e-002
1301	9.2308	5.8182	0.	-2.9794e-002
1302	9.2308	5.6364	0.	-1.6979
1303	9.2308	5.4545	0.	-6.6271
1304	9.2308	5.2727	0.	-11.328
1305	9.2308	5.0909	0.	-15.823
1306	9.2308	4.9091	0.	-20.082
1307	9.2308	4.7273	0.	-24.073
1308	9.2308	4.5455	0.	-27.767
1309	9.2308	4.3636	0.	-31.133
1310	9.2308	4.1818	0.	-34.144
1311	9.2308	4.	0.	-36.776
1312	9.2308	3.8182	0.	-39.006
1313	9.2308	3.6364	0.	-40.815
1314	9.2308	3.4545	0.	-42.186
1315	9.2308	3.2727	0.	-43.107
1316	9.2308	3.0909	0.	-43.569
1317	9.2308	2.9091	0.	-43.569
1318	9.2308	2.7273	0.	-43.107
1319	9.2308	2.5455	0.	-42.186
1320	9.2308	2.3636	0.	-40.815
1321	9.2308	2.1818	0.	-39.006
1322	9.2308	2.	0.	-36.776
1323	9.2308	1.8182	0.	-34.144
1324	9.2308	1.6364	0.	-31.133
1325	9.2308	1.4545	0.	-27.767
1326	9.2308	1.2727	0.	-24.073
1327	9.2308	1.0909	0.	-20.082
1328	9.2308	0.90909	0.	-15.823
1329	9.2308	0.72727	0.	-11.328
1330	9.2308	0.54545	0.	-6.6271
1331	9.2308	0.36364	0.	-1.6978
1332	9.2308	0.18182	0.	-2.9792e-002
1333	9.0462	5.8182	0.	-4.3893e-002
1334	9.0462	5.6364	0.	-3.049
1335	9.0462	5.4545	0.	-8.5156
1336	9.0462	5.2727	0.	-13.735
1337	9.0462	5.0909	0.	-18.725
1338	9.0462	4.9091	0.	-23.45
1339	9.0462	4.7273	0.	-27.877
1340	9.0462	4.5455	0.	-31.972
1341	9.0462	4.3636	0.	-35.701
1342	9.0462	4.1818	0.	-39.036
1343	9.0462	4.	0.	-41.949
1344	9.0462	3.8182	0.	-44.416
1345	9.0462	3.6364	0.	-46.416
1346	9.0462	3.4545	0.	-47.931
1347	9.0462	3.2727	0.	-48.949
1348	9.0462	3.0909	0.	-49.46
1349	9.0462	2.9091	0.	-49.46
1350	9.0462	2.7273	0.	-48.949
1351	9.0462	2.5455	0.	-47.931
1352	9.0462	2.3636	0.	-46.416
1353	9.0462	2.1818	0.	-44.416
1354	9.0462	2.	0.	-41.949
1355	9.0462	1.8182	0.	-39.036
1356	9.0462	1.6364	0.	-35.701
1357	9.0462	1.4545	0.	-31.972
1358	9.0462	1.2727	0.	-27.877
1359	9.0462	1.0909	0.	-23.45
1360	9.0462	0.90909	0.	-18.725
1361	9.0462	0.72727	0.	-13.735
1362	9.0462	0.54545	0.	-8.5156
1363	9.0462	0.36364	0.	-3.049
1364	9.0462	0.18182	0.	-4.3892e-002
1365	8.8615	5.8182	0.	-6.9203e-002
1366	8.8615	5.6364	0.	-4.4835
1367	8.8615	5.4545	0.	-10.522
1368	8.8615	5.2727	0.	-16.294
1369	8.8615	5.0909	0.	-21.811
1370	8.8615	4.9091	0.	-27.037
1371	8.8615	4.7273	0.	-31.93
1372	8.8615	4.5455	0.	-36.454
1373	8.8615	4.3636	0.	-40.575
1374	8.8615	4.1818	0.	-44.257
1375	8.8615	4.	0.	-47.473
1376	8.8615	3.8182	0.	-50.196
1377	8.8615	3.6364	0.	-52.402
1378	8.8615	3.4545	0.	-54.073
1379	8.8615	3.2727	0.	-55.196
1380	8.8615	3.0909	0.	-55.759
1381	8.8615	2.9091	0.	-55.759
1382	8.8615	2.7273	0.	-55.196
1383	8.8615	2.5455	0.	-54.073
1384	8.8615	2.3636	0.	-52.402
1385	8.8615	2.1818	0.	-50.196
1386	8.8615	2.	0.	-47.473
1387	8.8615	1.8182	0.	-44.257
1388	8.8615	1.6364	0.	-40.575
1389	8.8615	1.4545	0.	-36.454
1390	8.8615	1.2727	0.	-31.93
1391	8.8615	1.0909	0.	-27.037
1392	8.8615	0.90909	0.	-21.811
1393	8.8615	0.72727	0.	-16.294
1394	8.8615	0.54545	0.	-10.522
1395	8.8615	0.36364	0.	-4.4835
1396	8.8615	0.18182	0.	-6.9201e-002
1397	8.6769	5.8182	0.	-0.1233
1398	8.6769	5.6364	0.	-6.0087
1399	8.6769	5.4545	0.	-12.658
1400	8.6769	5.2727	0.	-19.02
1401	8.6769	5.0909	0.	-25.103
1402	8.6769	4.9091	0.	-30.863
1403	8.6769	4.7273	0.	-36.257
1404	8.6769	4.5455	0.	-41.244
1405	8.6769	4.3636	0.	-45.784
1406	8.6769	4.1818	0.	-49.841
1407	8.6769	4.	0.	-53.384
1408	8.6769	3.8182	0.	-56.382
1409	8.6769	3.6364	0.	-58.811
1410	8.6769	3.4545	0.	-60.651
1411	8.6769	3.2727	0.	-61.887
1412	8.6769	3.0909	0.	-62.507
1413	8.6769	2.9091	0.	-62.507
1414	8.6769	2.7273	0.	-61.887
1415	8.6769	2.5455	0.	-60.651
1416	8.6769	2.3636	0.	-58.811
1417	8.6769	2.1818	0.	-56.382
1418	8.6769	2.	0.	-53.384
1419	8.6769	1.8182	0.	-49.841
1420	8.6769	1.6364	0.	-45.784
1421	8.6769	1.4545	0.	-41.244
1422	8.6769	1.2727	0.	-36.257
1423	8.6769	1.0909	0.	-30.863
1424	8.6769	0.90909	0.	-25.103
1425	8.6769	0.72727	0.	-19.02
1426	8.6769	0.54545	0.	-12.658
1427	8.6769	0.36364	0.	-6.0087
1428	8.6769	0.18182	0.	-0.1233
1429	8.4923	5.8182	0.	-0.27775
1430	8.4923	5.6364	0.	-7.6323
1431	8.4923	5.4545	0.	-14.936
1432	8.4923	5.2727	0.	-21.931
1433	8.4923	5.0909	0.	-28.62
1434	8.4923	4.9091	0.	-34.954
1435	8.4923	4.7273	0.	-40.886
1436	8.4923	4.5455	0.	-46.37
1437	8.4923	4.3636	0.	-51.362
1438	8.4923	4.1818	0.	-55.823
1439	8.4923	4.	0.	-59.718
1440	8.4923	3.8182	0.	-63.014
1441	8.4923	3.6364	0.	-65.685
1442	8.4923	3.4545	0.	-67.707
1443	8.4923	3.2727	0.	-69.065
1444	8.4923	3.0909	0.	-69.747
1445	8.4923	2.9091	0.	-69.747
1446	8.4923	2.7273	0.	-69.065
1447	8.4923	2.5455	0.	-67.707
1448	8.4923	2.3636	0.	-65.685
1449	8.4923	2.1818	0.	-63.014
1450	8.4923	2.	0.	-59.718
1451	8.4923	1.8182	0.	-55.823
1452	8.4923	1.6364	0.	-51.362
1453	8.4923	1.4545	0.	-46.37
1454	8.4923	1.2727	0.	-40.886
1455	8.4923	1.0909	0.	-34.954
1456	8.4923	0.90909	0.	-28.62
1457	8.4923	0.72727	0.	-21.931
1458	8.4923	0.54545	0.	-14.936
1459	8.4923	0.36364	0.	-7.6323
1460	8.4923	0.18182	0.	-0.27775
1461	8.3077	5.8182	0.	-0.78486
1462	8.3077	5.6364	0.	-9.3623
1463	8.3077	5.4545	0.	-17.368
1464	8.3077	5.2727	0.	-25.042
1465	8.3077	5.0909	0.	-32.382
1466	8.3077	4.9091	0.	-39.335
1467	8.3077	4.7273	0.	-45.845
1468	8.3077	4.5455	0.	-51.864
1469	8.3077	4.3636	0.	-57.344
1470	8.3077	4.1818	0.	-62.242
1471	8.3077	4.	0.	-66.517
1472	8.3077	3.8182	0.	-70.135
1473	8.3077	3.6364	0.	-73.067
1474	8.3077	3.4545	0.	-75.287
1475	8.3077	3.2727	0.	-76.777
1476	8.3077	3.0909	0.	-77.526
1477	8.3077	2.9091	0.	-77.526
1478	8.3077	2.7273	0.	-76.777
1479	8.3077	2.5455	0.	-75.287
1480	8.3077	2.3636	0.	-73.067
1481	8.3077	2.1818	0.	-70.135
1482	8.3077	2.	0.	-66.517
1483	8.3077	1.8182	0.	-62.242
1484	8.3077	1.6364	0.	-57.344
1485	8.3077	1.4545	0.	-51.864
1486	8.3077	1.2727	0.	-45.845
1487	8.3077	1.0909	0.	-39.335
1488	8.3077	0.90909	0.	-32.382
1489	8.3077	0.72727	0.	-25.042
1490	8.3077	0.54545	0.	-17.368
1491	8.3077	0.36364	0.	-9.3623
1492	8.3077	0.18182	0.	-0.78485
1493	8.1231	5.8182	0.	-1.7147
1494	8.1231	5.6364	0.	-11.207
1495	8.1231	5.4545	0.	-19.967
1496	8.1231	5.2727	0.	-28.372
1497	8.1231	5.0909	0.	-36.413
1498	8.1231	4.9091	0.	-44.031
1499	8.1231	4.7273	0.	-51.166
1500	8.1231	4.5455	0.	-57.762
1501	8.1231	4.3636	0.	-63.769
1502	8.1231	4.1818	0.	-69.137
1503	8.1231	4.	0.	-73.824
1504	8.1231	3.8182	0.	-77.79
1505	8.1231	3.6364	0.	-81.004
1506	8.1231	3.4545	0.	-83.438
1507	8.1231	3.2727	0.	-85.073
1508	8.1231	3.0909	0.	-85.893
1509	8.1231	2.9091	0.	-85.893
1510	8.1231	2.7273	0.	-85.073
1511	8.1231	2.5455	0.	-83.438
1512	8.1231	2.3636	0.	-81.004
1513	8.1231	2.1818	0.	-77.79
1514	8.1231	2.	0.	-73.824
1515	8.1231	1.8182	0.	-69.137
1516	8.1231	1.6364	0.	-63.769
1517	8.1231	1.4545	0.	-57.762
1518	8.1231	1.2727	0.	-51.166
1519	8.1231	1.0909	0.	-44.031
1520	8.1231	0.90909	0.	-36.413
1521	8.1231	0.72727	0.	-28.372
1522	8.1231	0.54545	0.	-19.967
1523	8.1231	0.36364	0.	-11.207
1524	8.1231	0.18182	0.	-1.7147
1525	7.9385	5.8182	0.	-2.8292
1526	7.9385	5.6364	0.	-13.176
1527	7.9385	5.4545	0.	-22.747
1528	7.9385	5.2727	0.	-31.939
1529	7.9385	5.0909	0.	-40.736
1530	7.9385	4.9091	0.	-49.071
1531	7.9385	4.7273	0.	-56.879
1532	7.9385	4.5455	0.	-64.1
1533	7.9385	4.3636	0.	-70.676
1534	7.9385	4.1818	0.	-76.553
1535	7.9385	4.	0.	-81.685
1536	7.9385	3.8182	0.	-86.029
1537	7.9385	3.6364	0.	-89.549
1538	7.9385	3.4545	0.	-92.215
1539	7.9385	3.2727	0.	-94.005
1540	7.9385	3.0909	0.	-94.904
1541	7.9385	2.9091	0.	-94.904
1542	7.9385	2.7273	0.	-94.005
1543	7.9385	2.5455	0.	-92.215
1544	7.9385	2.3636	0.	-89.549
1545	7.9385	2.1818	0.	-86.029
1546	7.9385	2.	0.	-81.685
1547	7.9385	1.8182	0.	-76.553
1548	7.9385	1.6364	0.	-70.676
1549	7.9385	1.4545	0.	-64.1
1550	7.9385	1.2727	0.	-56.879
1551	7.9385	1.0909	0.	-49.071
1552	7.9385	0.90909	0.	-40.736
1553	7.9385	0.72727	0.	-31.939
1554	7.9385	0.54545	0.	-22.747
1555	7.9385	0.36364	0.	-13.176
1556	7.9385	0.18182	0.	-2.8292
1557	7.7538	5.8182	0.	-4.0464
1558	7.7538	5.6364	0.	-15.277
1559	7.7538	5.4545	0.	-25.723
1560	7.7538	5.2727	0.	-35.763
1561	7.7538	5.0909	0.	-45.375
1562	7.7538	4.9091	0.	-54.485
1563	7.7538	4.7273	0.	-63.021
1564	7.7538	4.5455	0.	-70.916
1565	7.7538	4.3636	0.	-78.108
1566	7.7538	4.1818	0.	-84.537
1567	7.7538	4.	0.	-90.151
1568	7.7538	3.8182	0.	-94.904
1569	7.7538	3.6364	0.	-98.755
1570	7.7538	3.4545	0.	-101.67
1571	7.7538	3.2727	0.	-103.63
1572	7.7538	3.0909	0.	-104.62
1573	7.7538	2.9091	0.	-104.62
1574	7.7538	2.7273	0.	-103.63
1575	7.7538	2.5455	0.	-101.67
1576	7.7538	2.3636	0.	-98.755
1577	7.7538	2.1818	0.	-94.904
1578	7.7538	2.	0.	-90.151
1579	7.7538	1.8182	0.	-84.537
1580	7.7538	1.6364	0.	-78.108
1581	7.7538	1.4545	0.	-70.916
1582	7.7538	1.2727	0.	-63.021
1583	7.7538	1.0909	0.	-54.485
1584	7.7538	0.90909	0.	-45.375
1585	7.7538	0.72727	0.	-35.763
1586	7.7538	0.54545	0.	-25.723
1587	7.7538	0.36364	0.	-15.277
1588	7.7538	0.18182	0.	-4.0464
1589	7.5692	5.8182	0.	-5.3489
1590	7.5692	5.6364	0.	-17.519
1591	7.5692	5.4545	0.	-28.91
1592	7.5692	5.2727	0.	-39.865
1593	7.5692	5.0909	0.	-50.357
1594	7.5692	4.9091	0.	-60.304
1595	7.5692	4.7273	0.	-69.627
1596	7.5692	4.5455	0.	-78.252
1597	7.5692	4.3636	0.	-86.111
1598	7.5692	4.1818	0.	-93.138
1599	7.5692	4.	0.	-99.275
1600	7.5692	3.8182	0.	-104.47
1601	7.5692	3.6364	0.	-108.68
1602	7.5692	3.4545	0.	-111.87
1603	7.5692	3.2727	0.	-114.02
1604	7.5692	3.0909	0.	-115.09
1605	7.5692	2.9091	0.	-115.09
1606	7.5692	2.7273	0.	-114.02
1607	7.5692	2.5455	0.	-111.87
1608	7.5692	2.3636	0.	-108.68
1609	7.5692	2.1818	0.	-104.47
1610	7.5692	2.	0.	-99.275
1611	7.5692	1.8182	0.	-93.138
1612	7.5692	1.6364	0.	-86.111
1613	7.5692	1.4545	0.	-78.252
1614	7.5692	1.2727	0.	-69.627
1615	7.5692	1.0909	0.	-60.304
1616	7.5692	0.90909	0.	-50.357
1617	7.5692	0.72727	0.	-39.865
1618	7.5692	0.54545	0.	-28.91
1619	7.5692	0.36364	0.	-17.519
1620	7.5692	0.18182	0.	-5.3489
1621	7.3846	5.8182	0.	-6.7332
1622	7.3846	5.6364	0.	-19.913
1623	7.3846	5.4545	0.	-32.322
1624	7.3846	5.2727	0.	-44.267
1625	7.3846	5.0909	0.	-55.71
1626	7.3846	4.9091	0.	-66.562
1627	7.3846	4.7273	0.	-76.737
1628	7.3846	4.5455	0.	-86.154
1629	7.3846	4.3636	0.	-94.735
1630	7.3846	4.1818	0.	-102.41
1631	7.3846	4.	0.	-109.11
1632	7.3846	3.8182	0.	-114.79
1633	7.3846	3.6364	0.	-119.39
1634	7.3846	3.4545	0.	-122.88
1635	7.3846	3.2727	0.	-125.22
1636	7.3846	3.0909	0.	-126.4
1637	7.3846	2.9091	0.	-126.4
1638	7.3846	2.7273	0.	-125.22
1639	7.3846	2.5455	0.	-122.88
1640	7.3846	2.3636	0.	-119.39
1641	7.3846	2.1818	0.	-114.79
1642	7.3846	2.	0.	-109.11
1643	7.3846	1.8182	0.	-102.41
1644	7.3846	1.6364	0.	-94.735
1645	7.3846	1.4545	0.	-86.154
1646	7.3846	1.2727	0.	-76.737
1647	7.3846	1.0909	0.	-66.562
1648	7.3846	0.90909	0.	-55.71
1649	7.3846	0.72727	0.	-44.267
1650	7.3846	0.54545	0.	-32.322
1651	7.3846	0.36364	0.	-19.913
1652	7.3846	0.18182	0.	-6.7332
1653	7.2	5.8182	0.	-8.1993
1654	7.2	5.6364	0.	-22.468
1655	7.2	5.4545	0.	-35.978
1656	7.2	5.2727	0.	-48.991
1657	7.2	5.0909	0.	-61.464
1658	7.2	4.9091	0.	-73.296
1659	7.2	4.7273	0.	-84.393
1660	7.2	4.5455	0.	-94.667
1661	7.2	4.3636	0.	-104.03
1662	7.2	4.1818	0.	-112.41
1663	7.2	4.	0.	-119.73
1664	7.2	3.8182	0.	-125.93
1665	7.2	3.6364	0.	-130.96
1666	7.2	3.4545	0.	-134.77
1667	7.2	3.2727	0.	-137.33
1668	7.2	3.0909	0.	-138.61
1669	7.2	2.9091	0.	-138.61
1670	7.2	2.7273	0.	-137.33
1671	7.2	2.5455	0.	-134.77
1672	7.2	2.3636	0.	-130.96
1673	7.2	2.1818	0.	-125.93
1674	7.2	2.	0.	-119.73
1675	7.2	1.8182	0.	-112.41
1676	7.2	1.6364	0.	-104.03
1677	7.2	1.4545	0.	-94.667
1678	7.2	1.2727	0.	-84.393
1679	7.2	1.0909	0.	-73.296
1680	7.2	0.90909	0.	-61.464
1681	7.2	0.72727	0.	-48.991
1682	7.2	0.54545	0.	-35.978
1683	7.2	0.36364	0.	-22.468
1684	7.2	0.18182	0.	-8.1993
1685	7.0154	5.8182	0.	-9.7484
1686	7.0154	5.6364	0.	-25.194
1687	7.0154	5.4545	0.	-39.893
1688	7.0154	5.2727	0.	-54.063
1689	7.0154	5.0909	0.	-67.649
1690	7.0154	4.9091	0.	-80.542
1691	7.0154	4.7273	0.	-92.64
1692	7.0154	4.5455	0.	-103.84
1693	7.0154	4.3636	0.	-114.06
1694	7.0154	4.1818	0.	-123.2
1695	7.0154	4.	0.	-131.19
1696	7.0154	3.8182	0.	-137.96
1697	7.0154	3.6364	0.	-143.45
1698	7.0154	3.4545	0.	-147.62
1699	7.0154	3.2727	0.	-150.41
1700	7.0154	3.0909	0.	-151.81
1701	7.0154	2.9091	0.	-151.81
1702	7.0154	2.7273	0.	-150.41
1703	7.0154	2.5455	0.	-147.62
1704	7.0154	2.3636	0.	-143.45
1705	7.0154	2.1818	0.	-137.96
1706	7.0154	2.	0.	-131.19
1707	7.0154	1.8182	0.	-123.2
1708	7.0154	1.6364	0.	-114.06
1709	7.0154	1.4545	0.	-103.84
1710	7.0154	1.2727	0.	-92.64
1711	7.0154	1.0909	0.	-80.542
1712	7.0154	0.90909	0.	-67.649
1713	7.0154	0.72727	0.	-54.063
1714	7.0154	0.54545	0.	-39.893
1715	7.0154	0.36364	0.	-25.194
1716	7.0154	0.18182	0.	-9.7484
1717	6.8308	5.8182	0.	-11.382
1718	6.8308	5.6364	0.	-28.101
1719	6.8308	5.4545	0.	-44.087
1720	6.8308	5.2727	0.	-59.506
1721	6.8308	5.0909	0.	-74.298
1722	6.8308	4.9091	0.	-88.343
1723	6.8308	4.7273	0.	-101.53
1724	6.8308	4.5455	0.	-113.74
1725	6.8308	4.3636	0.	-124.88
1726	6.8308	4.1818	0.	-134.85
1727	6.8308	4.	0.	-143.57
1728	6.8308	3.8182	0.	-150.96
1729	6.8308	3.6364	0.	-156.96
1730	6.8308	3.4545	0.	-161.5
1731	6.8308	3.2727	0.	-164.55
1732	6.8308	3.0909	0.	-166.09
1733	6.8308	2.9091	0.	-166.09
1734	6.8308	2.7273	0.	-164.55
1735	6.8308	2.5455	0.	-161.5
1736	6.8308	2.3636	0.	-156.96
1737	6.8308	2.1818	0.	-150.96
1738	6.8308	2.	0.	-143.57
1739	6.8308	1.8182	0.	-134.85
1740	6.8308	1.6364	0.	-124.88
1741	6.8308	1.4545	0.	-113.74
1742	6.8308	1.2727	0.	-101.53
1743	6.8308	1.0909	0.	-88.343
1744	6.8308	0.90909	0.	-74.298
1745	6.8308	0.72727	0.	-59.506
1746	6.8308	0.54545	0.	-44.087
1747	6.8308	0.36364	0.	-28.101
1748	6.8308	0.18182	0.	-11.382
1749	6.6462	5.8182	0.	-13.1
1750	6.6462	5.6364	0.	-31.199
1751	6.6462	5.4545	0.	-48.576
1752	6.6462	5.2727	0.	-65.349
1753	6.6462	5.0909	0.	-81.448
1754	6.6462	4.9091	0.	-96.74
1755	6.6462	4.7273	0.	-111.1
1756	6.6462	4.5455	0.	-124.41
1757	6.6462	4.3636	0.	-136.56
1758	6.6462	4.1818	0.	-147.44
1759	6.6462	4.	0.	-156.95
1760	6.6462	3.8182	0.	-165.01
1761	6.6462	3.6364	0.	-171.55
1762	6.6462	3.4545	0.	-176.52
1763	6.6462	3.2727	0.	-179.85
1764	6.6462	3.0909	0.	-181.52
1765	6.6462	2.9091	0.	-181.52
1766	6.6462	2.7273	0.	-179.85
1767	6.6462	2.5455	0.	-176.52
1768	6.6462	2.3636	0.	-171.55
1769	6.6462	2.1818	0.	-165.01
1770	6.6462	2.	0.	-156.95
1771	6.6462	1.8182	0.	-147.44
1772	6.6462	1.6364	0.	-136.56
1773	6.6462	1.4545	0.	-124.41
1774	6.6462	1.2727	0.	-111.1
1775	6.6462	1.0909	0.	-96.74
1776	6.6462	0.90909	0.	-81.448
1777	6.6462	0.72727	0.	-65.349
1778	6.6462	0.54545	0.	-48.576
1779	6.6462	0.36364	0.	-31.199
1780	6.6462	0.18182	0.	-13.1
1781	6.4615	5.8182	0.	-14.904
1782	6.4615	5.6364	0.	-34.499
1783	6.4615	5.4545	0.	-53.381
1784	6.4615	5.2727	0.	-71.62
1785	6.4615	5.0909	0.	-89.134
1786	6.4615	4.9091	0.	-105.78
1787	6.4615	4.7273	0.	-121.42
1788	6.4615	4.5455	0.	-135.92
1789	6.4615	4.3636	0.	-149.16
1790	6.4615	4.1818	0.	-161.02
1791	6.4615	4.	0.	-171.4
1792	6.4615	3.8182	0.	-180.2
1793	6.4615	3.6364	0.	-187.34
1794	6.4615	3.4545	0.	-192.76
1795	6.4615	3.2727	0.	-196.39
1796	6.4615	3.0909	0.	-198.22
1797	6.4615	2.9091	0.	-198.22
1798	6.4615	2.7273	0.	-196.39
1799	6.4615	2.5455	0.	-192.76
1800	6.4615	2.3636	0.	-187.34
1801	6.4615	2.1818	0.	-180.2
1802	6.4615	2.	0.	-171.4
1803	6.4615	1.8182	0.	-161.02
1804	6.4615	1.6364	0.	-149.16
1805	6.4615	1.4545	0.	-135.92
1806	6.4615	1.2727	0.	-121.42
1807	6.4615	1.0909	0.	-105.78
1808	6.4615	0.90909	0.	-89.134
1809	6.4615	0.72727	0.	-71.62
1810	6.4615	0.54545	0.	-53.381
1811	6.4615	0.36364	0.	-34.499
1812	6.4615	0.18182	0.	-14.904
1813	6.2769	5.8182	0.	-16.794
1814	6.2769	5.6364	0.	-38.01
1815	6.2769	5.4545	0.	-58.52
1816	6.2769	5.2727	0.	-78.347
1817	6.2769	5.0909	0.	-97.397
1818	6.2769	4.9091	0.	-115.51
1819	6.2769	4.7273	0.	-132.54
1820	6.2769	4.5455	0.	-148.34
1821	6.2769	4.3636	0.	-162.77
1822	6.2769	4.1818	0.	-175.7
1823	6.2769	4.	0.	-187.02
1824	6.2769	3.8182	0.	-196.62
1825	6.2769	3.6364	0.	-204.42
1826	6.2769	3.4545	0.	-210.33
1827	6.2769	3.2727	0.	-214.3
1828	6.2769	3.0909	0.	-216.3
1829	6.2769	2.9091	0.	-216.3
1830	6.2769	2.7273	0.	-214.3
1831	6.2769	2.5455	0.	-210.33
1832	6.2769	2.3636	0.	-204.42
1833	6.2769	2.1818	0.	-196.62
1834	6.2769	2.	0.	-187.02
1835	6.2769	1.8182	0.	-175.7
1836	6.2769	1.6364	0.	-162.77
1837	6.2769	1.4545	0.	-148.34
1838	6.2769	1.2727	0.	-132.54
1839	6.2769	1.0909	0.	-115.51
1840	6.2769	0.90909	0.	-97.397
1841	6.2769	0.72727	0.	-78.347
1842	6.2769	0.54545	0.	-58.52
1843	6.2769	0.36364	0.	-38.01
1844	6.2769	0.18182	0.	-16.794
1845	6.0923	5.8182	0.	-18.766
1846	6.0923	5.6364	0.	-41.742
1847	6.0923	5.4545	0.	-64.015
1848	6.0923	5.2727	0.	-85.561
1849	6.0923	5.0909	0.	-106.28
1850	6.0923	4.9091	0.	-125.99
1851	6.0923	4.7273	0.	-144.52
1852	6.0923	4.5455	0.	-161.73
1853	6.0923	4.3636	0.	-177.46
1854	6.0923	4.1818	0.	-191.56
1855	6.0923	4.	0.	-203.91
1856	6.0923	3.8182	0.	-214.38
1857	6.0923	3.6364	0.	-222.89
1858	6.0923	3.4545	0.	-229.34
1859	6.0923	3.2727	0.	-233.68
1860	6.0923	3.0909	0.	-235.86
1861	6.0923	2.9091	0.	-235.86
1862	6.0923	2.7273	0.	-233.68
1863	6.0923	2.5455	0.	-229.34
1864	6.0923	2.3636	0.	-222.89
1865	6.0923	2.1818	0.	-214.38
1866	6.0923	2.	0.	-203.91
1867	6.0923	1.8182	0.	-191.56
1868	6.0923	1.6364	0.	-177.46
1869	6.0923	1.4545	0.	-161.73
1870	6.0923	1.2727	0.	-144.52
1871	6.0923	1.0909	0.	-125.99
1872	6.0923	0.90909	0.	-106.28
1873	6.0923	0.72727	0.	-85.561
1874	6.0923	0.54545	0.	-64.015
1875	6.0923	0.36364	0.	-41.742
1876	6.0923	0.18182	0.	-18.766
1877	5.9077	5.8182	0.	-20.82
1878	5.9077	5.6364	0.	-45.704
1879	5.9077	5.4545	0.	-69.885
1880	5.9077	5.2727	0.	-93.294
1881	5.9077	5.0909	0.	-115.81
1882	5.9077	4.9091	0.	-137.26
1883	5.9077	4.7273	0.	-157.44
1884	5.9077	4.5455	0.	-176.18
1885	5.9077	4.3636	0.	-193.32
1886	5.9077	4.1818	0.	-208.7
1887	5.9077	4.	0.	-222.16
1888	5.9077	3.8182	0.	-233.59
1889	5.9077	3.6364	0.	-242.88
1890	5.9077	3.4545	0.	-249.92
1891	5.9077	3.2727	0.	-254.66
1892	5.9077	3.0909	0.	-257.04
1893	5.9077	2.9091	0.	-257.04
1894	5.9077	2.7273	0.	-254.66
1895	5.9077	2.5455	0.	-249.92
1896	5.9077	2.3636	0.	-242.88
1897	5.9077	2.1818	0.	-233.59
1898	5.9077	2.	0.	-222.16
1899	5.9077	1.8182	0.	-208.7
1900	5.9077	1.6364	0.	-193.32
1901	5.9077	1.4545	0.	-176.18
1902	5.9077	1.2727	0.	-157.44
1903	5.9077	1.0909	0.	-137.26
1904	5.9077	0.90909	0.	-115.81
1905	5.9077	0.72727	0.	-93.294
1906	5.9077	0.54545	0.	-69.885
1907	5.9077	0.36364	0.	-45.704
1908	5.9077	0.18182	0.	-20.82
1909	5.7231	5.8182	0.	-22.949
1910	5.7231	5.6364	0.	-49.905
1911	5.7231	5.4545	0.	-76.15
1912	5.7231	5.2727	0.	-101.58
1913	5.7231	5.0909	0.	-126.06
1914	5.7231	4.9091	0.	-149.38
1915	5.7231	4.7273	0.	-171.35
1916	5.7231	4.5455	0.	-191.77
1917	5.7231	4.3636	0.	-210.44
1918	5.7231	4.1818	0.	-227.21
1919	5.7231	4.	0.	-241.9
1920	5.7231	3.8182	0.	-254.37
1921	5.7231	3.6364	0.	-264.51
1922	5.7231	3.4545	0.	-272.2
1923	5.7231	3.2727	0.	-277.37
1924	5.7231	3.0909	0.	-279.97
1925	5.7231	2.9091	0.	-279.97
1926	5.7231	2.7273	0.	-277.37
1927	5.7231	2.5455	0.	-272.2
1928	5.7231	2.3636	0.	-264.51
1929	5.7231	2.1818	0.	-254.37
1930	5.7231	2.	0.	-241.9
1931	5.7231	1.8182	0.	-227.21
1932	5.7231	1.6364	0.	-210.44
1933	5.7231	1.4545	0.	-191.77
1934	5.7231	1.2727	0.	-171.35
1935	5.7231	1.0909	0.	-149.38
1936	5.7231	0.90909	0.	-126.06
1937	5.7231	0.72727	0.	-101.58
1938	5.7231	0.54545	0.	-76.15
1939	5.7231	0.36364	0.	-49.905
1940	5.7231	0.18182	0.	-22.949
1941	5.5385	5.8182	0.	-25.148
1942	5.5385	5.6364	0.	-54.352
1943	5.5385	5.4545	0.	-82.833
1944	5.5385	5.2727	0.	-110.45
1945	5.5385	5.0909	0.	-137.06
1946	5.5385	4.9091	0.	-162.43
1947	5.5385	4.7273	0.	-186.34
1948	5.5385	4.5455	0.	-208.58
1949	5.5385	4.3636	0.	-228.93
1950	5.5385	4.1818	0.	-247.21
1951	5.5385	4.	0.	-263.24
1952	5.5385	3.8182	0.	-276.85
1953	5.5385	3.6364	0.	-287.92
1954	5.5385	3.4545	0.	-296.32
1955	5.5385	3.2727	0.	-301.97
1956	5.5385	3.0909	0.	-304.81
1957	5.5385	2.9091	0.	-304.81
1958	5.5385	2.7273	0.	-301.97
1959	5.5385	2.5455	0.	-296.32
1960	5.5385	2.3636	0.	-287.92
1961	5.5385	2.1818	0.	-276.85
1962	5.5385	2.	0.	-263.24
1963	5.5385	1.8182	0.	-247.21
1964	5.5385	1.6364	0.	-228.93
1965	5.5385	1.4545	0.	-208.58
1966	5.5385	1.2727	0.	-186.34
1967	5.5385	1.0909	0.	-162.43
1968	5.5385	0.90909	0.	-137.06
1969	5.5385	0.72727	0.	-110.45
1970	5.5385	0.54545	0.	-82.833
1971	5.5385	0.36364	0.	-54.352
1972	5.5385	0.18182	0.	-25.148
1973	5.3538	5.8182	0.	-27.406
1974	5.3538	5.6364	0.	-59.052
1975	5.3538	5.4545	0.	-89.952
1976	5.3538	5.2727	0.	-119.94
1977	5.3538	5.0909	0.	-148.86
1978	5.3538	4.9091	0.	-176.46
1979	5.3538	4.7273	0.	-202.48
1980	5.3538	4.5455	0.	-226.71
1981	5.3538	4.3636	0.	-248.89
1982	5.3538	4.1818	0.	-268.83
1983	5.3538	4.	0.	-286.31
1984	5.3538	3.8182	0.	-301.17
1985	5.3538	3.6364	0.	-313.25
1986	5.3538	3.4545	0.	-322.43
1987	5.3538	3.2727	0.	-328.6
1988	5.3538	3.0909	0.	-331.7
1989	5.3538	2.9091	0.	-331.7
1990	5.3538	2.7273	0.	-328.6
1991	5.3538	2.5455	0.	-322.43
1992	5.3538	2.3636	0.	-313.25
1993	5.3538	2.1818	0.	-301.17
1994	5.3538	2.	0.	-286.31
1995	5.3538	1.8182	0.	-268.83
1996	5.3538	1.6364	0.	-248.89
1997	5.3538	1.4545	0.	-226.71
1998	5.3538	1.2727	0.	-202.48
1999	5.3538	1.0909	0.	-176.46
2000	5.3538	0.90909	0.	-148.86
2001	5.3538	0.72727	0.	-119.94
2002	5.3538	0.54545	0.	-89.952
2003	5.3538	0.36364	0.	-59.052
2004	5.3538	0.18182	0.	-27.406
2005	5.1692	5.8182	0.	-29.714
2006	5.1692	5.6364	0.	-64.009
2007	5.1692	5.4545	0.	-97.53
2008	5.1692	5.2727	0.	-130.09
2009	5.1692	5.0909	0.	-161.52
2010	5.1692	4.9091	0.	-191.53
2011	5.1692	4.7273	0.	-219.87
2012	5.1692	4.5455	0.	-246.25
2013	5.1692	4.3636	0.	-270.44
2014	5.1692	4.1818	0.	-292.18
2015	5.1692	4.	0.	-311.26
2016	5.1692	3.8182	0.	-327.48
2017	5.1692	3.6364	0.	-340.67
2018	5.1692	3.4545	0.	-350.69
2019	5.1692	3.2727	0.	-357.43
2020	5.1692	3.0909	0.	-360.82
2021	5.1692	2.9091	0.	-360.82
2022	5.1692	2.7273	0.	-357.43
2023	5.1692	2.5455	0.	-350.69
2024	5.1692	2.3636	0.	-340.67
2025	5.1692	2.1818	0.	-327.48
2026	5.1692	2.	0.	-311.26
2027	5.1692	1.8182	0.	-292.18
2028	5.1692	1.6364	0.	-270.44
2029	5.1692	1.4545	0.	-246.25
2030	5.1692	1.2727	0.	-219.87
2031	5.1692	1.0909	0.	-191.53
2032	5.1692	0.90909	0.	-161.52
2033	5.1692	0.72727	0.	-130.09
2034	5.1692	0.54545	0.	-97.53
2035	5.1692	0.36364	0.	-64.009
2036	5.1692	0.18182	0.	-29.714
2037	4.9846	5.8182	0.	-32.055
2038	4.9846	5.6364	0.	-69.228
2039	4.9846	5.4545	0.	-105.59
2040	4.9846	5.2727	0.	-140.94
2041	4.9846	5.0909	0.	-175.09
2042	4.9846	4.9091	0.	-207.74
2043	4.9846	4.7273	0.	-238.58
2044	4.9846	4.5455	0.	-267.33
2045	4.9846	4.3636	0.	-293.69
2046	4.9846	4.1818	0.	-317.4
2047	4.9846	4.	0.	-338.22
2048	4.9846	3.8182	0.	-355.93
2049	4.9846	3.6364	0.	-370.34
2050	4.9846	3.4545	0.	-381.28
2051	4.9846	3.2727	0.	-388.64
2052	4.9846	3.0909	0.	-392.35
2053	4.9846	2.9091	0.	-392.35
2054	4.9846	2.7273	0.	-388.64
2055	4.9846	2.5455	0.	-381.28
2056	4.9846	2.3636	0.	-370.34
2057	4.9846	2.1818	0.	-355.93
2058	4.9846	2.	0.	-338.22
2059	4.9846	1.8182	0.	-317.4
2060	4.9846	1.6364	0.	-293.69
2061	4.9846	1.4545	0.	-267.33
2062	4.9846	1.2727	0.	-238.58
2063	4.9846	1.0909	0.	-207.74
2064	4.9846	0.90909	0.	-175.09
2065	4.9846	0.72727	0.	-140.94
2066	4.9846	0.54545	0.	-105.59
2067	4.9846	0.36364	0.	-69.228
2068	4.9846	0.18182	0.	-32.055
2069	4.8	5.8182	0.	-34.411
2070	4.8	5.6364	0.	-74.709
2071	4.8	5.4545	0.	-114.14
2072	4.8	5.2727	0.	-152.52
2073	4.8	5.0909	0.	-189.63
2074	4.8	4.9091	0.	-225.15
2075	4.8	4.7273	0.	-258.72
2076	4.8	4.5455	0.	-290.04
2077	4.8	4.3636	0.	-318.78
2078	4.8	4.1818	0.	-344.65
2079	4.8	4.	0.	-367.37
2080	4.8	3.8182	0.	-386.7
2081	4.8	3.6364	0.	-402.43
2082	4.8	3.4545	0.	-414.39
2083	4.8	3.2727	0.	-422.43
2084	4.8	3.0909	0.	-426.48
2085	4.8	2.9091	0.	-426.48
2086	4.8	2.7273	0.	-422.43
2087	4.8	2.5455	0.	-414.39
2088	4.8	2.3636	0.	-402.43
2089	4.8	2.1818	0.	-386.7
2090	4.8	2.	0.	-367.37
2091	4.8	1.8182	0.	-344.65
2092	4.8	1.6364	0.	-318.78
2093	4.8	1.4545	0.	-290.04
2094	4.8	1.2727	0.	-258.72
2095	4.8	1.0909	0.	-225.15
2096	4.8	0.90909	0.	-189.63
2097	4.8	0.72727	0.	-152.52
2098	4.8	0.54545	0.	-114.14
2099	4.8	0.36364	0.	-74.709
2100	4.8	0.18182	0.	-34.411
2101	4.6154	5.8182	0.	-36.759
2102	4.6154	5.6364	0.	-80.451
2103	4.6154	5.4545	0.	-123.21
2104	4.6154	5.2727	0.	-164.87
2105	4.6154	5.0909	0.	-205.21
2106	4.6154	4.9091	0.	-243.84
2107	4.6154	4.7273	0.	-280.4
2108	4.6154	4.5455	0.	-314.53
2109	4.6154	4.3636	0.	-345.86
2110	4.6154	4.1818	0.	-374.08
2111	4.6154	4.	0.	-398.88
2112	4.6154	3.8182	0.	-419.98
2113	4.6154	3.6364	0.	-437.16
2114	4.6154	3.4545	0.	-450.21
2115	4.6154	3.2727	0.	-459.
2116	4.6154	3.0909	0.	-463.42
2117	4.6154	2.9091	0.	-463.42
2118	4.6154	2.7273	0.	-459.
2119	4.6154	2.5455	0.	-450.21
2120	4.6154	2.3636	0.	-437.16
2121	4.6154	2.1818	0.	-419.98
2122	4.6154	2.	0.	-398.88
2123	4.6154	1.8182	0.	-374.08
2124	4.6154	1.6364	0.	-345.86
2125	4.6154	1.4545	0.	-314.53
2126	4.6154	1.2727	0.	-280.4
2127	4.6154	1.0909	0.	-243.84
2128	4.6154	0.90909	0.	-205.21
2129	4.6154	0.72727	0.	-164.87
2130	4.6154	0.54545	0.	-123.21
2131	4.6154	0.36364	0.	-80.451
2132	4.6154	0.18182	0.	-36.759
2133	4.4308	5.8182	0.	-39.071
2134	4.4308	5.6364	0.	-86.451
2135	4.4308	5.4545	0.	-132.82
2136	4.4308	5.2727	0.	-178.05
2137	4.4308	5.0909	0.	-221.89
2138	4.4308	4.9091	0.	-263.92
2139	4.4308	4.7273	0.	-303.73
2140	4.4308	4.5455	0.	-340.91
2141	4.4308	4.3636	0.	-375.08
2142	4.4308	4.1818	0.	-405.87
2143	4.4308	4.	0.	-432.93
2144	4.4308	3.8182	0.	-455.96
2145	4.4308	3.6364	0.	-474.71
2146	4.4308	3.4545	0.	-488.96
2147	4.4308	3.2727	0.	-498.56
2148	4.4308	3.0909	0.	-503.38
2149	4.4308	2.9091	0.	-503.38
2150	4.4308	2.7273	0.	-498.56
2151	4.4308	2.5455	0.	-488.96
2152	4.4308	2.3636	0.	-474.71
2153	4.4308	2.1818	0.	-455.96
2154	4.4308	2.	0.	-432.93
2155	4.4308	1.8182	0.	-405.87
2156	4.4308	1.6364	0.	-375.08
2157	4.4308	1.4545	0.	-340.91
2158	4.4308	1.2727	0.	-303.73
2159	4.4308	1.0909	0.	-263.92
2160	4.4308	0.90909	0.	-221.89
2161	4.4308	0.72727	0.	-178.05
2162	4.4308	0.54545	0.	-132.82
2163	4.4308	0.36364	0.	-86.451
2164	4.4308	0.18182	0.	-39.071
2165	4.2462	5.8182	0.	-41.314
2166	4.2462	5.6364	0.	-92.704
2167	4.2462	5.4545	0.	-142.98
2168	4.2462	5.2727	0.	-192.09
2169	4.2462	5.0909	0.	-239.74
2170	4.2462	4.9091	0.	-285.47
2171	4.2462	4.7273	0.	-328.83
2172	4.2462	4.5455	0.	-369.35
2173	4.2462	4.3636	0.	-406.61
2174	4.2462	4.1818	0.	-440.19
2175	4.2462	4.	0.	-469.71
2176	4.2462	3.8182	0.	-494.85
2177	4.2462	3.6364	0.	-515.31
2178	4.2462	3.4545	0.	-530.87
2179	4.2462	3.2727	0.	-541.34
2180	4.2462	3.0909	0.	-546.6
2181	4.2462	2.9091	0.	-546.6
2182	4.2462	2.7273	0.	-541.34
2183	4.2462	2.5455	0.	-530.87
2184	4.2462	2.3636	0.	-515.31
2185	4.2462	2.1818	0.	-494.85
2186	4.2462	2.	0.	-469.71
2187	4.2462	1.8182	0.	-440.19
2188	4.2462	1.6364	0.	-406.61
2189	4.2462	1.4545	0.	-369.35
2190	4.2462	1.2727	0.	-328.83
2191	4.2462	1.0909	0.	-285.47
2192	4.2462	0.90909	0.	-239.74
2193	4.2462	0.72727	0.	-192.09
2194	4.2462	0.54545	0.	-142.98
2195	4.2462	0.36364	0.	-92.704
2196	4.2462	0.18182	0.	-41.314
2197	4.0615	5.8182	0.	-43.448
2198	4.0615	5.6364	0.	-99.199
2199	4.0615	5.4545	0.	-153.72
2200	4.0615	5.2727	0.	-207.04
2201	4.0615	5.0909	0.	-258.85
2202	4.0615	4.9091	0.	-308.62
2203	4.0615	4.7273	0.	-355.84
2204	4.0615	4.5455	0.	-400.01
2205	4.0615	4.3636	0.	-440.63
2206	4.0615	4.1818	0.	-477.25
2207	4.0615	4.	0.	-509.45
2208	4.0615	3.8182	0.	-536.87
2209	4.0615	3.6364	0.	-559.19
2210	4.0615	3.4545	0.	-576.15
2211	4.0615	3.2727	0.	-587.57
2212	4.0615	3.0909	0.	-593.31
2213	4.0615	2.9091	0.	-593.31
2214	4.0615	2.7273	0.	-587.57
2215	4.0615	2.5455	0.	-576.15
2216	4.0615	2.3636	0.	-559.19
2217	4.0615	2.1818	0.	-536.87
2218	4.0615	2.	0.	-509.45
2219	4.0615	1.8182	0.	-477.25
2220	4.0615	1.6364	0.	-440.63
2221	4.0615	1.4545	0.	-400.01
2222	4.0615	1.2727	0.	-355.84
2223	4.0615	1.0909	0.	-308.62
2224	4.0615	0.90909	0.	-258.85
2225	4.0615	0.72727	0.	-207.04
2226	4.0615	0.54545	0.	-153.72
2227	4.0615	0.36364	0.	-99.199
2228	4.0615	0.18182	0.	-43.448
2229	3.8769	5.8182	0.	-45.427
2230	3.8769	5.6364	0.	-105.93
2231	3.8769	5.4545	0.	-165.05
2232	3.8769	5.2727	0.	-222.96
2233	3.8769	5.0909	0.	-279.3
2234	3.8769	4.9091	0.	-333.48
2235	3.8769	4.7273	0.	-384.92
2236	3.8769	4.5455	0.	-433.06
2237	3.8769	4.3636	0.	-477.34
2238	3.8769	4.1818	0.	-517.27
2239	3.8769	4.	0.	-552.38
2240	3.8769	3.8182	0.	-582.26
2241	3.8769	3.6364	0.	-606.58
2242	3.8769	3.4545	0.	-625.07
2243	3.8769	3.2727	0.	-637.51
2244	3.8769	3.0909	0.	-643.76
2245	3.8769	2.9091	0.	-643.76
2246	3.8769	2.7273	0.	-637.51
2247	3.8769	2.5455	0.	-625.07
2248	3.8769	2.3636	0.	-606.58
2249	3.8769	2.1818	0.	-582.26
2250	3.8769	2.	0.	-552.38
2251	3.8769	1.8182	0.	-517.27
2252	3.8769	1.6364	0.	-477.34
2253	3.8769	1.4545	0.	-433.06
2254	3.8769	1.2727	0.	-384.92
2255	3.8769	1.0909	0.	-333.48
2256	3.8769	0.90909	0.	-279.3
2257	3.8769	0.72727	0.	-222.96
2258	3.8769	0.54545	0.	-165.05
2259	3.8769	0.36364	0.	-105.93
2260	3.8769	0.18182	0.	-45.427
2261	3.6923	5.8182	0.	-47.197
2262	3.6923	5.6364	0.	-112.87
2263	3.6923	5.4545	0.	-177.01
2264	3.6923	5.2727	0.	-239.92
2265	3.6923	5.0909	0.	-301.21
2266	3.6923	4.9091	0.	-360.2
2267	3.6923	4.7273	0.	-416.25
2268	3.6923	4.5455	0.	-468.71
2269	3.6923	4.3636	0.	-516.97
2270	3.6923	4.1818	0.	-560.48
2271	3.6923	4.	0.	-598.73
2272	3.6923	3.8182	0.	-631.27
2273	3.6923	3.6364	0.	-657.75
2274	3.6923	3.4545	0.	-677.86
2275	3.6923	3.2727	0.	-691.39
2276	3.6923	3.0909	0.	-698.19
2277	3.6923	2.9091	0.	-698.19
2278	3.6923	2.7273	0.	-691.39
2279	3.6923	2.5455	0.	-677.86
2280	3.6923	2.3636	0.	-657.75
2281	3.6923	2.1818	0.	-631.27
2282	3.6923	2.	0.	-598.73
2283	3.6923	1.8182	0.	-560.48
2284	3.6923	1.6364	0.	-516.97
2285	3.6923	1.4545	0.	-468.71
2286	3.6923	1.2727	0.	-416.25
2287	3.6923	1.0909	0.	-360.2
2288	3.6923	0.90909	0.	-301.21
2289	3.6923	0.72727	0.	-239.92
2290	3.6923	0.54545	0.	-177.01
2291	3.6923	0.36364	0.	-112.87
2292	3.6923	0.18182	0.	-47.197
2293	3.5077	5.8182	0.	-48.697
2294	3.5077	5.6364	0.	-120.02
2295	3.5077	5.4545	0.	-189.62
2296	3.5077	5.2727	0.	-258.
2297	3.5077	5.0909	0.	-324.69
2298	3.5077	4.9091	0.	-388.94
2299	3.5077	4.7273	0.	-450.01
2300	3.5077	4.5455	0.	-507.18
2301	3.5077	4.3636	0.	-559.77
2302	3.5077	4.1818	0.	-607.15
2303	3.5077	4.	0.	-648.77
2304	3.5077	3.8182	0.	-684.16
2305	3.5077	3.6364	0.	-712.93
2306	3.5077	3.4545	0.	-734.78
2307	3.5077	3.2727	0.	-749.46
2308	3.5077	3.0909	0.	-756.84
2309	3.5077	2.9091	0.	-756.84
2310	3.5077	2.7273	0.	-749.46
2311	3.5077	2.5455	0.	-734.78
2312	3.5077	2.3636	0.	-712.93
2313	3.5077	2.1818	0.	-684.16
2314	3.5077	2.	0.	-648.77
2315	3.5077	1.8182	0.	-607.15
2316	3.5077	1.6364	0.	-559.77
2317	3.5077	1.4545	0.	-507.18
2318	3.5077	1.2727	0.	-450.01
2319	3.5077	1.0909	0.	-388.94
2320	3.5077	0.90909	0.	-324.69
2321	3.5077	0.72727	0.	-258.
2322	3.5077	0.54545	0.	-189.62
2323	3.5077	0.36364	0.	-120.02
2324	3.5077	0.18182	0.	-48.697
2325	3.3231	5.8182	0.	-49.858
2326	3.3231	5.6364	0.	-127.35
2327	3.3231	5.4545	0.	-202.92
2328	3.3231	5.2727	0.	-277.28
2329	3.3231	5.0909	0.	-349.89
2330	3.3231	4.9091	0.	-419.91
2331	3.3231	4.7273	0.	-486.47
2332	3.3231	4.5455	0.	-548.76
2333	3.3231	4.3636	0.	-606.01
2334	3.3231	4.1818	0.	-657.56
2335	3.3231	4.	0.	-702.79
2336	3.3231	3.8182	0.	-741.21
2337	3.3231	3.6364	0.	-772.41
2338	3.3231	3.4545	0.	-796.07
2339	3.3231	3.2727	0.	-811.97
2340	3.3231	3.0909	0.	-819.96
2341	3.3231	2.9091	0.	-819.96
2342	3.3231	2.7273	0.	-811.97
2343	3.3231	2.5455	0.	-796.07
2344	3.3231	2.3636	0.	-772.41
2345	3.3231	2.1818	0.	-741.21
2346	3.3231	2.	0.	-702.79
2347	3.3231	1.8182	0.	-657.56
2348	3.3231	1.6364	0.	-606.01
2349	3.3231	1.4545	0.	-548.76
2350	3.3231	1.2727	0.	-486.47
2351	3.3231	1.0909	0.	-419.91
2352	3.3231	0.90909	0.	-349.89
2353	3.3231	0.72727	0.	-277.28
2354	3.3231	0.54545	0.	-202.92
2355	3.3231	0.36364	0.	-127.35
2356	3.3231	0.18182	0.	-49.858
2357	3.1385	5.8182	0.	-50.599
2358	3.1385	5.6364	0.	-134.86
2359	3.1385	5.4545	0.	-216.97
2360	3.1385	5.2727	0.	-297.89
2361	3.1385	5.0909	0.	-377.02
2362	3.1385	4.9091	0.	-453.34
2363	3.1385	4.7273	0.	-525.89
2364	3.1385	4.5455	0.	-593.74
2365	3.1385	4.3636	0.	-656.03
2366	3.1385	4.1818	0.	-712.03
2367	3.1385	4.	0.	-761.09
2368	3.1385	3.8182	0.	-802.69
2369	3.1385	3.6364	0.	-836.43
2370	3.1385	3.4545	0.	-861.99
2371	3.1385	3.2727	0.	-879.14
2372	3.1385	3.0909	0.	-887.75
2373	3.1385	2.9091	0.	-887.75
2374	3.1385	2.7273	0.	-879.14
2375	3.1385	2.5455	0.	-861.99
2376	3.1385	2.3636	0.	-836.43
2377	3.1385	2.1818	0.	-802.69
2378	3.1385	2.	0.	-761.09
2379	3.1385	1.8182	0.	-712.03
2380	3.1385	1.6364	0.	-656.03
2381	3.1385	1.4545	0.	-593.74
2382	3.1385	1.2727	0.	-525.89
2383	3.1385	1.0909	0.	-453.34
2384	3.1385	0.90909	0.	-377.02
2385	3.1385	0.72727	0.	-297.89
2386	3.1385	0.54545	0.	-216.97
2387	3.1385	0.36364	0.	-134.86
2388	3.1385	0.18182	0.	-50.599
2389	2.9538	5.8182	0.	-50.835
2390	2.9538	5.6364	0.	-142.52
2391	2.9538	5.4545	0.	-231.83
2392	2.9538	5.2727	0.	-320.
2393	2.9538	5.0909	0.	-406.29
2394	2.9538	4.9091	0.	-489.54
2395	2.9538	4.7273	0.	-568.63
2396	2.9538	4.5455	0.	-642.49
2397	2.9538	4.3636	0.	-710.19
2398	2.9538	4.1818	0.	-770.92
2399	2.9538	4.	0.	-824.
2400	2.9538	3.8182	0.	-868.91
2401	2.9538	3.6364	0.	-905.26
2402	2.9538	3.4545	0.	-932.74
2403	2.9538	3.2727	0.	-951.16
2404	2.9538	3.0909	0.	-960.4
2405	2.9538	2.9091	0.	-960.4
2406	2.9538	2.7273	0.	-951.16
2407	2.9538	2.5455	0.	-932.74
2408	2.9538	2.3636	0.	-905.26
2409	2.9538	2.1818	0.	-868.91
2410	2.9538	2.	0.	-824.
2411	2.9538	1.8182	0.	-770.92
2412	2.9538	1.6364	0.	-710.19
2413	2.9538	1.4545	0.	-642.49
2414	2.9538	1.2727	0.	-568.63
2415	2.9538	1.0909	0.	-489.54
2416	2.9538	0.90909	0.	-406.29
2417	2.9538	0.72727	0.	-320.
2418	2.9538	0.54545	0.	-231.83
2419	2.9538	0.36364	0.	-142.52
2420	2.9538	0.18182	0.	-50.835
2421	2.7692	5.8182	0.	-50.47
2422	2.7692	5.6364	0.	-150.34
2423	2.7692	5.4545	0.	-247.62
2424	2.7692	5.2727	0.	-343.81
2425	2.7692	5.0909	0.	-438.03
2426	2.7692	4.9091	0.	-528.91
2427	2.7692	4.7273	0.	-615.12
2428	2.7692	4.5455	0.	-695.48
2429	2.7692	4.3636	0.	-768.93
2430	2.7692	4.1818	0.	-834.62
2431	2.7692	4.	0.	-891.87
2432	2.7692	3.8182	0.	-940.15
2433	2.7692	3.6364	0.	-979.12
2434	2.7692	3.4545	0.	-1008.5
2435	2.7692	3.2727	0.	-1028.2
2436	2.7692	3.0909	0.	-1038.1
2437	2.7692	2.9091	0.	-1038.1
2438	2.7692	2.7273	0.	-1028.2
2439	2.7692	2.5455	0.	-1008.5
2440	2.7692	2.3636	0.	-979.12
2441	2.7692	2.1818	0.	-940.15
2442	2.7692	2.	0.	-891.87
2443	2.7692	1.8182	0.	-834.62
2444	2.7692	1.6364	0.	-768.93
2445	2.7692	1.4545	0.	-695.48
2446	2.7692	1.2727	0.	-615.12
2447	2.7692	1.0909	0.	-528.91
2448	2.7692	0.90909	0.	-438.03
2449	2.7692	0.72727	0.	-343.81
2450	2.7692	0.54545	0.	-247.62
2451	2.7692	0.36364	0.	-150.34
2452	2.7692	0.18182	0.	-50.47
2453	2.5846	5.8182	0.	-49.404
2454	2.5846	5.6364	0.	-158.34
2455	2.5846	5.4545	0.	-264.48
2456	2.5846	5.2727	0.	-369.62
2457	2.5846	5.0909	0.	-472.65
2458	2.5846	4.9091	0.	-571.92
2459	2.5846	4.7273	0.	-665.91
2460	2.5846	4.5455	0.	-753.24
2461	2.5846	4.3636	0.	-832.76
2462	2.5846	4.1818	0.	-903.59
2463	2.5846	4.	0.	-965.06
2464	2.5846	3.8182	0.	-1016.7
2465	2.5846	3.6364	0.	-1058.2
2466	2.5846	3.4545	0.	-1089.5
2467	2.5846	3.2727	0.	-1110.3
2468	2.5846	3.0909	0.	-1120.8
2469	2.5846	2.9091	0.	-1120.8
2470	2.5846	2.7273	0.	-1110.3
2471	2.5846	2.5455	0.	-1089.5
2472	2.5846	2.3636	0.	-1058.2
2473	2.5846	2.1818	0.	-1016.7
2474	2.5846	2.	0.	-965.06
2475	2.5846	1.8182	0.	-903.59
2476	2.5846	1.6364	0.	-832.76
2477	2.5846	1.4545	0.	-753.24
2478	2.5846	1.2727	0.	-665.91
2479	2.5846	1.0909	0.	-571.92
2480	2.5846	0.90909	0.	-472.65
2481	2.5846	0.72727	0.	-369.62
2482	2.5846	0.54545	0.	-264.48
2483	2.5846	0.36364	0.	-158.34
2484	2.5846	0.18182	0.	-49.404
2485	2.4	5.8182	0.	-47.537
2486	2.4	5.6364	0.	-166.55
2487	2.4	5.4545	0.	-282.65
2488	2.4	5.2727	0.	-397.83
2489	2.4	5.0909	0.	-510.69
2490	2.4	4.9091	0.	-619.25
2491	2.4	4.7273	0.	-721.68
2492	2.4	4.5455	0.	-816.43
2493	2.4	4.3636	0.	-902.28
2494	2.4	4.1818	0.	-978.33
2495	2.4	4.	0.	-1044.
2496	2.4	3.8182	0.	-1098.8
2497	2.4	3.6364	0.	-1142.8
2498	2.4	3.4545	0.	-1175.7
2499	2.4	3.2727	0.	-1197.6
2500	2.4	3.0909	0.	-1208.6
2501	2.4	2.9091	0.	-1208.6
2502	2.4	2.7273	0.	-1197.6
2503	2.4	2.5455	0.	-1175.7
2504	2.4	2.3636	0.	-1142.8
2505	2.4	2.1818	0.	-1098.8
2506	2.4	2.	0.	-1044.
2507	2.4	1.8182	0.	-978.33
2508	2.4	1.6364	0.	-902.28
2509	2.4	1.4545	0.	-816.43
2510	2.4	1.2727	0.	-721.68
2511	2.4	1.0909	0.	-619.25
2512	2.4	0.90909	0.	-510.69
2513	2.4	0.72727	0.	-397.83
2514	2.4	0.54545	0.	-282.65
2515	2.4	0.36364	0.	-166.55
2516	2.4	0.18182	0.	-47.537
2517	2.2154	5.8182	0.	-44.78
2518	2.2154	5.6364	0.	-175.05
2519	2.2154	5.4545	0.	-302.44
2520	2.2154	5.2727	0.	-429.01
2521	2.2154	5.0909	0.	-552.92
2522	2.2154	4.9091	0.	-671.73
2523	2.2154	4.7273	0.	-783.31
2524	2.2154	4.5455	0.	-885.89
2525	2.2154	4.3636	0.	-978.2
2526	2.2154	4.1818	0.	-1059.4
2527	2.2154	4.	0.	-1129.
2528	2.2154	3.8182	0.	-1186.8
2529	2.2154	3.6364	0.	-1232.8
2530	2.2154	3.4545	0.	-1267.2
2531	2.2154	3.2727	0.	-1289.9
2532	2.2154	3.0909	0.	-1301.3
2533	2.2154	2.9091	0.	-1301.3
2534	2.2154	2.7273	0.	-1289.9
2535	2.2154	2.5455	0.	-1267.2
2536	2.2154	2.3636	0.	-1232.8
2537	2.2154	2.1818	0.	-1186.8
2538	2.2154	2.	0.	-1129.
2539	2.2154	1.8182	0.	-1059.4
2540	2.2154	1.6364	0.	-978.2
2541	2.2154	1.4545	0.	-885.89
2542	2.2154	1.2727	0.	-783.31
2543	2.2154	1.0909	0.	-671.73
2544	2.2154	0.90909	0.	-552.92
2545	2.2154	0.72727	0.	-429.01
2546	2.2154	0.54545	0.	-302.44
2547	2.2154	0.36364	0.	-175.05
2548	2.2154	0.18182	0.	-44.78
2549	2.0308	5.8182	0.	-41.082
2550	2.0308	5.6364	0.	-183.99
2551	2.0308	5.4545	0.	-324.36
2552	2.0308	5.2727	0.	-463.96
2553	2.0308	5.0909	0.	-600.35
2554	2.0308	4.9091	0.	-730.52
2555	2.0308	4.7273	0.	-851.91
2556	2.0308	4.5455	0.	-962.6
2557	2.0308	4.3636	0.	-1061.3
2558	2.0308	4.1818	0.	-1147.3
2559	2.0308	4.	0.	-1220.5
2560	2.0308	3.8182	0.	-1280.7
2561	2.0308	3.6364	0.	-1328.4
2562	2.0308	3.4545	0.	-1363.7
2563	2.0308	3.2727	0.	-1387.1
2564	2.0308	3.0909	0.	-1398.7
2565	2.0308	2.9091	0.	-1398.7
2566	2.0308	2.7273	0.	-1387.1
2567	2.0308	2.5455	0.	-1363.7
2568	2.0308	2.3636	0.	-1328.4
2569	2.0308	2.1818	0.	-1280.7
2570	2.0308	2.	0.	-1220.5
2571	2.0308	1.8182	0.	-1147.3
2572	2.0308	1.6364	0.	-1061.3
2573	2.0308	1.4545	0.	-962.6
2574	2.0308	1.2727	0.	-851.91
2575	2.0308	1.0909	0.	-730.52
2576	2.0308	0.90909	0.	-600.35
2577	2.0308	0.72727	0.	-463.96
2578	2.0308	0.54545	0.	-324.36
2579	2.0308	0.36364	0.	-183.99
2580	2.0308	0.18182	0.	-41.082
2581	1.8462	5.8182	0.	-36.476
2582	1.8462	5.6364	0.	-193.62
2583	1.8462	5.4545	0.	-349.13
2584	1.8462	5.2727	0.	-503.83
2585	1.8462	5.0909	0.	-654.43
2586	1.8462	4.9091	0.	-797.13
2587	1.8462	4.7273	0.	-928.92
2588	1.8462	4.5455	0.	-1047.8
2589	1.8462	4.3636	0.	-1152.5
2590	1.8462	4.1818	0.	-1242.8
2591	1.8462	4.	0.	-1318.7
2592	1.8462	3.8182	0.	-1380.7
2593	1.8462	3.6364	0.	-1429.3
2594	1.8462	3.4545	0.	-1465.1
2595	1.8462	3.2727	0.	-1488.7
2596	1.8462	3.0909	0.	-1500.4
2597	1.8462	2.9091	0.	-1500.4
2598	1.8462	2.7273	0.	-1488.7
2599	1.8462	2.5455	0.	-1465.1
2600	1.8462	2.3636	0.	-1429.3
2601	1.8462	2.1818	0.	-1380.7
2602	1.8462	2.	0.	-1318.7
2603	1.8462	1.8182	0.	-1242.8
2604	1.8462	1.6364	0.	-1152.5
2605	1.8462	1.4545	0.	-1047.8
2606	1.8462	1.2727	0.	-928.92
2607	1.8462	1.0909	0.	-797.13
2608	1.8462	0.90909	0.	-654.43
2609	1.8462	0.72727	0.	-503.83
2610	1.8462	0.54545	0.	-349.13
2611	1.8462	0.36364	0.	-193.62
2612	1.8462	0.18182	0.	-36.476
2613	1.6615	5.8182	0.	-31.178
2614	1.6615	5.6364	0.	-204.35
2615	1.6615	5.4545	0.	-377.85
2616	1.6615	5.2727	0.	-550.31
2617	1.6615	5.0909	0.	-717.14
2618	1.6615	4.9091	0.	-873.55
2619	1.6615	4.7273	0.	-1016.1
2620	1.6615	4.5455	0.	-1142.8
2621	1.6615	4.3636	0.	-1252.8
2622	1.6615	4.1818	0.	-1346.2
2623	1.6615	4.	0.	-1423.8
2624	1.6615	3.8182	0.	-1486.5
2625	1.6615	3.6364	0.	-1535.2
2626	1.6615	3.4545	0.	-1570.9
2627	1.6615	3.2727	0.	-1594.2
2628	1.6615	3.0909	0.	-1605.8
2629	1.6615	2.9091	0.	-1605.8
2630	1.6615	2.7273	0.	-1594.2
2631	1.6615	2.5455	0.	-1570.9
2632	1.6615	2.3636	0.	-1535.2
2633	1.6615	2.1818	0.	-1486.5
2634	1.6615	2.	0.	-1423.8
2635	1.6615	1.8182	0.	-1346.2
2636	1.6615	1.6364	0.	-1252.8
2637	1.6615	1.4545	0.	-1142.8
2638	1.6615	1.2727	0.	-1016.1
2639	1.6615	1.0909	0.	-873.55
2640	1.6615	0.90909	0.	-717.14
2641	1.6615	0.72727	0.	-550.31
2642	1.6615	0.54545	0.	-377.85
2643	1.6615	0.36364	0.	-204.35
2644	1.6615	0.18182	0.	-31.178
2645	1.4769	5.8182	0.	-25.728
2646	1.4769	5.6364	0.	-216.94
2647	1.4769	5.4545	0.	-412.32
2648	1.4769	5.2727	0.	-605.93
2649	1.4769	5.0909	0.	-791.31
2650	1.4769	4.9091	0.	-962.45
2651	1.4769	4.7273	0.	-1115.6
2652	1.4769	4.5455	0.	-1249.1
2653	1.4769	4.3636	0.	-1363.
2654	1.4769	4.1818	0.	-1458.1
2655	1.4769	4.	0.	-1535.9
2656	1.4769	3.8182	0.	-1597.9
2657	1.4769	3.6364	0.	-1645.6
2658	1.4769	3.4545	0.	-1680.3
2659	1.4769	3.2727	0.	-1702.9
2660	1.4769	3.0909	0.	-1714.1
2661	1.4769	2.9091	0.	-1714.1
2662	1.4769	2.7273	0.	-1702.9
2663	1.4769	2.5455	0.	-1680.3
2664	1.4769	2.3636	0.	-1645.6
2665	1.4769	2.1818	0.	-1597.9
2666	1.4769	2.	0.	-1535.9
2667	1.4769	1.8182	0.	-1458.1
2668	1.4769	1.6364	0.	-1363.
2669	1.4769	1.4545	0.	-1249.1
2670	1.4769	1.2727	0.	-1115.6
2671	1.4769	1.0909	0.	-962.45
2672	1.4769	0.90909	0.	-791.31
2673	1.4769	0.72727	0.	-605.93
2674	1.4769	0.54545	0.	-412.32
2675	1.4769	0.36364	0.	-216.94
2676	1.4769	0.18182	0.	-25.728
2677	1.2923	5.8182	0.	-20.842
2678	1.2923	5.6364	0.	-232.53
2679	1.2923	5.4545	0.	-455.17
2680	1.2923	5.2727	0.	-674.3
2681	1.2923	5.0909	0.	-880.68
2682	1.2923	4.9091	0.	-1067.
2683	1.2923	4.7273	0.	-1229.7
2684	1.2923	4.5455	0.	-1368.1
2685	1.2923	4.3636	0.	-1483.5
2686	1.2923	4.1818	0.	-1578.
2687	1.2923	4.	0.	-1654.1
2688	1.2923	3.8182	0.	-1713.9
2689	1.2923	3.6364	0.	-1759.5
2690	1.2923	3.4545	0.	-1792.4
2691	1.2923	3.2727	0.	-1813.7
2692	1.2923	3.0909	0.	-1824.1
2693	1.2923	2.9091	0.	-1824.1
2694	1.2923	2.7273	0.	-1813.7
2695	1.2923	2.5455	0.	-1792.4
2696	1.2923	2.3636	0.	-1759.5
2697	1.2923	2.1818	0.	-1713.9
2698	1.2923	2.	0.	-1654.1
2699	1.2923	1.8182	0.	-1578.
2700	1.2923	1.6364	0.	-1483.5
2701	1.2923	1.4545	0.	-1368.1
2702	1.2923	1.2727	0.	-1229.7
2703	1.2923	1.0909	0.	-1067.
2704	1.2923	0.90909	0.	-880.68
2705	1.2923	0.72727	0.	-674.3
2706	1.2923	0.54545	0.	-455.17
2707	1.2923	0.36364	0.	-232.53
2708	1.2923	0.18182	0.	-20.842
2709	1.1077	5.8182	0.	-17.577
2710	1.1077	5.6364	0.	-253.8
2711	1.1077	5.4545	0.	-511.6
2712	1.1077	5.2727	0.	-761.77
2713	1.1077	5.0909	0.	-991.25
2714	1.1077	4.9091	0.	-1191.9
2715	1.1077	4.7273	0.	-1361.4
2716	1.1077	4.5455	0.	-1501.4
2717	1.1077	4.3636	0.	-1615.1
2718	1.1077	4.1818	0.	-1706.2
2719	1.1077	4.	0.	-1778.3
2720	1.1077	3.8182	0.	-1834.3
2721	1.1077	3.6364	0.	-1876.5
2722	1.1077	3.4545	0.	-1906.7
2723	1.1077	3.2727	0.	-1926.1
2724	1.1077	3.0909	0.	-1935.7
2725	1.1077	2.9091	0.	-1935.7
2726	1.1077	2.7273	0.	-1926.1
2727	1.1077	2.5455	0.	-1906.7
2728	1.1077	2.3636	0.	-1876.5
2729	1.1077	2.1818	0.	-1834.3
2730	1.1077	2.	0.	-1778.3
2731	1.1077	1.8182	0.	-1706.2
2732	1.1077	1.6364	0.	-1615.1
2733	1.1077	1.4545	0.	-1501.4
2734	1.1077	1.2727	0.	-1361.4
2735	1.1077	1.0909	0.	-1191.9
2736	1.1077	0.90909	0.	-991.25
2737	1.1077	0.72727	0.	-761.77
2738	1.1077	0.54545	0.	-511.6
2739	1.1077	0.36364	0.	-253.8
2740	1.1077	0.18182	0.	-17.577
2741	0.92308	5.8182	0.	-14.363
2742	0.92308	5.6364	0.	-283.56
2743	0.92308	5.4545	0.	-587.51
2744	0.92308	5.2727	0.	-874.67
2745	0.92308	5.0909	0.	-1127.3
2746	0.92308	4.9091	0.	-1338.4
2747	0.92308	4.7273	0.	-1509.5
2748	0.92308	4.5455	0.	-1645.8
2749	0.92308	4.3636	0.	-1753.5
2750	0.92308	4.1818	0.	-1838.
2751	0.92308	4.	0.	-1903.7
2752	0.92308	3.8182	0.	-1954.1
2753	0.92308	3.6364	0.	-1991.9
2754	0.92308	3.4545	0.	-2018.7
2755	0.92308	3.2727	0.	-2036.
2756	0.92308	3.0909	0.	-2044.4
2757	0.92308	2.9091	0.	-2044.4
2758	0.92308	2.7273	0.	-2036.
2759	0.92308	2.5455	0.	-2018.7
2760	0.92308	2.3636	0.	-1991.9
2761	0.92308	2.1818	0.	-1954.1
2762	0.92308	2.	0.	-1903.7
2763	0.92308	1.8182	0.	-1838.
2764	0.92308	1.6364	0.	-1753.5
2765	0.92308	1.4545	0.	-1645.8
2766	0.92308	1.2727	0.	-1509.5
2767	0.92308	1.0909	0.	-1338.4
2768	0.92308	0.90909	0.	-1127.3
2769	0.92308	0.72727	0.	-874.67
2770	0.92308	0.54545	0.	-587.51
2771	0.92308	0.36364	0.	-283.56
2772	0.92308	0.18182	0.	-14.363
2773	0.73846	5.8182	0.	-18.399
2774	0.73846	5.6364	0.	-337.01
2775	0.73846	5.4545	0.	-705.57
2776	0.73846	5.2727	0.	-1035.3
2777	0.73846	5.0909	0.	-1306.6
2778	0.73846	4.9091	0.	-1519.8
2779	0.73846	4.7273	0.	-1684.2
2780	0.73846	4.5455	0.	-1810.5
2781	0.73846	4.3636	0.	-1907.6
2782	0.73846	4.1818	0.	-1982.5
2783	0.73846	4.	0.	-2040.
2784	0.73846	3.8182	0.	-2083.8
2785	0.73846	3.6364	0.	-2116.3
2786	0.73846	3.4545	0.	-2139.4
2787	0.73846	3.2727	0.	-2154.2
2788	0.73846	3.0909	0.	-2161.5
2789	0.73846	2.9091	0.	-2161.5
2790	0.73846	2.7273	0.	-2154.2
2791	0.73846	2.5455	0.	-2139.4
2792	0.73846	2.3636	0.	-2116.3
2793	0.73846	2.1818	0.	-2083.8
2794	0.73846	2.	0.	-2040.
2795	0.73846	1.8182	0.	-1982.5
2796	0.73846	1.6364	0.	-1907.6
2797	0.73846	1.4545	0.	-1810.5
2798	0.73846	1.2727	0.	-1684.2
2799	0.73846	1.0909	0.	-1519.8
2800	0.73846	0.90909	0.	-1306.6
2801	0.73846	0.72727	0.	-1035.3
2802	0.73846	0.54545	0.	-705.57
2803	0.73846	0.36364	0.	-337.01
2804	0.73846	0.18182	0.	-18.399
2805	0.55385	5.8182	0.	-0.68623
2806	0.55385	5.6364	0.	-411.12
2807	0.55385	5.4545	0.	-858.46
2808	0.55385	5.2727	0.	-1221.3
2809	0.55385	5.0909	0.	-1492.5
2810	0.55385	4.9091	0.	-1690.5
2811	0.55385	4.7273	0.	-1836.
2812	0.55385	4.5455	0.	-1944.3
2813	0.55385	4.3636	0.	-2026.1
2814	0.55385	4.1818	0.	-2088.6
2815	0.55385	4.	0.	-2136.3
2816	0.55385	3.8182	0.	-2172.6
2817	0.55385	3.6364	0.	-2199.5
2818	0.55385	3.4545	0.	-2218.7
2819	0.55385	3.2727	0.	-2230.9
2820	0.55385	3.0909	0.	-2236.9
2821	0.55385	2.9091	0.	-2236.9
2822	0.55385	2.7273	0.	-2230.9
2823	0.55385	2.5455	0.	-2218.7
2824	0.55385	2.3636	0.	-2199.5
2825	0.55385	2.1818	0.	-2172.6
2826	0.55385	2.	0.	-2136.3
2827	0.55385	1.8182	0.	-2088.6
2828	0.55385	1.6364	0.	-2026.1
2829	0.55385	1.4545	0.	-1944.3
2830	0.55385	1.2727	0.	-1836.
2831	0.55385	1.0909	0.	-1690.5
2832	0.55385	0.90909	0.	-1492.5
2833	0.55385	0.72727	0.	-1221.3
2834	0.55385	0.54545	0.	-858.46
2835	0.55385	0.36364	0.	-411.12
2836	0.55385	0.18182	0.	-0.68624
2837	0.36923	5.8182	0.	-81.547
2838	0.36923	5.6364	0.	-658.34
2839	0.36923	5.4545	0.	-1217.
2840	0.36923	5.2727	0.	-1590.4
2841	0.36923	5.0909	0.	-1838.6
2842	0.36923	4.9091	0.	-2008.7
2843	0.36923	4.7273	0.	-2130.3
2844	0.36923	4.5455	0.	-2220.1
2845	0.36923	4.3636	0.	-2287.8
2846	0.36923	4.1818	0.	-2339.6
2847	0.36923	4.	0.	-2379.3
2848	0.36923	3.8182	0.	-2409.6
2849	0.36923	3.6364	0.	-2432.2
2850	0.36923	3.4545	0.	-2448.2
2851	0.36923	3.2727	0.	-2458.5
2852	0.36923	3.0909	0.	-2463.5
2853	0.36923	2.9091	0.	-2463.5
2854	0.36923	2.7273	0.	-2458.5
2855	0.36923	2.5455	0.	-2448.2
2856	0.36923	2.3636	0.	-2432.2
2857	0.36923	2.1818	0.	-2409.6
2858	0.36923	2.	0.	-2379.3
2859	0.36923	1.8182	0.	-2339.6
2860	0.36923	1.6364	0.	-2287.8
2861	0.36923	1.4545	0.	-2220.1
2862	0.36923	1.2727	0.	-2130.3
2863	0.36923	1.0909	0.	-2008.7
2864	0.36923	0.90909	0.	-1838.6
2865	0.36923	0.72727	0.	-1590.4
2866	0.36923	0.54545	0.	-1217.
2867	0.36923	0.36364	0.	-658.34
2868	0.36923	0.18182	0.	-81.547
2869	0.18462	5.8182	0.	1.8681
2870	0.18462	5.6364	0.	-819.49
2871	0.18462	5.4545	0.	-1255.9
2872	0.18462	5.2727	0.	-1505.9
2873	0.18462	5.0909	0.	-1663.4
2874	0.18462	4.9091	0.	-1771.9
2875	0.18462	4.7273	0.	-1850.7
2876	0.18462	4.5455	0.	-1909.8
2877	0.18462	4.3636	0.	-1955.
2878	0.18462	4.1818	0.	-1990.
2879	0.18462	4.	0.	-2017.
2880	0.18462	3.8182	0.	-2037.7
2881	0.18462	3.6364	0.	-2053.2
2882	0.18462	3.4545	0.	-2064.2
2883	0.18462	3.2727	0.	-2071.3
2884	0.18462	3.0909	0.	-2074.8
2885	0.18462	2.9091	0.	-2074.8
2886	0.18462	2.7273	0.	-2071.3
2887	0.18462	2.5455	0.	-2064.2
2888	0.18462	2.3636	0.	-2053.2
2889	0.18462	2.1818	0.	-2037.7
2890	0.18462	2.	0.	-2017.
2891	0.18462	1.8182	0.	-1990.
2892	0.18462	1.6364	0.	-1955.
2893	0.18462	1.4545	0.	-1909.8
2894	0.18462	1.2727	0.	-1850.7
2895	0.18462	1.0909	0.	-1771.9
2896	0.18462	0.90909	0.	-1663.4
2897	0.18462	0.72727	0.	-1505.9
2898	0.18462	0.54545	0.	-1255.9
2899	0.18462	0.36364	0.	-819.49
2900	0.18462	0.18182	0.	1.8681
2901	17.147	0.18182	0.	-8.7881
2902	17.147	0.36364	0.	-4.4429
2903	17.147	0.54545	0.	-3.3723
2904	17.147	0.72727	0.	-3.0022
2905	17.147	0.90909	0.	-3.0365
2906	17.147	1.0909	0.	-3.8151
2907	17.147	1.2727	0.	-3.5235
2908	17.147	1.4545	0.	-10.063
2909	17.147	1.6364	0.	2.0203
2910	17.147	1.8182	0.	-64.216
2911	17.147	2.	0.	-215.2
2912	17.147	2.1818	0.	-20.885
2913	17.147	2.3636	0.	-8.1304
2914	17.147	2.5455	0.	1.5281
2915	17.147	2.7273	0.	-1.3261
2916	17.147	2.9091	0.	-0.18384
2917	17.147	3.0909	0.	-0.18384
2918	17.147	3.2727	0.	-1.3261
2919	17.147	3.4545	0.	1.5281
2920	17.147	3.6364	0.	-8.1304
2921	17.147	3.8182	0.	-20.885
2922	17.147	4.	0.	-215.2
2923	17.147	4.1818	0.	-64.216
2924	17.147	4.3636	0.	2.0203
2925	17.147	4.5455	0.	-10.063
2926	17.147	4.7273	0.	-3.5235
2927	17.147	4.9091	0.	-3.8151
2928	17.147	5.0909	0.	-3.0365
2929	17.147	5.2727	0.	-3.0022
2930	17.147	5.4545	0.	-3.3723
2931	17.147	5.6364	0.	-4.4429
2932	17.147	5.8182	0.	-8.7881
2933	17.327	0.18182	0.	-3.5023
2934	17.327	0.36364	0.	-2.9086
2935	17.327	0.54545	0.	-1.8096
2936	17.327	0.72727	0.	-1.1844
2937	17.327	0.90909	0.	-0.9845
2938	17.327	1.0909	0.	-0.91837
2939	17.327	1.2727	0.	-1.154
2940	17.327	1.4545	0.	-1.8953
2941	17.327	1.6364	0.	-1.4627
2942	17.327	1.8182	0.	1.0086
2943	17.327	2.	0.	31.615
2944	17.327	2.1818	0.	11.226
2945	17.327	2.3636	0.	-6.1418
2946	17.327	2.5455	0.	-0.38158
2947	17.327	2.7273	0.	-0.13198
2948	17.327	2.9091	0.	7.843e-003
2949	17.327	3.0909	0.	7.8445e-003
2950	17.327	3.2727	0.	-0.13198
2951	17.327	3.4545	0.	-0.38158
2952	17.327	3.6364	0.	-6.1418
2953	17.327	3.8182	0.	11.226
2954	17.327	4.	0.	31.615
2955	17.327	4.1818	0.	1.0086
2956	17.327	4.3636	0.	-1.4627
2957	17.327	4.5455	0.	-1.8953
2958	17.327	4.7273	0.	-1.154
2959	17.327	4.9091	0.	-0.91837
2960	17.327	5.0909	0.	-0.9845
2961	17.327	5.2727	0.	-1.1844
2962	17.327	5.4545	0.	-1.8096
2963	17.327	5.6364	0.	-2.9086
2964	17.327	5.8182	0.	-3.5023
2965	17.508	0.18182	0.	-1.8245
2966	17.508	0.36364	0.	-2.2116
2967	17.508	0.54545	0.	-2.0194
2968	17.508	0.72727	0.	-1.75
2969	17.508	0.90909	0.	-1.6759
2970	17.508	1.0909	0.	-1.85
2971	17.508	1.2727	0.	-2.161
2972	17.508	1.4545	0.	-2.5728
2973	17.508	1.6364	0.	-5.6058
2974	17.508	1.8182	0.	-5.8886
2975	17.508	2.	0.	-14.663
2976	17.508	2.1818	0.	-35.659
2977	17.508	2.3636	0.	-17.092
2978	17.508	2.5455	0.	-2.4378
2979	17.508	2.7273	0.	-9.9261e-003
2980	17.508	2.9091	0.	0.40418
2981	17.508	3.0909	0.	0.40418
2982	17.508	3.2727	0.	-9.9271e-003
2983	17.508	3.4545	0.	-2.4378
2984	17.508	3.6364	0.	-17.092
2985	17.508	3.8182	0.	-35.659
2986	17.508	4.	0.	-14.663
2987	17.508	4.1818	0.	-5.8886
2988	17.508	4.3636	0.	-5.6058
2989	17.508	4.5455	0.	-2.5728
2990	17.508	4.7273	0.	-2.161
2991	17.508	4.9091	0.	-1.85
2992	17.508	5.0909	0.	-1.6759
2993	17.508	5.2727	0.	-1.75
2994	17.508	5.4545	0.	-2.0194
2995	17.508	5.6364	0.	-2.2116
2996	17.508	5.8182	0.	-1.8245
2997	17.688	0.18182	0.	-0.7837
2998	17.688	0.36364	0.	-1.198
2999	17.688	0.54545	0.	-1.462
3000	17.688	0.72727	0.	-1.534
3001	17.688	0.90909	0.	-1.6194
3002	17.688	1.0909	0.	-1.8037
3003	17.688	1.2727	0.	-2.246
3004	17.688	1.4545	0.	-3.2054
3005	17.688	1.6364	0.	-5.8993
3006	17.688	1.8182	0.	-31.248
3007	17.688	2.	0.	-76.039
3008	17.688	2.1818	0.	-97.233
3009	17.688	2.3636	0.	-89.745
3010	17.688	2.5455	0.	-67.77
3011	17.688	2.7273	0.	-47.252
3012	17.688	2.9091	0.	-35.825
3013	17.688	3.0909	0.	-35.825
3014	17.688	3.2727	0.	-47.252
3015	17.688	3.4545	0.	-67.77
3016	17.688	3.6364	0.	-89.745
3017	17.688	3.8182	0.	-97.233
3018	17.688	4.	0.	-76.039
3019	17.688	4.1818	0.	-31.248
3020	17.688	4.3636	0.	-5.8993
3021	17.688	4.5455	0.	-3.2054
3022	17.688	4.7273	0.	-2.246
3023	17.688	4.9091	0.	-1.8037
3024	17.688	5.0909	0.	-1.6194
3025	17.688	5.2727	0.	-1.534
3026	17.688	5.4545	0.	-1.462
3027	17.688	5.6364	0.	-1.198
3028	17.688	5.8182	0.	-0.7837
3029	17.868	0.18182	0.	-0.37761
3030	17.868	0.36364	0.	-0.72275
3031	17.868	0.54545	0.	-1.0641
3032	17.868	0.72727	0.	-1.3864
3033	17.868	0.90909	0.	-1.7508
3034	17.868	1.0909	0.	-2.3389
3035	17.868	1.2727	0.	-3.7619
3036	17.868	1.4545	0.	-10.379
3037	17.868	1.6364	0.	-37.763
3038	17.868	1.8182	0.	-77.718
3039	17.868	2.	0.	-113.52
3040	17.868	2.1818	0.	-133.27
3041	17.868	2.3636	0.	-134.71
3042	17.868	2.5455	0.	-124.86
3043	17.868	2.7273	0.	-112.94
3044	17.868	2.9091	0.	-105.54
3045	17.868	3.0909	0.	-105.54
3046	17.868	3.2727	0.	-112.94
3047	17.868	3.4545	0.	-124.86
3048	17.868	3.6364	0.	-134.71
3049	17.868	3.8182	0.	-133.27
3050	17.868	4.	0.	-113.52
3051	17.868	4.1818	0.	-77.718
3052	17.868	4.3636	0.	-37.763
3053	17.868	4.5455	0.	-10.379
3054	17.868	4.7273	0.	-3.7619
3055	17.868	4.9091	0.	-2.3389
3056	17.868	5.0909	0.	-1.7508
3057	17.868	5.2727	0.	-1.3864
3058	17.868	5.4545	0.	-1.0641
3059	17.868	5.6364	0.	-0.72274
3060	17.868	5.8182	0.	-0.37761
3061	18.049	0.18182	0.	-0.1759
3062	18.049	0.36364	0.	-0.46012
3063	18.049	0.54545	0.	-0.75864
3064	18.049	0.72727	0.	-1.207
3065	18.049	0.90909	0.	-1.9772
3066	18.049	1.0909	0.	-4.088
3067	18.049	1.2727	0.	-13.409
3068	18.049	1.4545	0.	-36.303
3069	18.049	1.6364	0.	-67.936
3070	18.049	1.8182	0.	-102.4
3071	18.049	2.	0.	-132.37
3072	18.049	2.1818	0.	-151.83
3073	18.049	2.3636	0.	-159.27
3074	18.049	2.5455	0.	-157.94
3075	18.049	2.7273	0.	-153.21
3076	18.049	2.9091	0.	-149.65
3077	18.049	3.0909	0.	-149.65
3078	18.049	3.2727	0.	-153.21
3079	18.049	3.4545	0.	-157.94
3080	18.049	3.6364	0.	-159.27
3081	18.049	3.8182	0.	-151.83
3082	18.049	4.	0.	-132.37
3083	18.049	4.1818	0.	-102.4
3084	18.049	4.3636	0.	-67.936
3085	18.049	4.5455	0.	-36.303
3086	18.049	4.7273	0.	-13.409
3087	18.049	4.9091	0.	-4.088
3088	18.049	5.0909	0.	-1.9772
3089	18.049	5.2727	0.	-1.207
3090	18.049	5.4545	0.	-0.75864
3091	18.049	5.6364	0.	-0.46012
3092	18.049	5.8182	0.	-0.1759
3093	18.229	0.18182	0.	-8.6716e-002
3094	18.229	0.36364	0.	-0.31879
3095	18.229	0.54545	0.	-0.55909
3096	18.229	0.72727	0.	-1.0676
3097	18.229	0.90909	0.	-2.5281
3098	18.229	1.0909	0.	-9.9518
3099	18.229	1.2727	0.	-28.422
3100	18.229	1.4545	0.	-53.783
3101	18.229	1.6364	0.	-83.358
3102	18.229	1.8182	0.	-113.62
3103	18.229	2.	0.	-140.17
3104	18.229	2.1818	0.	-159.46
3105	18.229	2.3636	0.	-170.38
3106	18.229	2.5455	0.	-174.48
3107	18.229	2.7273	0.	-174.75
3108	18.229	2.9091	0.	-174.06
3109	18.229	3.0909	0.	-174.06
3110	18.229	3.2727	0.	-174.75
3111	18.229	3.4545	0.	-174.48
3112	18.229	3.6364	0.	-170.38
3113	18.229	3.8182	0.	-159.46
3114	18.229	4.	0.	-140.17
3115	18.229	4.1818	0.	-113.62
3116	18.229	4.3636	0.	-83.358
3117	18.229	4.5455	0.	-53.783
3118	18.229	4.7273	0.	-28.422
3119	18.229	4.9091	0.	-9.9517
3120	18.229	5.0909	0.	-2.5281
3121	18.229	5.2727	0.	-1.0676
3122	18.229	5.4545	0.	-0.55909
3123	18.229	5.6364	0.	-0.31878
3124	18.229	5.8182	0.	-8.6715e-002
3125	18.409	0.18182	0.	-4.536e-002
3126	18.409	0.36364	0.	-0.23174
3127	18.409	0.54545	0.	-0.42378
3128	18.409	0.72727	0.	-0.97559
3129	18.409	0.90909	0.	-3.8357
3130	18.409	1.0909	0.	-17.099
3131	18.409	1.2727	0.	-37.668
3132	18.409	1.4545	0.	-62.463
3133	18.409	1.6364	0.	-89.675
3134	18.409	1.8182	0.	-116.79
3135	18.409	2.	0.	-140.94
3136	18.409	2.1818	0.	-159.85
3137	18.409	2.3636	0.	-172.63
3138	18.409	2.5455	0.	-179.91
3139	18.409	2.7273	0.	-183.3
3140	18.409	2.9091	0.	-184.49
3141	18.409	3.0909	0.	-184.49
3142	18.409	3.2727	0.	-183.3
3143	18.409	3.4545	0.	-179.91
3144	18.409	3.6364	0.	-172.63
3145	18.409	3.8182	0.	-159.85
3146	18.409	4.	0.	-140.94
3147	18.409	4.1818	0.	-116.79
3148	18.409	4.3636	0.	-89.675
3149	18.409	4.5455	0.	-62.463
3150	18.409	4.7273	0.	-37.668
3151	18.409	4.9091	0.	-17.099
3152	18.409	5.0909	0.	-3.8357
3153	18.409	5.2727	0.	-0.97559
3154	18.409	5.4545	0.	-0.42378
3155	18.409	5.6364	0.	-0.23174
3156	18.409	5.8182	0.	-4.5358e-002
3157	18.59	0.18182	0.	-2.7081e-002
3158	18.59	0.36364	0.	-0.17384
3159	18.59	0.54545	0.	-0.33148
3160	18.59	0.72727	0.	-0.94731
3161	18.59	0.90909	0.	-6.2268
3162	18.59	1.0909	0.	-21.96
3163	18.59	1.2727	0.	-42.359
3164	18.59	1.4545	0.	-65.742
3165	18.59	1.6364	0.	-90.637
3166	18.59	1.8182	0.	-115.17
3167	18.59	2.	0.	-137.34
3168	18.59	2.1818	0.	-155.55
3169	18.59	2.3636	0.	-169.05
3170	18.59	2.5455	0.	-177.99
3171	18.59	2.7273	0.	-183.14
3172	18.59	2.9091	0.	-185.42
3173	18.59	3.0909	0.	-185.42
3174	18.59	3.2727	0.	-183.14
3175	18.59	3.4545	0.	-177.99
3176	18.59	3.6364	0.	-169.05
3177	18.59	3.8182	0.	-155.55
3178	18.59	4.	0.	-137.34
3179	18.59	4.1818	0.	-115.17
3180	18.59	4.3636	0.	-90.637
3181	18.59	4.5455	0.	-65.742
3182	18.59	4.7273	0.	-42.359
3183	18.59	4.9091	0.	-21.96
3184	18.59	5.0909	0.	-6.2268
3185	18.59	5.2727	0.	-0.9473
3186	18.59	5.4545	0.	-0.33147
3187	18.59	5.6364	0.	-0.17383
3188	18.59	5.8182	0.	-2.708e-002
3189	18.77	0.18182	0.	-1.8807e-002
3190	18.77	0.36364	0.	-0.13197
3191	18.77	0.54545	0.	-0.26693
3192	18.77	0.72727	0.	-1.0149
3193	18.77	0.90909	0.	-8.8474
3194	18.77	1.0909	0.	-24.794
3195	18.77	1.2727	0.	-44.162
3196	18.77	1.4545	0.	-65.79
3197	18.77	1.6364	0.	-88.445
3198	18.77	1.8182	0.	-110.68
3199	18.77	2.	0.	-131.01
3200	18.77	2.1818	0.	-148.26
3201	18.77	2.3636	0.	-161.73
3202	18.77	2.5455	0.	-171.3
3203	18.77	2.7273	0.	-177.3
3204	18.77	2.9091	0.	-180.14
3205	18.77	3.0909	0.	-180.14
3206	18.77	3.2727	0.	-177.3
3207	18.77	3.4545	0.	-171.3
3208	18.77	3.6364	0.	-161.73
3209	18.77	3.8182	0.	-148.26
3210	18.77	4.	0.	-131.01
3211	18.77	4.1818	0.	-110.68
3212	18.77	4.3636	0.	-88.445
3213	18.77	4.5455	0.	-65.79
3214	18.77	4.7273	0.	-44.162
3215	18.77	4.9091	0.	-24.794
3216	18.77	5.0909	0.	-8.8474
3217	18.77	5.2727	0.	-1.0149
3218	18.77	5.4545	0.	-0.26693
3219	18.77	5.6364	0.	-0.13197
3220	18.77	5.8182	0.	-1.8807e-002
3221	18.95	0.18182	0.	-1.4859e-002
3222	18.95	0.36364	0.	-0.10003
3223	18.95	0.54545	0.	-0.22108
3224	18.95	0.72727	0.	-1.2733
3225	18.95	0.90909	0.	-10.951
3226	18.95	1.0909	0.	-26.187
3227	18.95	1.2727	0.	-44.144
3228	18.95	1.4545	0.	-63.89
3229	18.95	1.6364	0.	-84.389
3230	18.95	1.8182	0.	-104.49
3231	18.95	2.	0.	-123.05
3232	18.95	2.1818	0.	-139.11
3233	18.95	2.3636	0.	-152.06
3234	18.95	2.5455	0.	-161.64
3235	18.95	2.7273	0.	-167.87
3236	18.95	2.9091	0.	-170.93
3237	18.95	3.0909	0.	-170.93
3238	18.95	3.2727	0.	-167.87
3239	18.95	3.4545	0.	-161.64
3240	18.95	3.6364	0.	-152.06
3241	18.95	3.8182	0.	-139.11
3242	18.95	4.	0.	-123.05
3243	18.95	4.1818	0.	-104.49
3244	18.95	4.3636	0.	-84.389
3245	18.95	4.5455	0.	-63.89
3246	18.95	4.7273	0.	-44.144
3247	18.95	4.9091	0.	-26.187
3248	18.95	5.0909	0.	-10.951
3249	18.95	5.2727	0.	-1.2732
3250	18.95	5.4545	0.	-0.22108
3251	18.95	5.6364	0.	-0.10003
3252	18.95	5.8182	0.	-1.4859e-002
3253	19.131	0.18182	0.	-1.2621e-002
3254	19.131	0.36364	0.	-7.464e-002
3255	19.131	0.54545	0.	-0.18777
3256	19.131	0.72727	0.	-1.92
3257	19.131	0.90909	0.	-12.383
3258	19.131	1.0909	0.	-26.541
3259	19.131	1.2727	0.	-42.939
3260	19.131	1.4545	0.	-60.791
3261	19.131	1.6364	0.	-79.228
3262	19.131	1.8182	0.	-97.311
3263	19.131	2.	0.	-114.12
3264	19.131	2.1818	0.	-128.88
3265	19.131	2.3636	0.	-141.01
3266	19.131	2.5455	0.	-150.19
3267	19.131	2.7273	0.	-156.3
3268	19.131	2.9091	0.	-159.34
3269	19.131	3.0909	0.	-159.34
3270	19.131	3.2727	0.	-156.3
3271	19.131	3.4545	0.	-150.19
3272	19.131	3.6364	0.	-141.01
3273	19.131	3.8182	0.	-128.88
3274	19.131	4.	0.	-114.12
3275	19.131	4.1818	0.	-97.311
3276	19.131	4.3636	0.	-79.228
3277	19.131	4.5455	0.	-60.791
3278	19.131	4.7273	0.	-42.939
3279	19.131	4.9091	0.	-26.541
3280	19.131	5.0909	0.	-12.383
3281	19.131	5.2727	0.	-1.92
3282	19.131	5.4545	0.	-0.18777
3283	19.131	5.6364	0.	-7.4639e-002
3284	19.131	5.8182	0.	-1.2625e-002
3285	19.311	0.18182	0.	-1.0976e-002
3286	19.311	0.36364	0.	-5.3842e-002
3287	19.311	0.54545	0.	-0.1622
3288	19.311	0.72727	0.	-2.9116
3289	19.311	0.90909	0.	-13.163
3290	19.311	1.0909	0.	-26.107
3291	19.311	1.2727	0.	-40.917
3292	19.311	1.4545	0.	-56.928
3293	19.311	1.6364	0.	-73.407
3294	19.311	1.8182	0.	-89.58
3295	19.311	2.	0.	-104.69
3296	19.311	2.1818	0.	-118.08
3297	19.311	2.3636	0.	-129.22
3298	19.311	2.5455	0.	-137.77
3299	19.311	2.7273	0.	-143.54
3300	19.311	2.9091	0.	-146.44
3301	19.311	3.0909	0.	-146.44
3302	19.311	3.2727	0.	-143.54
3303	19.311	3.4545	0.	-137.77
3304	19.311	3.6364	0.	-129.22
3305	19.311	3.8182	0.	-118.08
3306	19.311	4.	0.	-104.69
3307	19.311	4.1818	0.	-89.58
3308	19.311	4.3636	0.	-73.407
3309	19.311	4.5455	0.	-56.928
3310	19.311	4.7273	0.	-40.917
3311	19.311	4.9091	0.	-26.107
3312	19.311	5.0909	0.	-13.163
3313	19.311	5.2727	0.	-2.9116
3314	19.311	5.4545	0.	-0.1622
3315	19.311	5.6364	0.	-5.3842e-002
3316	19.311	5.8182	0.	-1.0975e-002
3317	19.491	0.18182	0.	-9.4557e-003
3318	19.491	0.36364	0.	-3.6472e-002
3319	19.491	0.54545	0.	-0.13942
3320	19.491	0.72727	0.	-3.7732
3321	19.491	0.90909	0.	-13.339
3322	19.491	1.0909	0.	-25.04
3323	19.491	1.2727	0.	-38.298
3324	19.491	1.4545	0.	-52.554
3325	19.491	1.6364	0.	-67.191
3326	19.491	1.8182	0.	-81.561
3327	19.491	2.	0.	-95.034
3328	19.491	2.1818	0.	-107.04
3329	19.491	2.3636	0.	-117.12
3330	19.491	2.5455	0.	-124.93
3331	19.491	2.7273	0.	-130.23
3332	19.491	2.9091	0.	-132.92
3333	19.491	3.0909	0.	-132.92
3334	19.491	3.2727	0.	-130.23
3335	19.491	3.4545	0.	-124.93
3336	19.491	3.6364	0.	-117.12
3337	19.491	3.8182	0.	-107.04
3338	19.491	4.	0.	-95.034
3339	19.491	4.1818	0.	-81.561
3340	19.491	4.3636	0.	-67.191
3341	19.491	4.5455	0.	-52.554
3342	19.491	4.7273	0.	-38.298
3343	19.491	4.9091	0.	-25.039
3344	19.491	5.0909	0.	-13.339
3345	19.491	5.2727	0.	-3.7731
3346	19.491	5.4545	0.	-0.13942
3347	19.491	5.6364	0.	-3.6469e-002
3348	19.491	5.8182	0.	-9.4522e-003
3349	19.672	0.18182	0.	-7.9257e-003
3350	19.672	0.36364	0.	-2.1987e-002
3351	19.672	0.54545	0.	-0.11318
3352	19.672	0.72727	0.	-4.2258
3353	19.672	0.90909	0.	-12.962
3354	19.672	1.0909	0.	-23.44
3355	19.672	1.2727	0.	-35.217
3356	19.672	1.4545	0.	-47.822
3357	19.672	1.6364	0.	-60.735
3358	19.672	1.8182	0.	-73.416
3359	19.672	2.	0.	-85.332
3360	19.672	2.1818	0.	-95.996
3361	19.672	2.3636	0.	-104.99
3362	19.672	2.5455	0.	-112.
3363	19.672	2.7273	0.	-116.79
3364	19.672	2.9091	0.	-119.22
3365	19.672	3.0909	0.	-119.22
3366	19.672	3.2727	0.	-116.79
3367	19.672	3.4545	0.	-112.
3368	19.672	3.6364	0.	-104.99
3369	19.672	3.8182	0.	-95.996
3370	19.672	4.	0.	-85.332
3371	19.672	4.1818	0.	-73.416
3372	19.672	4.3636	0.	-60.735
3373	19.672	4.5455	0.	-47.822
3374	19.672	4.7273	0.	-35.217
3375	19.672	4.9091	0.	-23.44
3376	19.672	5.0909	0.	-12.962
3377	19.672	5.2727	0.	-4.2258
3378	19.672	5.4545	0.	-0.11318
3379	19.672	5.6364	0.	-2.1986e-002
3380	19.672	5.8182	0.	-7.9243e-003
3381	19.852	0.18182	0.	-6.3928e-003
3382	19.852	0.36364	0.	-1.034e-002
3383	19.852	0.54545	0.	-7.7638e-002
3384	19.852	0.72727	0.	-4.2073
3385	19.852	0.90909	0.	-12.079
3386	19.852	1.0909	0.	-21.382
3387	19.852	1.2727	0.	-31.761
3388	19.852	1.4545	0.	-42.824
3389	19.852	1.6364	0.	-54.136
3390	19.852	1.8182	0.	-65.244
3391	19.852	2.	0.	-75.696
3392	19.852	2.1818	0.	-85.076
3393	19.852	2.3636	0.	-93.018
3394	19.852	2.5455	0.	-99.228
3395	19.852	2.7273	0.	-103.49
3396	19.852	2.9091	0.	-105.65
3397	19.852	3.0909	0.	-105.65
3398	19.852	3.2727	0.	-103.49
3399	19.852	3.4545	0.	-99.228
3400	19.852	3.6364	0.	-93.018
3401	19.852	3.8182	0.	-85.076
3402	19.852	4.	0.	-75.696
3403	19.852	4.1818	0.	-65.244
3404	19.852	4.3636	0.	-54.136
3405	19.852	4.5455	0.	-42.824
3406	19.852	4.7273	0.	-31.761
3407	19.852	4.9091	0.	-21.382
3408	19.852	5.0909	0.	-12.079
3409	19.852	5.2727	0.	-4.2073
3410	19.852	5.4545	0.	-7.7637e-002
3411	19.852	5.6364	0.	-1.0339e-002
3412	19.852	5.8182	0.	-6.3923e-003
3413	20.032	0.18182	0.	-4.9337e-003
3414	20.032	0.36364	0.	-1.7897e-003
3415	20.032	0.54545	0.	-3.6154e-002
3416	20.032	0.72727	0.	-3.7289
3417	20.032	0.90909	0.	-10.739
3418	20.032	1.0909	0.	-18.921
3419	20.032	1.2727	0.	-27.991
3420	20.032	1.4545	0.	-37.621
3421	20.032	1.6364	0.	-47.452
3422	20.032	1.8182	0.	-57.102
3423	20.032	2.	0.	-66.191
3424	20.032	2.1818	0.	-74.362
3425	20.032	2.3636	0.	-81.297
3426	20.032	2.5455	0.	-86.733
3427	20.032	2.7273	0.	-90.468
3428	20.032	2.9091	0.	-92.37
3429	20.032	3.0909	0.	-92.37
3430	20.032	3.2727	0.	-90.468
3431	20.032	3.4545	0.	-86.733
3432	20.032	3.6364	0.	-81.297
3433	20.032	3.8182	0.	-74.362
3434	20.032	4.	0.	-66.191
3435	20.032	4.1818	0.	-57.102
3436	20.032	4.3636	0.	-47.452
3437	20.032	4.5455	0.	-37.621
3438	20.032	4.7273	0.	-27.991
3439	20.032	4.9091	0.	-18.921
3440	20.032	5.0909	0.	-10.738
3441	20.032	5.2727	0.	-3.7289
3442	20.032	5.4545	0.	-3.6156e-002
3443	20.032	5.6364	0.	-1.7873e-003
3444	20.032	5.8182	0.	-4.9303e-003
3445	20.213	0.18182	0.	-3.6659e-003
3446	20.213	0.36364	0.	3.4861e-003
3447	20.213	0.54545	0.	-4.0072e-003
3448	20.213	0.72727	0.	-2.8256
3449	20.213	0.90909	0.	-8.988
3450	20.213	1.0909	0.	-16.107
3451	20.213	1.2727	0.	-23.951
3452	20.213	1.4545	0.	-32.255
3453	20.213	1.6364	0.	-40.718
3454	20.213	1.8182	0.	-49.023
3455	20.213	2.	0.	-56.851
3456	20.213	2.1818	0.	-63.897
3457	20.213	2.3636	0.	-69.888
3458	20.213	2.5455	0.	-74.591
3459	20.213	2.7273	0.	-77.829
3460	20.213	2.9091	0.	-79.478
3461	20.213	3.0909	0.	-79.478
3462	20.213	3.2727	0.	-77.829
3463	20.213	3.4545	0.	-74.591
3464	20.213	3.6364	0.	-69.888
3465	20.213	3.8182	0.	-63.897
3466	20.213	4.	0.	-56.851
3467	20.213	4.1818	0.	-49.023
3468	20.213	4.3636	0.	-40.718
3469	20.213	4.5455	0.	-32.255
3470	20.213	4.7273	0.	-23.951
3471	20.213	4.9091	0.	-16.107
3472	20.213	5.0909	0.	-8.988
3473	20.213	5.2727	0.	-2.8255
3474	20.213	5.4545	0.	-4.0065e-003
3475	20.213	5.6364	0.	3.4866e-003
3476	20.213	5.8182	0.	-3.663e-003
3477	20.393	0.18182	0.	-2.6855e-003
3478	20.393	0.36364	0.	5.7335e-003
3479	20.393	0.54545	0.	1.133e-002
3480	20.393	0.72727	0.	-1.5415
3481	20.393	0.90909	0.	-6.8721
3482	20.393	1.0909	0.	-12.98
3483	20.393	1.2727	0.	-19.679
3484	20.393	1.4545	0.	-26.752
3485	20.393	1.6364	0.	-33.954
3486	20.393	1.8182	0.	-41.022
3487	20.393	2.	0.	-47.689
3488	20.393	2.1818	0.	-53.697
3489	20.393	2.3636	0.	-58.811
3490	20.393	2.5455	0.	-62.833
3491	20.393	2.7273	0.	-65.604
3492	20.393	2.9091	0.	-67.017
3493	20.393	3.0909	0.	-67.017
3494	20.393	3.2727	0.	-65.604
3495	20.393	3.4545	0.	-62.833
3496	20.393	3.6364	0.	-58.811
3497	20.393	3.8182	0.	-53.697
3498	20.393	4.	0.	-47.689
3499	20.393	4.1818	0.	-41.022
3500	20.393	4.3636	0.	-33.954
3501	20.393	4.5455	0.	-26.752
3502	20.393	4.7273	0.	-19.679
3503	20.393	4.9091	0.	-12.98
3504	20.393	5.0909	0.	-6.872
3505	20.393	5.2727	0.	-1.5414
3506	20.393	5.4545	0.	1.1328e-002
3507	20.393	5.6364	0.	5.7376e-003
3508	20.393	5.8182	0.	-2.6842e-003
3509	20.574	0.18182	0.	-2.065e-003
3510	20.574	0.36364	0.	5.5912e-003
3511	20.574	0.54545	0.	1.5529e-002
3512	20.574	0.72727	0.	-6.0711e-002
3513	20.574	0.90909	0.	-4.4326
3514	20.574	1.0909	0.	-9.5775
3515	20.574	1.2727	0.	-15.202
3516	20.574	1.4545	0.	-21.133
3517	20.574	1.6364	0.	-27.172
3518	20.574	1.8182	0.	-33.103
3519	20.574	2.	0.	-38.703
3520	20.574	2.1818	0.	-43.757
3521	20.574	2.3636	0.	-48.065
3522	20.574	2.5455	0.	-51.457
3523	20.574	2.7273	0.	-53.797
3524	20.574	2.9091	0.	-54.99
3525	20.574	3.0909	0.	-54.99
3526	20.574	3.2727	0.	-53.797
3527	20.574	3.4545	0.	-51.457
3528	20.574	3.6364	0.	-48.065
3529	20.574	3.8182	0.	-43.757
3530	20.574	4.	0.	-38.703
3531	20.574	4.1818	0.	-33.103
3532	20.574	4.3636	0.	-27.172
3533	20.574	4.5455	0.	-21.133
3534	20.574	4.7273	0.	-15.202
3535	20.574	4.9091	0.	-9.5774
3536	20.574	5.0909	0.	-4.4326
3537	20.574	5.2727	0.	-6.07e-002
3538	20.574	5.4545	0.	1.5526e-002
3539	20.574	5.6364	0.	5.5948e-003
3540	20.574	5.8182	0.	-2.0626e-003
3541	20.754	0.18182	0.	-1.8532e-003
3542	20.754	0.36364	0.	3.7864e-003
3543	20.754	0.54545	0.	1.5052e-002
3544	20.754	0.72727	0.	1.9591e-002
3545	20.754	0.90909	0.	-1.7079
3546	20.754	1.0909	0.	-5.9302
3547	20.754	1.2727	0.	-10.543
3548	20.754	1.4545	0.	-15.411
3549	20.754	1.6364	0.	-20.375
3550	20.754	1.8182	0.	-25.259
3551	20.754	2.	0.	-29.881
3552	20.754	2.1818	0.	-34.06
3553	20.754	2.3636	0.	-37.629
3554	20.754	2.5455	0.	-40.444
3555	20.754	2.7273	0.	-42.388
3556	20.754	2.9091	0.	-43.38
3557	20.754	3.0909	0.	-43.38
3558	20.754	3.2727	0.	-42.388
3559	20.754	3.4545	0.	-40.444
3560	20.754	3.6364	0.	-37.629
3561	20.754	3.8182	0.	-34.06
3562	20.754	4.	0.	-29.881
3563	20.754	4.1818	0.	-25.259
3564	20.754	4.3636	0.	-20.375
3565	20.754	4.5455	0.	-15.411
3566	20.754	4.7273	0.	-10.543
3567	20.754	4.9091	0.	-5.9302
3568	20.754	5.0909	0.	-1.7079
3569	20.754	5.2727	0.	1.959e-002
3570	20.754	5.4545	0.	1.5051e-002
3571	20.754	5.6364	0.	3.784e-003
3572	20.754	5.8182	0.	-1.8512e-003
3573	20.934	0.18182	0.	-2.0883e-003
3574	20.934	0.36364	0.	8.9148e-004
3575	20.934	0.54545	0.	1.3122e-002
3576	20.934	0.72727	0.	1.908e-002
3577	20.934	0.90909	0.	2.3346e-002
3578	20.934	1.0909	0.	-2.0645
3579	20.934	1.2727	0.	-5.719
3580	20.934	1.4545	0.	-9.5922
3581	20.934	1.6364	0.	-13.559
3582	20.934	1.8182	0.	-17.479
3583	20.934	2.	0.	-21.202
3584	20.934	2.1818	0.	-24.581
3585	20.934	2.3636	0.	-27.474
3586	20.934	2.5455	0.	-29.761
3587	20.934	2.7273	0.	-31.343
3588	20.934	2.9091	0.	-32.151
3589	20.934	3.0909	0.	-32.151
3590	20.934	3.2727	0.	-31.343
3591	20.934	3.4545	0.	-29.761
3592	20.934	3.6364	0.	-27.474
3593	20.934	3.8182	0.	-24.581
3594	20.934	4.	0.	-21.202
3595	20.934	4.1818	0.	-17.479
3596	20.934	4.3636	0.	-13.559
3597	20.934	4.5455	0.	-9.5922
3598	20.934	4.7273	0.	-5.719
3599	20.934	4.9091	0.	-2.0645
3600	20.934	5.0909	0.	2.3346e-002
3601	20.934	5.2727	0.	1.9081e-002
3602	20.934	5.4545	0.	1.312e-002
3603	20.934	5.6364	0.	8.9385e-004
3604	20.934	5.8182	0.	-2.0861e-003
3605	21.115	0.18182	0.	-2.7867e-003
3606	21.115	0.36364	0.	-2.6894e-003
3607	21.115	0.54545	0.	1.0967e-002
3608	21.115	0.72727	0.	1.7267e-002
3609	21.115	0.90909	0.	2.2952e-002
3610	21.115	1.0909	0.	2.652e-002
3611	21.115	1.2727	0.	-0.74378
3612	21.115	1.4545	0.	-3.6793
3613	21.115	1.6364	0.	-6.7172
3614	21.115	1.8182	0.	-9.7449
3615	21.115	2.	0.	-12.642
3616	21.115	2.1818	0.	-15.286
3617	21.115	2.3636	0.	-17.561
3618	21.115	2.5455	0.	-19.366
3619	21.115	2.7273	0.	-20.618
3620	21.115	2.9091	0.	-21.259
3621	21.115	3.0909	0.	-21.259
3622	21.115	3.2727	0.	-20.618
3623	21.115	3.4545	0.	-19.366
3624	21.115	3.6364	0.	-17.561
3625	21.115	3.8182	0.	-15.286
3626	21.115	4.	0.	-12.642
3627	21.115	4.1818	0.	-9.7448
3628	21.115	4.3636	0.	-6.7172
3629	21.115	4.5455	0.	-3.6792
3630	21.115	4.7273	0.	-0.74376
3631	21.115	4.9091	0.	2.652e-002
3632	21.115	5.0909	0.	2.2949e-002
3633	21.115	5.2727	0.	1.7266e-002
3634	21.115	5.4545	0.	1.0969e-002
3635	21.115	5.6364	0.	-2.6856e-003
3636	21.115	5.8182	0.	-2.7853e-003
3637	21.295	0.18182	0.	-3.9391e-003
3638	21.295	0.36364	0.	-6.7008e-003
3639	21.295	0.54545	0.	9.0292e-003
3640	21.295	0.72727	0.	1.5737e-002
3641	21.295	0.90909	0.	2.2036e-002
3642	21.295	1.0909	0.	2.6391e-002
3643	21.295	1.2727	0.	2.9297e-002
3644	21.295	1.4545	0.	3.0358e-002
3645	21.295	1.6364	0.	1.7778e-003
3646	21.295	1.8182	0.	-2.036
3647	21.295	2.	0.	-4.1687
3648	21.295	2.1818	0.	-6.1382
3649	21.295	2.3636	0.	-7.8482
3650	21.295	2.5455	0.	-9.2134
3651	21.295	2.7273	0.	-10.165
3652	21.295	2.9091	0.	-10.653
3653	21.295	3.0909	0.	-10.653
3654	21.295	3.2727	0.	-10.165
3655	21.295	3.4545	0.	-9.2134
3656	21.295	3.6364	0.	-7.8482
3657	21.295	3.8182	0.	-6.1382
3658	21.295	4.	0.	-4.1687
3659	21.295	4.1818	0.	-2.036
3660	21.295	4.3636	0.	1.7752e-003
3661	21.295	4.5455	0.	3.0358e-002
3662	21.295	4.7273	0.	2.9297e-002
3663	21.295	4.9091	0.	2.639e-002
3664	21.295	5.0909	0.	2.2035e-002
3665	21.295	5.2727	0.	1.5736e-002
3666	21.295	5.4545	0.	9.0291e-003
3667	21.295	5.6364	0.	-6.6991e-003
3668	21.295	5.8182	0.	-3.9401e-003
3669	21.475	0.18182	0.	-5.5618e-003
3670	21.475	0.36364	0.	-1.101e-002
3671	21.475	0.54545	0.	7.435e-003
3672	21.475	0.72727	0.	1.4689e-002
3673	21.475	0.90909	0.	2.1647e-002
3674	21.475	1.0909	0.	2.645e-002
3675	21.475	1.2727	0.	2.9879e-002
3676	21.475	1.4545	0.	3.2082e-002
3677	21.475	1.6364	0.	3.3365e-002
3678	21.475	1.8182	0.	3.3954e-002
3679	21.475	2.	0.	3.4055e-002
3680	21.475	2.1818	0.	3.3819e-002
3681	21.475	2.3636	0.	3.3323e-002
3682	21.475	2.5455	0.	3.2305e-002
3683	21.475	2.7273	0.	1.7139e-002
3684	21.475	2.9091	0.	-0.27985
3685	21.475	3.0909	0.	-0.27985
3686	21.475	3.2727	0.	1.714e-002
3687	21.475	3.4545	0.	3.2305e-002
3688	21.475	3.6364	0.	3.3322e-002
3689	21.475	3.8182	0.	3.382e-002
3690	21.475	4.	0.	3.4054e-002
3691	21.475	4.1818	0.	3.3955e-002
3692	21.475	4.3636	0.	3.3365e-002
3693	21.475	4.5455	0.	3.208e-002
3694	21.475	4.7273	0.	2.9878e-002
3695	21.475	4.9091	0.	2.645e-002
3696	21.475	5.0909	0.	2.1649e-002
3697	21.475	5.2727	0.	1.4688e-002
3698	21.475	5.4545	0.	7.4323e-003
3699	21.475	5.6364	0.	-1.1007e-002
3700	21.475	5.8182	0.	-5.5627e-003
3701	21.656	0.18182	0.	-7.6816e-003
3702	21.656	0.36364	0.	-1.5543e-002
3703	21.656	0.54545	0.	6.2267e-003
3704	21.656	0.72727	0.	1.4159e-002
3705	21.656	0.90909	0.	2.1854e-002
3706	21.656	1.0909	0.	2.7099e-002
3707	21.656	1.2727	0.	3.0898e-002
3708	21.656	1.4545	0.	3.3459e-002
3709	21.656	1.6364	0.	3.5137e-002
3710	21.656	1.8182	0.	3.6178e-002
3711	21.656	2.	0.	3.6811e-002
3712	21.656	2.1818	0.	3.7195e-002
3713	21.656	2.3636	0.	3.7445e-002
3714	21.656	2.5455	0.	3.7619e-002
3715	21.656	2.7273	0.	3.775e-002
3716	21.656	2.9091	0.	3.7818e-002
3717	21.656	3.0909	0.	3.7817e-002
3718	21.656	3.2727	0.	3.7747e-002
3719	21.656	3.4545	0.	3.7622e-002
3720	21.656	3.6364	0.	3.7445e-002
3721	21.656	3.8182	0.	3.7197e-002
3722	21.656	4.	0.	3.6812e-002
3723	21.656	4.1818	0.	3.6178e-002
3724	21.656	4.3636	0.	3.5133e-002
3725	21.656	4.5455	0.	3.346e-002
3726	21.656	4.7273	0.	3.0899e-002
3727	21.656	4.9091	0.	2.7099e-002
3728	21.656	5.0909	0.	2.1853e-002
3729	21.656	5.2727	0.	1.4158e-002
3730	21.656	5.4545	0.	6.2284e-003
3731	21.656	5.6364	0.	-1.5543e-002
3732	21.656	5.8182	0.	-7.6826e-003
3733	21.836	0.18182	0.	-1.036e-002
3734	21.836	0.36364	0.	-2.0254e-002
3735	21.836	0.54545	0.	5.4471e-003
3736	21.836	0.72727	0.	1.4183e-002
3737	21.836	0.90909	0.	2.2702e-002
3738	21.836	1.0909	0.	2.8406e-002
3739	21.836	1.2727	0.	3.2563e-002
3740	21.836	1.4545	0.	3.5408e-002
3741	21.836	1.6364	0.	3.7336e-002
3742	21.836	1.8182	0.	3.8598e-002
3743	21.836	2.	0.	3.9412e-002
3744	21.836	2.1818	0.	3.9922e-002
3745	21.836	2.3636	0.	4.0245e-002
3746	21.836	2.5455	0.	4.0445e-002
3747	21.836	2.7273	0.	4.0562e-002
3748	21.836	2.9091	0.	4.0614e-002
3749	21.836	3.0909	0.	4.0616e-002
3750	21.836	3.2727	0.	4.0561e-002
3751	21.836	3.4545	0.	4.0446e-002
3752	21.836	3.6364	0.	4.0246e-002
3753	21.836	3.8182	0.	3.9921e-002
3754	21.836	4.	0.	3.9411e-002
3755	21.836	4.1818	0.	3.86e-002
3756	21.836	4.3636	0.	3.7335e-002
3757	21.836	4.5455	0.	3.5409e-002
3758	21.836	4.7273	0.	3.2563e-002
3759	21.836	4.9091	0.	2.8405e-002
3760	21.836	5.0909	0.	2.27e-002
3761	21.836	5.2727	0.	1.4185e-002
3762	21.836	5.4545	0.	5.447e-003
3763	21.836	5.6364	0.	-2.0253e-002
3764	21.836	5.8182	0.	-1.0358e-002
3765	22.016	0.18182	0.	-1.3685e-002
3766	22.016	0.36364	0.	-2.5118e-002
3767	22.016	0.54545	0.	5.1411e-003
3768	22.016	0.72727	0.	1.482e-002
3769	22.016	0.90909	0.	2.4252e-002
3770	22.016	1.0909	0.	3.0449e-002
3771	22.016	1.2727	0.	3.4967e-002
3772	22.016	1.4545	0.	3.8081e-002
3773	22.016	1.6364	0.	4.0221e-002
3774	22.016	1.8182	0.	4.1661e-002
3775	22.016	2.	0.	4.2617e-002
3776	22.016	2.1818	0.	4.3236e-002
3777	22.016	2.3636	0.	4.3635e-002
3778	22.016	2.5455	0.	4.3882e-002
3779	22.016	2.7273	0.	4.4023e-002
3780	22.016	2.9091	0.	4.4089e-002
3781	22.016	3.0909	0.	4.4088e-002
3782	22.016	3.2727	0.	4.4023e-002
3783	22.016	3.4545	0.	4.3881e-002
3784	22.016	3.6364	0.	4.3636e-002
3785	22.016	3.8182	0.	4.3236e-002
3786	22.016	4.	0.	4.2616e-002
3787	22.016	4.1818	0.	4.1659e-002
3788	22.016	4.3636	0.	4.0222e-002
3789	22.016	4.5455	0.	3.8078e-002
3790	22.016	4.7273	0.	3.497e-002
3791	22.016	4.9091	0.	3.0449e-002
3792	22.016	5.0909	0.	2.4251e-002
3793	22.016	5.2727	0.	1.4821e-002
3794	22.016	5.4545	0.	5.1397e-003
3795	22.016	5.6364	0.	-2.5116e-002
3796	22.016	5.8182	0.	-1.3683e-002
3797	22.197	0.18182	0.	-1.7799e-002
3798	22.197	0.36364	0.	-3.0105e-002
3799	22.197	0.54545	0.	5.411e-003
3800	22.197	0.72727	0.	1.6194e-002
3801	22.197	0.90909	0.	2.6641e-002
3802	22.197	1.0909	0.	3.3366e-002
3803	22.197	1.2727	0.	3.8255e-002
3804	22.197	1.4545	0.	4.1623e-002
3805	22.197	1.6364	0.	4.3963e-002
3806	22.197	1.8182	0.	4.5558e-002
3807	22.197	2.	0.	4.6638e-002
3808	22.197	2.1818	0.	4.736e-002
3809	22.197	2.3636	0.	4.7832e-002
3810	22.197	2.5455	0.	4.8131e-002
3811	22.197	2.7273	0.	4.8307e-002
3812	22.197	2.9091	0.	4.8388e-002
3813	22.197	3.0909	0.	4.8387e-002
3814	22.197	3.2727	0.	4.8308e-002
3815	22.197	3.4545	0.	4.813e-002
3816	22.197	3.6364	0.	4.7832e-002
3817	22.197	3.8182	0.	4.7359e-002
3818	22.197	4.	0.	4.6639e-002
3819	22.197	4.1818	0.	4.5559e-002
3820	22.197	4.3636	0.	4.3961e-002
3821	22.197	4.5455	0.	4.1623e-002
3822	22.197	4.7273	0.	3.8254e-002
3823	22.197	4.9091	0.	3.3364e-002
3824	22.197	5.0909	0.	2.6639e-002
3825	22.197	5.2727	0.	1.6194e-002
3826	22.197	5.4545	0.	5.4073e-003
3827	22.197	5.6364	0.	-3.0101e-002
3828	22.197	5.8182	0.	-1.78e-002
3829	22.377	0.18182	0.	-2.2889e-002
3830	22.377	0.36364	0.	-3.5144e-002
3831	22.377	0.54545	0.	6.4367e-003
3832	22.377	0.72727	0.	1.851e-002
3833	22.377	0.90909	0.	3.0082e-002
3834	22.377	1.0909	0.	3.7377e-002
3835	22.377	1.2727	0.	4.2646e-002
3836	22.377	1.4545	0.	4.6265e-002
3837	22.377	1.6364	0.	4.879e-002
3838	22.377	1.8182	0.	5.0532e-002
3839	22.377	2.	0.	5.173e-002
3840	22.377	2.1818	0.	5.2546e-002
3841	22.377	2.3636	0.	5.3091e-002
3842	22.377	2.5455	0.	5.3441e-002
3843	22.377	2.7273	0.	5.3652e-002
3844	22.377	2.9091	0.	5.375e-002
3845	22.377	3.0909	0.	5.375e-002
3846	22.377	3.2727	0.	5.3653e-002
3847	22.377	3.4545	0.	5.3442e-002
3848	22.377	3.6364	0.	5.309e-002
3849	22.377	3.8182	0.	5.2547e-002
3850	22.377	4.	0.	5.173e-002
3851	22.377	4.1818	0.	5.0532e-002
3852	22.377	4.3636	0.	4.8791e-002
3853	22.377	4.5455	0.	4.6263e-002
3854	22.377	4.7273	0.	4.2645e-002
3855	22.377	4.9091	0.	3.7376e-002
3856	22.377	5.0909	0.	3.0085e-002
3857	22.377	5.2727	0.	1.8511e-002
3858	22.377	5.4545	0.	6.4386e-003
3859	22.377	5.6364	0.	-3.5146e-002
3860	22.377	5.8182	0.	-2.2886e-002
3861	22.557	0.18182	0.	-2.919e-002
3862	22.557	0.36364	0.	-4.0084e-002
3863	22.557	0.54545	0.	8.5687e-003
3864	22.557	0.72727	0.	2.2147e-002
3865	22.557	0.90909	0.	3.4978e-002
3866	22.557	1.0909	0.	4.2872e-002
3867	22.557	1.2727	0.	4.853e-002
3868	22.557	1.4545	0.	5.2401e-002
3869	22.557	1.6364	0.	5.5107e-002
3870	22.557	1.8182	0.	5.6989e-002
3871	22.557	2.	0.	5.8307e-002
3872	22.557	2.1818	0.	5.9209e-002
3873	22.557	2.3636	0.	5.9826e-002
3874	22.557	2.5455	0.	6.0234e-002
3875	22.557	2.7273	0.	6.0479e-002
3876	22.557	2.9091	0.	6.0597e-002
3877	22.557	3.0909	0.	6.0595e-002
3878	22.557	3.2727	0.	6.0478e-002
3879	22.557	3.4545	0.	6.0234e-002
3880	22.557	3.6364	0.	5.9829e-002
3881	22.557	3.8182	0.	5.9211e-002
3882	22.557	4.	0.	5.8302e-002
3883	22.557	4.1818	0.	5.6991e-002
3884	22.557	4.3636	0.	5.5107e-002
3885	22.557	4.5455	0.	5.24e-002
3886	22.557	4.7273	0.	4.8529e-002
3887	22.557	4.9091	0.	4.287e-002
3888	22.557	5.0909	0.	3.4979e-002
3889	22.557	5.2727	0.	2.2147e-002
3890	22.557	5.4545	0.	8.5675e-003
3891	22.557	5.6364	0.	-4.0084e-002
3892	22.557	5.8182	0.	-2.9188e-002
3893	22.738	0.18182	0.	-3.7176e-002
3894	22.738	0.36364	0.	-4.4814e-002
3895	22.738	0.54545	0.	1.2166e-002
3896	22.738	0.72727	0.	2.7505e-002
3897	22.738	0.90909	0.	4.1727e-002
3898	22.738	1.0909	0.	5.0254e-002
3899	22.738	1.2727	0.	5.6318e-002
3900	22.738	1.4545	0.	6.0442e-002
3901	22.738	1.6364	0.	6.3338e-002
3902	22.738	1.8182	0.	6.5366e-002
3903	22.738	2.	0.	6.6797e-002
3904	22.738	2.1818	0.	6.7802e-002
3905	22.738	2.3636	0.	6.8497e-002
3906	22.738	2.5455	0.	6.8962e-002
3907	22.738	2.7273	0.	6.9246e-002
3908	22.738	2.9091	0.	6.938e-002
3909	22.738	3.0909	0.	6.9379e-002
3910	22.738	3.2727	0.	6.9245e-002
3911	22.738	3.4545	0.	6.8961e-002
3912	22.738	3.6364	0.	6.8497e-002
3913	22.738	3.8182	0.	6.7801e-002
3914	22.738	4.	0.	6.6798e-002
3915	22.738	4.1818	0.	6.5366e-002
3916	22.738	4.3636	0.	6.3335e-002
3917	22.738	4.5455	0.	6.0443e-002
3918	22.738	4.7273	0.	5.6318e-002
3919	22.738	4.9091	0.	5.0255e-002
3920	22.738	5.0909	0.	4.1726e-002
3921	22.738	5.2727	0.	2.7504e-002
3922	22.738	5.4545	0.	1.2166e-002
3923	22.738	5.6364	0.	-4.4812e-002
3924	22.738	5.8182	0.	-3.7174e-002
3925	22.918	0.18182	0.	-4.6969e-002
3926	22.918	0.36364	0.	-4.8342e-002
3927	22.918	0.54545	0.	1.8651e-002
3928	22.918	0.72727	0.	3.6064e-002
3929	22.918	0.90909	0.	5.1827e-002
3930	22.918	1.0909	0.	6.1033e-002
3931	22.918	1.2727	0.	6.7529e-002
3932	22.918	1.4545	0.	7.1932e-002
3933	22.918	1.6364	0.	7.5032e-002
3934	22.918	1.8182	0.	7.7229e-002
3935	22.918	2.	0.	7.8796e-002
3936	22.918	2.1818	0.	7.9909e-002
3937	22.918	2.3636	0.	8.069e-002
3938	22.918	2.5455	0.	8.1218e-002
3939	22.918	2.7273	0.	8.1546e-002
3940	22.918	2.9091	0.	8.1701e-002
3941	22.918	3.0909	0.	8.1702e-002
3942	22.918	3.2727	0.	8.1546e-002
3943	22.918	3.4545	0.	8.1219e-002
3944	22.918	3.6364	0.	8.069e-002
3945	22.918	3.8182	0.	7.9912e-002
3946	22.918	4.	0.	7.8795e-002
3947	22.918	4.1818	0.	7.723e-002
3948	22.918	4.3636	0.	7.5035e-002
3949	22.918	4.5455	0.	7.193e-002
3950	22.918	4.7273	0.	6.7528e-002
3951	22.918	4.9091	0.	6.1033e-002
3952	22.918	5.0909	0.	5.1823e-002
3953	22.918	5.2727	0.	3.6064e-002
3954	22.918	5.4545	0.	1.865e-002
3955	22.918	5.6364	0.	-4.834e-002
3956	22.918	5.8182	0.	-4.6969e-002
3957	23.098	0.18182	0.	-6.0864e-002
3958	23.098	0.36364	0.	-5.1687e-002
3959	23.098	0.54545	0.	2.7391e-002
3960	23.098	0.72727	0.	4.7129e-002
3961	23.098	0.90909	0.	6.4629e-002
3962	23.098	1.0909	0.	7.4571e-002
3963	23.098	1.2727	0.	8.1559e-002
3964	23.098	1.4545	0.	8.629e-002
3965	23.098	1.6364	0.	8.9651e-002
3966	23.098	1.8182	0.	9.2051e-002
3967	23.098	2.	0.	9.3785e-002
3968	23.098	2.1818	0.	9.5033e-002
3969	23.098	2.3636	0.	9.5914e-002
3970	23.098	2.5455	0.	9.652e-002
3971	23.098	2.7273	0.	9.6895e-002
3972	23.098	2.9091	0.	9.7075e-002
3973	23.098	3.0909	0.	9.7075e-002
3974	23.098	3.2727	0.	9.6895e-002
3975	23.098	3.4545	0.	9.6519e-002
3976	23.098	3.6364	0.	9.5916e-002
3977	23.098	3.8182	0.	9.5031e-002
3978	23.098	4.	0.	9.3784e-002
3979	23.098	4.1818	0.	9.2052e-002
3980	23.098	4.3636	0.	8.9652e-002
3981	23.098	4.5455	0.	8.6291e-002
3982	23.098	4.7273	0.	8.1556e-002
3983	23.098	4.9091	0.	7.457e-002
3984	23.098	5.0909	0.	6.4626e-002
3985	23.098	5.2727	0.	4.7131e-002
3986	23.098	5.4545	0.	2.7393e-002
3987	23.098	5.6364	0.	-5.1684e-002
3988	23.098	5.8182	0.	-6.0864e-002
3989	23.279	0.18182	0.	-7.3681e-002
3990	23.279	0.36364	0.	-4.4863e-002
3991	23.279	0.54545	0.	5.0359e-002
3992	23.279	0.72727	0.	7.2954e-002
3993	23.279	0.90909	0.	9.2489e-002
3994	23.279	1.0909	0.	0.1034
3995	23.279	1.2727	0.	0.11106
3996	23.279	1.4545	0.	0.11626
3997	23.279	1.6364	0.	0.11998
3998	23.279	1.8182	0.	0.12267
3999	23.279	2.	0.	0.12462
4000	23.279	2.1818	0.	0.12603
4001	23.279	2.3636	0.	0.12704
4002	23.279	2.5455	0.	0.12773
4003	23.279	2.7273	0.	0.12817
4004	23.279	2.9091	0.	0.12837
4005	23.279	3.0909	0.	0.12838
4006	23.279	3.2727	0.	0.12817
4007	23.279	3.4545	0.	0.12773
4008	23.279	3.6364	0.	0.12704
4009	23.279	3.8182	0.	0.12603
4010	23.279	4.	0.	0.12462
4011	23.279	4.1818	0.	0.12267
4012	23.279	4.3636	0.	0.11998
4013	23.279	4.5455	0.	0.11626
4014	23.279	4.7273	0.	0.11106
4015	23.279	4.9091	0.	0.1034
4016	23.279	5.0909	0.	9.2489e-002
4017	23.279	5.2727	0.	7.2948e-002
4018	23.279	5.4545	0.	5.0366e-002
4019	23.279	5.6364	0.	-4.486e-002
4020	23.279	5.8182	0.	-7.3685e-002
4021	23.459	0.18182	0.	-0.10947
4022	23.459	0.36364	0.	-5.3114e-002
4023	23.459	0.54545	0.	5.8136e-002
4024	23.459	0.72727	0.	8.5253e-002
4025	23.459	0.90909	0.	0.10721
4026	23.459	1.0909	0.	0.11928
4027	23.459	1.2727	0.	0.12788
4028	23.459	1.4545	0.	0.13375
4029	23.459	1.6364	0.	0.138
4030	23.459	1.8182	0.	0.14109
4031	23.459	2.	0.	0.14336
4032	23.459	2.1818	0.	0.14502
4033	23.459	2.3636	0.	0.14621
4034	23.459	2.5455	0.	0.14703
4035	23.459	2.7273	0.	0.14755
4036	23.459	2.9091	0.	0.1478
4037	23.459	3.0909	0.	0.14779
4038	23.459	3.2727	0.	0.14755
4039	23.459	3.4545	0.	0.14703
4040	23.459	3.6364	0.	0.14621
4041	23.459	3.8182	0.	0.14501
4042	23.459	4.	0.	0.14336
4043	23.459	4.1818	0.	0.14109
4044	23.459	4.3636	0.	0.138
4045	23.459	4.5455	0.	0.13375
4046	23.459	4.7273	0.	0.12787
4047	23.459	4.9091	0.	0.11928
4048	23.459	5.0909	0.	0.10721
4049	23.459	5.2727	0.	8.5251e-002
4050	23.459	5.4545	0.	5.8137e-002
4051	23.459	5.6364	0.	-5.3113e-002
4052	23.459	5.8182	0.	-0.10947
4053	23.639	0.18182	0.	-8.2276e-002
4054	23.639	0.36364	0.	5.827e-002
4055	23.639	0.54545	0.	0.21509
4056	23.639	0.72727	0.	0.24654
4057	23.639	0.90909	0.	0.27471
4058	23.639	1.0909	0.	0.29004
4059	23.639	1.2727	0.	0.30099
4060	23.639	1.4545	0.	0.30849
4061	23.639	1.6364	0.	0.31388
4062	23.639	1.8182	0.	0.31777
4063	23.639	2.	0.	0.32058
4064	23.639	2.1818	0.	0.32261
4065	23.639	2.3636	0.	0.32404
4066	23.639	2.5455	0.	0.32502
4067	23.639	2.7273	0.	0.32562
4068	23.639	2.9091	0.	0.32592
4069	23.639	3.0909	0.	0.32592
4070	23.639	3.2727	0.	0.32563
4071	23.639	3.4545	0.	0.32502
4072	23.639	3.6364	0.	0.32405
4073	23.639	3.8182	0.	0.32261
4074	23.639	4.	0.	0.32058
4075	23.639	4.1818	0.	0.31776
4076	23.639	4.3636	0.	0.31388
4077	23.639	4.5455	0.	0.30849
4078	23.639	4.7273	0.	0.30099
4079	23.639	4.9091	0.	0.29004
4080	23.639	5.0909	0.	0.27471
4081	23.639	5.2727	0.	0.24654
4082	23.639	5.4545	0.	0.21509
4083	23.639	5.6364	0.	5.8271e-002
4084	23.639	5.8182	0.	-8.2273e-002
4085	23.82	0.18182	0.	-0.44251
4086	23.82	0.36364	0.	-0.18312
4087	23.82	0.54545	0.	4.3357e-002
4088	23.82	0.72727	0.	9.0437e-002
4089	23.82	0.90909	0.	0.13381
4090	23.82	1.0909	0.	0.15918
4091	23.82	1.2727	0.	0.17795
4092	23.82	1.4545	0.	0.1914
4093	23.82	1.6364	0.	0.20141
4094	23.82	1.8182	0.	0.20887
4095	23.82	2.	0.	0.21445
4096	23.82	2.1818	0.	0.21857
4097	23.82	2.3636	0.	0.22155
4098	23.82	2.5455	0.	0.22362
4099	23.82	2.7273	0.	0.22492
4100	23.82	2.9091	0.	0.22555
4101	23.82	3.0909	0.	0.22555
4102	23.82	3.2727	0.	0.22492
4103	23.82	3.4545	0.	0.22362
4104	23.82	3.6364	0.	0.22155
4105	23.82	3.8182	0.	0.21857
4106	23.82	4.	0.	0.21445
4107	23.82	4.1818	0.	0.20887
4108	23.82	4.3636	0.	0.20141
4109	23.82	4.5455	0.	0.1914
4110	23.82	4.7273	0.	0.17795
4111	23.82	4.9091	0.	0.15917
4112	23.82	5.0909	0.	0.1338
4113	23.82	5.2727	0.	9.0435e-002
4114	23.82	5.4545	0.	4.3356e-002
4115	23.82	5.6364	0.	-0.18312
4116	23.82	5.8182	0.	-0.44251
4117	23.82	5.8182	0.1	0.44251
4118	23.82	5.6364	0.1	0.18312
4119	23.82	5.4545	0.1	-4.3358e-002
4120	23.82	5.2727	0.1	-9.0437e-002
4121	23.82	5.0909	0.1	-0.13381
4122	23.82	4.9091	0.1	-0.15917
4123	23.82	4.7273	0.1	-0.17795
4124	23.82	4.5455	0.1	-0.1914
4125	23.82	4.3636	0.1	-0.20141
4126	23.82	4.1818	0.1	-0.20887
4127	23.82	4.	0.1	-0.21445
4128	23.82	3.8182	0.1	-0.21857
4129	23.82	3.6364	0.1	-0.22155
4130	23.82	3.4545	0.1	-0.22362
4131	23.82	3.2727	0.1	-0.22492
4132	23.82	3.0909	0.1	-0.22555
4133	23.82	2.9091	0.1	-0.22555
4134	23.82	2.7273	0.1	-0.22492
4135	23.82	2.5455	0.1	-0.22362
4136	23.82	2.3636	0.1	-0.22155
4137	23.82	2.1818	0.1	-0.21857
4138	23.82	2.	0.1	-0.21445
4139	23.82	1.8182	0.1	-0.20887
4140	23.82	1.6364	0.1	-0.20141
4141	23.82	1.4545	0.1	-0.1914
4142	23.82	1.2727	0.1	-0.17795
4143	23.82	1.0909	0.1	-0.15918
4144	23.82	0.90909	0.1	-0.1338
4145	23.82	0.72727	0.1	-9.0438e-002
4146	23.82	0.54545	0.1	-4.336e-002
4147	23.82	0.36364	0.1	0.18312
4148	23.82	0.18182	0.1	0.44251
4149	23.639	5.8182	0.1	8.2274e-002
4150	23.639	5.6364	0.1	-5.8271e-002
4151	23.639	5.4545	0.1	-0.21509
4152	23.639	5.2727	0.1	-0.24654
4153	23.639	5.0909	0.1	-0.27471
4154	23.639	4.9091	0.1	-0.29004
4155	23.639	4.7273	0.1	-0.30099
4156	23.639	4.5455	0.1	-0.30849
4157	23.639	4.3636	0.1	-0.31388
4158	23.639	4.1818	0.1	-0.31777
4159	23.639	4.	0.1	-0.32058
4160	23.639	3.8182	0.1	-0.32261
4161	23.639	3.6364	0.1	-0.32405
4162	23.639	3.4545	0.1	-0.32502
4163	23.639	3.2727	0.1	-0.32563
4164	23.639	3.0909	0.1	-0.32592
4165	23.639	2.9091	0.1	-0.32591
4166	23.639	2.7273	0.1	-0.32563
4167	23.639	2.5455	0.1	-0.32502
4168	23.639	2.3636	0.1	-0.32405
4169	23.639	2.1818	0.1	-0.32261
4170	23.639	2.	0.1	-0.32058
4171	23.639	1.8182	0.1	-0.31777
4172	23.639	1.6364	0.1	-0.31388
4173	23.639	1.4545	0.1	-0.30849
4174	23.639	1.2727	0.1	-0.30099
4175	23.639	1.0909	0.1	-0.29005
4176	23.639	0.90909	0.1	-0.27471
4177	23.639	0.72727	0.1	-0.24654
4178	23.639	0.54545	0.1	-0.21509
4179	23.639	0.36364	0.1	-5.8271e-002
4180	23.639	0.18182	0.1	8.2275e-002
4181	23.459	5.8182	0.1	0.10947
4182	23.459	5.6364	0.1	5.3112e-002
4183	23.459	5.4545	0.1	-5.8135e-002
4184	23.459	5.2727	0.1	-8.525e-002
4185	23.459	5.0909	0.1	-0.10721
4186	23.459	4.9091	0.1	-0.11928
4187	23.459	4.7273	0.1	-0.12787
4188	23.459	4.5455	0.1	-0.13375
4189	23.459	4.3636	0.1	-0.138
4190	23.459	4.1818	0.1	-0.14109
4191	23.459	4.	0.1	-0.14336
4192	23.459	3.8182	0.1	-0.14501
4193	23.459	3.6364	0.1	-0.14621
4194	23.459	3.4545	0.1	-0.14703
4195	23.459	3.2727	0.1	-0.14755
4196	23.459	3.0909	0.1	-0.14779
4197	23.459	2.9091	0.1	-0.14779
4198	23.459	2.7273	0.1	-0.14755
4199	23.459	2.5455	0.1	-0.14703
4200	23.459	2.3636	0.1	-0.14621
4201	23.459	2.1818	0.1	-0.14502
4202	23.459	2.	0.1	-0.14336
4203	23.459	1.8182	0.1	-0.14109
4204	23.459	1.6364	0.1	-0.138
4205	23.459	1.4545	0.1	-0.13375
4206	23.459	1.2727	0.1	-0.12787
4207	23.459	1.0909	0.1	-0.11928
4208	23.459	0.90909	0.1	-0.10721
4209	23.459	0.72727	0.1	-8.5252e-002
4210	23.459	0.54545	0.1	-5.8134e-002
4211	23.459	0.36364	0.1	5.3114e-002
4212	23.459	0.18182	0.1	0.10947
4213	23.279	5.8182	0.1	7.3684e-002
4214	23.279	5.6364	0.1	4.486e-002
4215	23.279	5.4545	0.1	-5.0365e-002
4216	23.279	5.2727	0.1	-7.2948e-002
4217	23.279	5.0909	0.1	-9.2489e-002
4218	23.279	4.9091	0.1	-0.1034
4219	23.279	4.7273	0.1	-0.11106
4220	23.279	4.5455	0.1	-0.11626
4221	23.279	4.3636	0.1	-0.11998
4222	23.279	4.1818	0.1	-0.12267
4223	23.279	4.	0.1	-0.12462
4224	23.279	3.8182	0.1	-0.12603
4225	23.279	3.6364	0.1	-0.12704
4226	23.279	3.4545	0.1	-0.12773
4227	23.279	3.2727	0.1	-0.12817
4228	23.279	3.0909	0.1	-0.12837
4229	23.279	2.9091	0.1	-0.12837
4230	23.279	2.7273	0.1	-0.12817
4231	23.279	2.5455	0.1	-0.12773
4232	23.279	2.3636	0.1	-0.12704
4233	23.279	2.1818	0.1	-0.12603
4234	23.279	2.	0.1	-0.12462
4235	23.279	1.8182	0.1	-0.12266
4236	23.279	1.6364	0.1	-0.11998
4237	23.279	1.4545	0.1	-0.11626
4238	23.279	1.2727	0.1	-0.11106
4239	23.279	1.0909	0.1	-0.1034
4240	23.279	0.90909	0.1	-9.2489e-002
4241	23.279	0.72727	0.1	-7.295e-002
4242	23.279	0.54545	0.1	-5.0361e-002
4243	23.279	0.36364	0.1	4.4863e-002
4244	23.279	0.18182	0.1	7.3683e-002
4245	23.098	5.8182	0.1	6.0865e-002
4246	23.098	5.6364	0.1	5.1685e-002
4247	23.098	5.4545	0.1	-2.7391e-002
4248	23.098	5.2727	0.1	-4.7131e-002
4249	23.098	5.0909	0.1	-6.4628e-002
4250	23.098	4.9091	0.1	-7.4569e-002
4251	23.098	4.7273	0.1	-8.1558e-002
4252	23.098	4.5455	0.1	-8.6291e-002
4253	23.098	4.3636	0.1	-8.9652e-002
4254	23.098	4.1818	0.1	-9.2054e-002
4255	23.098	4.	0.1	-9.3785e-002
4256	23.098	3.8182	0.1	-9.5031e-002
4257	23.098	3.6364	0.1	-9.5915e-002
4258	23.098	3.4545	0.1	-9.6519e-002
4259	23.098	3.2727	0.1	-9.6894e-002
4260	23.098	3.0909	0.1	-9.7076e-002
4261	23.098	2.9091	0.1	-9.7074e-002
4262	23.098	2.7273	0.1	-9.6896e-002
4263	23.098	2.5455	0.1	-9.652e-002
4264	23.098	2.3636	0.1	-9.5916e-002
4265	23.098	2.1818	0.1	-9.5032e-002
4266	23.098	2.	0.1	-9.3786e-002
4267	23.098	1.8182	0.1	-9.2051e-002
4268	23.098	1.6364	0.1	-8.9652e-002
4269	23.098	1.4545	0.1	-8.6291e-002
4270	23.098	1.2727	0.1	-8.1558e-002
4271	23.098	1.0909	0.1	-7.4571e-002
4272	23.098	0.90909	0.1	-6.4629e-002
4273	23.098	0.72727	0.1	-4.7133e-002
4274	23.098	0.54545	0.1	-2.739e-002
4275	23.098	0.36364	0.1	5.1684e-002
4276	23.098	0.18182	0.1	6.0865e-002
4277	22.918	5.8182	0.1	4.6968e-002
4278	22.918	5.6364	0.1	4.8338e-002
4279	22.918	5.4545	0.1	-1.8651e-002
4280	22.918	5.2727	0.1	-3.6063e-002
4281	22.918	5.0909	0.1	-5.1826e-002
4282	22.918	4.9091	0.1	-6.1033e-002
4283	22.918	4.7273	0.1	-6.7529e-002
4284	22.918	4.5455	0.1	-7.1933e-002
4285	22.918	4.3636	0.1	-7.5034e-002
4286	22.918	4.1818	0.1	-7.7231e-002
4287	22.918	4.	0.1	-7.8795e-002
4288	22.918	3.8182	0.1	-7.9911e-002
4289	22.918	3.6364	0.1	-8.0691e-002
4290	22.918	3.4545	0.1	-8.122e-002
4291	22.918	3.2727	0.1	-8.1545e-002
4292	22.918	3.0909	0.1	-8.1702e-002
4293	22.918	2.9091	0.1	-8.1702e-002
4294	22.918	2.7273	0.1	-8.1546e-002
4295	22.918	2.5455	0.1	-8.1219e-002
4296	22.918	2.3636	0.1	-8.0692e-002
4297	22.918	2.1818	0.1	-7.991e-002
4298	22.918	2.	0.1	-7.8797e-002
4299	22.918	1.8182	0.1	-7.723e-002
4300	22.918	1.6364	0.1	-7.5034e-002
4301	22.918	1.4545	0.1	-7.1933e-002
4302	22.918	1.2727	0.1	-6.753e-002
4303	22.918	1.0909	0.1	-6.1033e-002
4304	22.918	0.90909	0.1	-5.1828e-002
4305	22.918	0.72727	0.1	-3.6066e-002
4306	22.918	0.54545	0.1	-1.8651e-002
4307	22.918	0.36364	0.1	4.8341e-002
4308	22.918	0.18182	0.1	4.697e-002
4309	22.738	5.8182	0.1	3.7175e-002
4310	22.738	5.6364	0.1	4.4813e-002
4311	22.738	5.4545	0.1	-1.2165e-002
4312	22.738	5.2727	0.1	-2.7504e-002
4313	22.738	5.0909	0.1	-4.1725e-002
4314	22.738	4.9091	0.1	-5.0252e-002
4315	22.738	4.7273	0.1	-5.6318e-002
4316	22.738	4.5455	0.1	-6.0442e-002
4317	22.738	4.3636	0.1	-6.3335e-002
4318	22.738	4.1818	0.1	-6.5365e-002
4319	22.738	4.	0.1	-6.6797e-002
4320	22.738	3.8182	0.1	-6.78e-002
4321	22.738	3.6364	0.1	-6.8495e-002
4322	22.738	3.4545	0.1	-6.896e-002
4323	22.738	3.2727	0.1	-6.9244e-002
4324	22.738	3.0909	0.1	-6.9378e-002
4325	22.738	2.9091	0.1	-6.9379e-002
4326	22.738	2.7273	0.1	-6.9244e-002
4327	22.738	2.5455	0.1	-6.8961e-002
4328	22.738	2.3636	0.1	-6.8496e-002
4329	22.738	2.1818	0.1	-6.7801e-002
4330	22.738	2.	0.1	-6.6797e-002
4331	22.738	1.8182	0.1	-6.5365e-002
4332	22.738	1.6364	0.1	-6.3337e-002
4333	22.738	1.4545	0.1	-6.0442e-002
4334	22.738	1.2727	0.1	-5.6317e-002
4335	22.738	1.0909	0.1	-5.0254e-002
4336	22.738	0.90909	0.1	-4.1726e-002
4337	22.738	0.72727	0.1	-2.7505e-002
4338	22.738	0.54545	0.1	-1.2165e-002
4339	22.738	0.36364	0.1	4.4816e-002
4340	22.738	0.18182	0.1	3.7177e-002
4341	22.557	5.8182	0.1	2.9189e-002
4342	22.557	5.6364	0.1	4.0083e-002
4343	22.557	5.4545	0.1	-8.5666e-003
4344	22.557	5.2727	0.1	-2.2146e-002
4345	22.557	5.0909	0.1	-3.4979e-002
4346	22.557	4.9091	0.1	-4.287e-002
4347	22.557	4.7273	0.1	-4.8529e-002
4348	22.557	4.5455	0.1	-5.2401e-002
4349	22.557	4.3636	0.1	-5.5108e-002
4350	22.557	4.1818	0.1	-5.6992e-002
4351	22.557	4.	0.1	-5.8304e-002
4352	22.557	3.8182	0.1	-5.9209e-002
4353	22.557	3.6364	0.1	-5.9829e-002
4354	22.557	3.4545	0.1	-6.0235e-002
4355	22.557	3.2727	0.1	-6.048e-002
4356	22.557	3.0909	0.1	-6.0594e-002
4357	22.557	2.9091	0.1	-6.0595e-002
4358	22.557	2.7273	0.1	-6.0479e-002
4359	22.557	2.5455	0.1	-6.0234e-002
4360	22.557	2.3636	0.1	-5.9827e-002
4361	22.557	2.1818	0.1	-5.921e-002
4362	22.557	2.	0.1	-5.8304e-002
4363	22.557	1.8182	0.1	-5.6991e-002
4364	22.557	1.6364	0.1	-5.5106e-002
4365	22.557	1.4545	0.1	-5.2401e-002
4366	22.557	1.2727	0.1	-4.8531e-002
4367	22.557	1.0909	0.1	-4.2871e-002
4368	22.557	0.90909	0.1	-3.4978e-002
4369	22.557	0.72727	0.1	-2.2146e-002
4370	22.557	0.54545	0.1	-8.5677e-003
4371	22.557	0.36364	0.1	4.0085e-002
4372	22.557	0.18182	0.1	2.9191e-002
4373	22.377	5.8182	0.1	2.2889e-002
4374	22.377	5.6364	0.1	3.5145e-002
4375	22.377	5.4545	0.1	-6.4373e-003
4376	22.377	5.2727	0.1	-1.8509e-002
4377	22.377	5.0909	0.1	-3.0083e-002
4378	22.377	4.9091	0.1	-3.7375e-002
4379	22.377	4.7273	0.1	-4.2644e-002
4380	22.377	4.5455	0.1	-4.6265e-002
4381	22.377	4.3636	0.1	-4.8791e-002
4382	22.377	4.1818	0.1	-5.0532e-002
4383	22.377	4.	0.1	-5.1731e-002
4384	22.377	3.8182	0.1	-5.2546e-002
4385	22.377	3.6364	0.1	-5.309e-002
4386	22.377	3.4545	0.1	-5.3442e-002
4387	22.377	3.2727	0.1	-5.3652e-002
4388	22.377	3.0909	0.1	-5.3751e-002
4389	22.377	2.9091	0.1	-5.3751e-002
4390	22.377	2.7273	0.1	-5.3652e-002
4391	22.377	2.5455	0.1	-5.3443e-002
4392	22.377	2.3636	0.1	-5.3091e-002
4393	22.377	2.1818	0.1	-5.2544e-002
4394	22.377	2.	0.1	-5.1732e-002
4395	22.377	1.8182	0.1	-5.0532e-002
4396	22.377	1.6364	0.1	-4.879e-002
4397	22.377	1.4545	0.1	-4.6265e-002
4398	22.377	1.2727	0.1	-4.2646e-002
4399	22.377	1.0909	0.1	-3.7376e-002
4400	22.377	0.90909	0.1	-3.0084e-002
4401	22.377	0.72727	0.1	-1.851e-002
4402	22.377	0.54545	0.1	-6.4383e-003
4403	22.377	0.36364	0.1	3.5145e-002
4404	22.377	0.18182	0.1	2.2889e-002
4405	22.197	5.8182	0.1	1.7798e-002
4406	22.197	5.6364	0.1	3.0103e-002
4407	22.197	5.4545	0.1	-5.4092e-003
4408	22.197	5.2727	0.1	-1.6194e-002
4409	22.197	5.0909	0.1	-2.6641e-002
4410	22.197	4.9091	0.1	-3.3365e-002
4411	22.197	4.7273	0.1	-3.8254e-002
4412	22.197	4.5455	0.1	-4.1624e-002
4413	22.197	4.3636	0.1	-4.3961e-002
4414	22.197	4.1818	0.1	-4.5559e-002
4415	22.197	4.	0.1	-4.6638e-002
4416	22.197	3.8182	0.1	-4.736e-002
4417	22.197	3.6364	0.1	-4.7832e-002
4418	22.197	3.4545	0.1	-4.8131e-002
4419	22.197	3.2727	0.1	-4.8307e-002
4420	22.197	3.0909	0.1	-4.8387e-002
4421	22.197	2.9091	0.1	-4.8387e-002
4422	22.197	2.7273	0.1	-4.8307e-002
4423	22.197	2.5455	0.1	-4.8131e-002
4424	22.197	2.3636	0.1	-4.7832e-002
4425	22.197	2.1818	0.1	-4.736e-002
4426	22.197	2.	0.1	-4.6639e-002
4427	22.197	1.8182	0.1	-4.5558e-002
4428	22.197	1.6364	0.1	-4.3962e-002
4429	22.197	1.4545	0.1	-4.1623e-002
4430	22.197	1.2727	0.1	-3.8255e-002
4431	22.197	1.0909	0.1	-3.3367e-002
4432	22.197	0.90909	0.1	-2.664e-002
4433	22.197	0.72727	0.1	-1.6194e-002
4434	22.197	0.54545	0.1	-5.4087e-003
4435	22.197	0.36364	0.1	3.0104e-002
4436	22.197	0.18182	0.1	1.78e-002
4437	22.016	5.8182	0.1	1.3683e-002
4438	22.016	5.6364	0.1	2.5116e-002
4439	22.016	5.4545	0.1	-5.1409e-003
4440	22.016	5.2727	0.1	-1.4822e-002
4441	22.016	5.0909	0.1	-2.4252e-002
4442	22.016	4.9091	0.1	-3.0449e-002
4443	22.016	4.7273	0.1	-3.497e-002
4444	22.016	4.5455	0.1	-3.808e-002
4445	22.016	4.3636	0.1	-4.0222e-002
4446	22.016	4.1818	0.1	-4.1659e-002
4447	22.016	4.	0.1	-4.2617e-002
4448	22.016	3.8182	0.1	-4.3237e-002
4449	22.016	3.6364	0.1	-4.3636e-002
4450	22.016	3.4545	0.1	-4.3882e-002
4451	22.016	3.2727	0.1	-4.4023e-002
4452	22.016	3.0909	0.1	-4.4089e-002
4453	22.016	2.9091	0.1	-4.409e-002
4454	22.016	2.7273	0.1	-4.4024e-002
4455	22.016	2.5455	0.1	-4.3881e-002
4456	22.016	2.3636	0.1	-4.3637e-002
4457	22.016	2.1818	0.1	-4.3238e-002
4458	22.016	2.	0.1	-4.2616e-002
4459	22.016	1.8182	0.1	-4.1662e-002
4460	22.016	1.6364	0.1	-4.0222e-002
4461	22.016	1.4545	0.1	-3.8081e-002
4462	22.016	1.2727	0.1	-3.4969e-002
4463	22.016	1.0909	0.1	-3.045e-002
4464	22.016	0.90909	0.1	-2.4254e-002
4465	22.016	0.72727	0.1	-1.4822e-002
4466	22.016	0.54545	0.1	-5.1418e-003
4467	22.016	0.36364	0.1	2.5117e-002
4468	22.016	0.18182	0.1	1.3684e-002
4469	21.836	5.8182	0.1	1.0357e-002
4470	21.836	5.6364	0.1	2.0252e-002
4471	21.836	5.4545	0.1	-5.4469e-003
4472	21.836	5.2727	0.1	-1.4183e-002
4473	21.836	5.0909	0.1	-2.2699e-002
4474	21.836	4.9091	0.1	-2.8406e-002
4475	21.836	4.7273	0.1	-3.2563e-002
4476	21.836	4.5455	0.1	-3.541e-002
4477	21.836	4.3636	0.1	-3.7335e-002
4478	21.836	4.1818	0.1	-3.86e-002
4479	21.836	4.	0.1	-3.941e-002
4480	21.836	3.8182	0.1	-3.9924e-002
4481	21.836	3.6364	0.1	-4.0245e-002
4482	21.836	3.4545	0.1	-4.0444e-002
4483	21.836	3.2727	0.1	-4.0562e-002
4484	21.836	3.0909	0.1	-4.0615e-002
4485	21.836	2.9091	0.1	-4.0615e-002
4486	21.836	2.7273	0.1	-4.0561e-002
4487	21.836	2.5455	0.1	-4.0445e-002
4488	21.836	2.3636	0.1	-4.0245e-002
4489	21.836	2.1818	0.1	-3.9923e-002
4490	21.836	2.	0.1	-3.941e-002
4491	21.836	1.8182	0.1	-3.8599e-002
4492	21.836	1.6364	0.1	-3.7334e-002
4493	21.836	1.4545	0.1	-3.541e-002
4494	21.836	1.2727	0.1	-3.2563e-002
4495	21.836	1.0909	0.1	-2.8404e-002
4496	21.836	0.90909	0.1	-2.2701e-002
4497	21.836	0.72727	0.1	-1.4183e-002
4498	21.836	0.54545	0.1	-5.4479e-003
4499	21.836	0.36364	0.1	2.0254e-002
4500	21.836	0.18182	0.1	1.0361e-002
4501	21.656	5.8182	0.1	7.6839e-003
4502	21.656	5.6364	0.1	1.5543e-002
4503	21.656	5.4545	0.1	-6.2272e-003
4504	21.656	5.2727	0.1	-1.4159e-002
4505	21.656	5.0909	0.1	-2.1854e-002
4506	21.656	4.9091	0.1	-2.7098e-002
4507	21.656	4.7273	0.1	-3.0899e-002
4508	21.656	4.5455	0.1	-3.346e-002
4509	21.656	4.3636	0.1	-3.5132e-002
4510	21.656	4.1818	0.1	-3.6177e-002
4511	21.656	4.	0.1	-3.6811e-002
4512	21.656	3.8182	0.1	-3.7195e-002
4513	21.656	3.6364	0.1	-3.7445e-002
4514	21.656	3.4545	0.1	-3.7622e-002
4515	21.656	3.2727	0.1	-3.7748e-002
4516	21.656	3.0909	0.1	-3.7818e-002
4517	21.656	2.9091	0.1	-3.7819e-002
4518	21.656	2.7273	0.1	-3.7749e-002
4519	21.656	2.5455	0.1	-3.7622e-002
4520	21.656	2.3636	0.1	-3.7445e-002
4521	21.656	2.1818	0.1	-3.7195e-002
4522	21.656	2.	0.1	-3.681e-002
4523	21.656	1.8182	0.1	-3.6178e-002
4524	21.656	1.6364	0.1	-3.5134e-002
4525	21.656	1.4545	0.1	-3.346e-002
4526	21.656	1.2727	0.1	-3.0898e-002
4527	21.656	1.0909	0.1	-2.7097e-002
4528	21.656	0.90909	0.1	-2.1853e-002
4529	21.656	0.72727	0.1	-1.4158e-002
4530	21.656	0.54545	0.1	-6.2273e-003
4531	21.656	0.36364	0.1	1.5545e-002
4532	21.656	0.18182	0.1	7.6828e-003
4533	21.475	5.8182	0.1	5.5615e-003
4534	21.475	5.6364	0.1	1.101e-002
4535	21.475	5.4545	0.1	-7.4335e-003
4536	21.475	5.2727	0.1	-1.4687e-002
4537	21.475	5.0909	0.1	-2.1647e-002
4538	21.475	4.9091	0.1	-2.645e-002
4539	21.475	4.7273	0.1	-2.9877e-002
4540	21.475	4.5455	0.1	-3.2081e-002
4541	21.475	4.3636	0.1	-3.3364e-002
4542	21.475	4.1818	0.1	-3.3953e-002
4543	21.475	4.	0.1	-3.4054e-002
4544	21.475	3.8182	0.1	-3.382e-002
4545	21.475	3.6364	0.1	-3.3322e-002
4546	21.475	3.4545	0.1	-3.2305e-002
4547	21.475	3.2727	0.1	-1.7136e-002
4548	21.475	3.0909	0.1	0.27987
4549	21.475	2.9091	0.1	0.27987
4550	21.475	2.7273	0.1	-1.7132e-002
4551	21.475	2.5455	0.1	-3.2303e-002
4552	21.475	2.3636	0.1	-3.3322e-002
4553	21.475	2.1818	0.1	-3.3819e-002
4554	21.475	2.	0.1	-3.4056e-002
4555	21.475	1.8182	0.1	-3.3952e-002
4556	21.475	1.6364	0.1	-3.3364e-002
4557	21.475	1.4545	0.1	-3.2082e-002
4558	21.475	1.2727	0.1	-2.9877e-002
4559	21.475	1.0909	0.1	-2.6449e-002
4560	21.475	0.90909	0.1	-2.1648e-002
4561	21.475	0.72727	0.1	-1.4689e-002
4562	21.475	0.54545	0.1	-7.4338e-003
4563	21.475	0.36364	0.1	1.101e-002
4564	21.475	0.18182	0.1	5.5619e-003
4565	21.295	5.8182	0.1	3.9381e-003
4566	21.295	5.6364	0.1	6.7006e-003
4567	21.295	5.4545	0.1	-9.0298e-003
4568	21.295	5.2727	0.1	-1.5735e-002
4569	21.295	5.0909	0.1	-2.2034e-002
4570	21.295	4.9091	0.1	-2.6391e-002
4571	21.295	4.7273	0.1	-2.9297e-002
4572	21.295	4.5455	0.1	-3.0359e-002
4573	21.295	4.3636	0.1	-1.7749e-003
4574	21.295	4.1818	0.1	2.036
4575	21.295	4.	0.1	4.1687
4576	21.295	3.8182	0.1	6.1382
4577	21.295	3.6364	0.1	7.8482
4578	21.295	3.4545	0.1	9.2135
4579	21.295	3.2727	0.1	10.165
4580	21.295	3.0909	0.1	10.653
4581	21.295	2.9091	0.1	10.653
4582	21.295	2.7273	0.1	10.165
4583	21.295	2.5455	0.1	9.2135
4584	21.295	2.3636	0.1	7.8482
4585	21.295	2.1818	0.1	6.1382
4586	21.295	2.	0.1	4.1687
4587	21.295	1.8182	0.1	2.036
4588	21.295	1.6364	0.1	-1.7718e-003
4589	21.295	1.4545	0.1	-3.0358e-002
4590	21.295	1.2727	0.1	-2.9298e-002
4591	21.295	1.0909	0.1	-2.6391e-002
4592	21.295	0.90909	0.1	-2.2035e-002
4593	21.295	0.72727	0.1	-1.5736e-002
4594	21.295	0.54545	0.1	-9.0277e-003
4595	21.295	0.36364	0.1	6.6998e-003
4596	21.295	0.18182	0.1	3.9402e-003
4597	21.115	5.8182	0.1	2.7839e-003
4598	21.115	5.6364	0.1	2.6856e-003
4599	21.115	5.4545	0.1	-1.097e-002
4600	21.115	5.2727	0.1	-1.7267e-002
4601	21.115	5.0909	0.1	-2.2952e-002
4602	21.115	4.9091	0.1	-2.652e-002
4603	21.115	4.7273	0.1	0.74378
4604	21.115	4.5455	0.1	3.6793
4605	21.115	4.3636	0.1	6.7173
4606	21.115	4.1818	0.1	9.7449
4607	21.115	4.	0.1	12.642
4608	21.115	3.8182	0.1	15.286
4609	21.115	3.6364	0.1	17.561
4610	21.115	3.4545	0.1	19.366
4611	21.115	3.2727	0.1	20.618
4612	21.115	3.0909	0.1	21.259
4613	21.115	2.9091	0.1	21.259
4614	21.115	2.7273	0.1	20.618
4615	21.115	2.5455	0.1	19.366
4616	21.115	2.3636	0.1	17.561
4617	21.115	2.1818	0.1	15.286
4618	21.115	2.	0.1	12.642
4619	21.115	1.8182	0.1	9.7449
4620	21.115	1.6364	0.1	6.7173
4621	21.115	1.4545	0.1	3.6793
4622	21.115	1.2727	0.1	0.74379
4623	21.115	1.0909	0.1	-2.652e-002
4624	21.115	0.90909	0.1	-2.2953e-002
4625	21.115	0.72727	0.1	-1.7269e-002
4626	21.115	0.54545	0.1	-1.0969e-002
4627	21.115	0.36364	0.1	2.6878e-003
4628	21.115	0.18182	0.1	2.7856e-003
4629	20.934	5.8182	0.1	2.0854e-003
4630	20.934	5.6364	0.1	-8.9298e-004
4631	20.934	5.4545	0.1	-1.3121e-002
4632	20.934	5.2727	0.1	-1.908e-002
4633	20.934	5.0909	0.1	-2.3346e-002
4634	20.934	4.9091	0.1	2.0645
4635	20.934	4.7273	0.1	5.719
4636	20.934	4.5455	0.1	9.5922
4637	20.934	4.3636	0.1	13.559
4638	20.934	4.1818	0.1	17.479
4639	20.934	4.	0.1	21.202
4640	20.934	3.8182	0.1	24.581
4641	20.934	3.6364	0.1	27.474
4642	20.934	3.4545	0.1	29.761
4643	20.934	3.2727	0.1	31.343
4644	20.934	3.0909	0.1	32.151
4645	20.934	2.9091	0.1	32.151
4646	20.934	2.7273	0.1	31.343
4647	20.934	2.5455	0.1	29.761
4648	20.934	2.3636	0.1	27.474
4649	20.934	2.1818	0.1	24.581
4650	20.934	2.	0.1	21.202
4651	20.934	1.8182	0.1	17.479
4652	20.934	1.6364	0.1	13.559
4653	20.934	1.4545	0.1	9.5922
4654	20.934	1.2727	0.1	5.719
4655	20.934	1.0909	0.1	2.0645
4656	20.934	0.90909	0.1	-2.3347e-002
4657	20.934	0.72727	0.1	-1.908e-002
4658	20.934	0.54545	0.1	-1.3122e-002
4659	20.934	0.36364	0.1	-8.9222e-004
4660	20.934	0.18182	0.1	2.0873e-003
4661	20.754	5.8182	0.1	1.8505e-003
4662	20.754	5.6364	0.1	-3.7842e-003
4663	20.754	5.4545	0.1	-1.5051e-002
4664	20.754	5.2727	0.1	-1.959e-002
4665	20.754	5.0909	0.1	1.7079
4666	20.754	4.9091	0.1	5.9302
4667	20.754	4.7273	0.1	10.543
4668	20.754	4.5455	0.1	15.411
4669	20.754	4.3636	0.1	20.375
4670	20.754	4.1818	0.1	25.259
4671	20.754	4.	0.1	29.881
4672	20.754	3.8182	0.1	34.06
4673	20.754	3.6364	0.1	37.629
4674	20.754	3.4545	0.1	40.444
4675	20.754	3.2727	0.1	42.388
4676	20.754	3.0909	0.1	43.38
4677	20.754	2.9091	0.1	43.38
4678	20.754	2.7273	0.1	42.388
4679	20.754	2.5455	0.1	40.444
4680	20.754	2.3636	0.1	37.629
4681	20.754	2.1818	0.1	34.06
4682	20.754	2.	0.1	29.881
4683	20.754	1.8182	0.1	25.259
4684	20.754	1.6364	0.1	20.375
4685	20.754	1.4545	0.1	15.411
4686	20.754	1.2727	0.1	10.543
4687	20.754	1.0909	0.1	5.9302
4688	20.754	0.90909	0.1	1.7079
4689	20.754	0.72727	0.1	-1.959e-002
4690	20.754	0.54545	0.1	-1.5053e-002
4691	20.754	0.36364	0.1	-3.7856e-003
4692	20.754	0.18182	0.1	1.8533e-003
4693	20.574	5.8182	0.1	2.062e-003
4694	20.574	5.6364	0.1	-5.5948e-003
4695	20.574	5.4545	0.1	-1.5526e-002
4696	20.574	5.2727	0.1	6.0703e-002
4697	20.574	5.0909	0.1	4.4326
4698	20.574	4.9091	0.1	9.5774
4699	20.574	4.7273	0.1	15.202
4700	20.574	4.5455	0.1	21.133
4701	20.574	4.3636	0.1	27.172
4702	20.574	4.1818	0.1	33.103
4703	20.574	4.	0.1	38.703
4704	20.574	3.8182	0.1	43.757
4705	20.574	3.6364	0.1	48.065
4706	20.574	3.4545	0.1	51.457
4707	20.574	3.2727	0.1	53.797
4708	20.574	3.0909	0.1	54.99
4709	20.574	2.9091	0.1	54.99
4710	20.574	2.7273	0.1	53.797
4711	20.574	2.5455	0.1	51.457
4712	20.574	2.3636	0.1	48.065
4713	20.574	2.1818	0.1	43.757
4714	20.574	2.	0.1	38.703
4715	20.574	1.8182	0.1	33.103
4716	20.574	1.6364	0.1	27.172
4717	20.574	1.4545	0.1	21.133
4718	20.574	1.2727	0.1	15.202
4719	20.574	1.0909	0.1	9.5775
4720	20.574	0.90909	0.1	4.4326
4721	20.574	0.72727	0.1	6.0715e-002
4722	20.574	0.54545	0.1	-1.5529e-002
4723	20.574	0.36364	0.1	-5.5932e-003
4724	20.574	0.18182	0.1	2.0635e-003
4725	20.393	5.8182	0.1	2.6847e-003
4726	20.393	5.6364	0.1	-5.7358e-003
4727	20.393	5.4545	0.1	-1.1329e-002
4728	20.393	5.2727	0.1	1.5415
4729	20.393	5.0909	0.1	6.872
4730	20.393	4.9091	0.1	12.98
4731	20.393	4.7273	0.1	19.679
4732	20.393	4.5455	0.1	26.752
4733	20.393	4.3636	0.1	33.954
4734	20.393	4.1818	0.1	41.022
4735	20.393	4.	0.1	47.689
4736	20.393	3.8182	0.1	53.697
4737	20.393	3.6364	0.1	58.811
4738	20.393	3.4545	0.1	62.833
4739	20.393	3.2727	0.1	65.604
4740	20.393	3.0909	0.1	67.017
4741	20.393	2.9091	0.1	67.017
4742	20.393	2.7273	0.1	65.604
4743	20.393	2.5455	0.1	62.833
4744	20.393	2.3636	0.1	58.811
4745	20.393	2.1818	0.1	53.697
4746	20.393	2.	0.1	47.689
4747	20.393	1.8182	0.1	41.022
4748	20.393	1.6364	0.1	33.954
4749	20.393	1.4545	0.1	26.752
4750	20.393	1.2727	0.1	19.679
4751	20.393	1.0909	0.1	12.98
4752	20.393	0.90909	0.1	6.8721
4753	20.393	0.72727	0.1	1.5415
4754	20.393	0.54545	0.1	-1.133e-002
4755	20.393	0.36364	0.1	-5.7333e-003
4756	20.393	0.18182	0.1	2.6855e-003
4757	20.213	5.8182	0.1	3.6641e-003
4758	20.213	5.6364	0.1	-3.4863e-003
4759	20.213	5.4545	0.1	4.0092e-003
4760	20.213	5.2727	0.1	2.8256
4761	20.213	5.0909	0.1	8.988
4762	20.213	4.9091	0.1	16.107
4763	20.213	4.7273	0.1	23.951
4764	20.213	4.5455	0.1	32.255
4765	20.213	4.3636	0.1	40.718
4766	20.213	4.1818	0.1	49.023
4767	20.213	4.	0.1	56.851
4768	20.213	3.8182	0.1	63.897
4769	20.213	3.6364	0.1	69.888
4770	20.213	3.4545	0.1	74.591
4771	20.213	3.2727	0.1	77.829
4772	20.213	3.0909	0.1	79.478
4773	20.213	2.9091	0.1	79.478
4774	20.213	2.7273	0.1	77.829
4775	20.213	2.5455	0.1	74.591
4776	20.213	2.3636	0.1	69.888
4777	20.213	2.1818	0.1	63.897
4778	20.213	2.	0.1	56.851
4779	20.213	1.8182	0.1	49.023
4780	20.213	1.6364	0.1	40.718
4781	20.213	1.4545	0.1	32.255
4782	20.213	1.2727	0.1	23.951
4783	20.213	1.0909	0.1	16.107
4784	20.213	0.90909	0.1	8.988
4785	20.213	0.72727	0.1	2.8256
4786	20.213	0.54545	0.1	4.0078e-003
4787	20.213	0.36364	0.1	-3.4842e-003
4788	20.213	0.18182	0.1	3.6652e-003
4789	20.032	5.8182	0.1	4.9301e-003
4790	20.032	5.6364	0.1	1.7867e-003
4791	20.032	5.4545	0.1	3.6156e-002
4792	20.032	5.2727	0.1	3.7289
4793	20.032	5.0909	0.1	10.738
4794	20.032	4.9091	0.1	18.921
4795	20.032	4.7273	0.1	27.991
4796	20.032	4.5455	0.1	37.621
4797	20.032	4.3636	0.1	47.452
4798	20.032	4.1818	0.1	57.102
4799	20.032	4.	0.1	66.191
4800	20.032	3.8182	0.1	74.362
4801	20.032	3.6364	0.1	81.297
4802	20.032	3.4545	0.1	86.733
4803	20.032	3.2727	0.1	90.468
4804	20.032	3.0909	0.1	92.37
4805	20.032	2.9091	0.1	92.37
4806	20.032	2.7273	0.1	90.468
4807	20.032	2.5455	0.1	86.733
4808	20.032	2.3636	0.1	81.297
4809	20.032	2.1818	0.1	74.362
4810	20.032	2.	0.1	66.191
4811	20.032	1.8182	0.1	57.102
4812	20.032	1.6364	0.1	47.452
4813	20.032	1.4545	0.1	37.621
4814	20.032	1.2727	0.1	27.991
4815	20.032	1.0909	0.1	18.921
4816	20.032	0.90909	0.1	10.739
4817	20.032	0.72727	0.1	3.7289
4818	20.032	0.54545	0.1	3.6155e-002
4819	20.032	0.36364	0.1	1.7873e-003
4820	20.032	0.18182	0.1	4.9316e-003
4821	19.852	5.8182	0.1	6.3918e-003
4822	19.852	5.6364	0.1	1.0339e-002
4823	19.852	5.4545	0.1	7.7639e-002
4824	19.852	5.2727	0.1	4.2073
4825	19.852	5.0909	0.1	12.079
4826	19.852	4.9091	0.1	21.382
4827	19.852	4.7273	0.1	31.761
4828	19.852	4.5455	0.1	42.824
4829	19.852	4.3636	0.1	54.136
4830	19.852	4.1818	0.1	65.244
4831	19.852	4.	0.1	75.696
4832	19.852	3.8182	0.1	85.076
4833	19.852	3.6364	0.1	93.018
4834	19.852	3.4545	0.1	99.228
4835	19.852	3.2727	0.1	103.49
4836	19.852	3.0909	0.1	105.65
4837	19.852	2.9091	0.1	105.65
4838	19.852	2.7273	0.1	103.49
4839	19.852	2.5455	0.1	99.228
4840	19.852	2.3636	0.1	93.018
4841	19.852	2.1818	0.1	85.076
4842	19.852	2.	0.1	75.696
4843	19.852	1.8182	0.1	65.244
4844	19.852	1.6364	0.1	54.136
4845	19.852	1.4545	0.1	42.824
4846	19.852	1.2727	0.1	31.761
4847	19.852	1.0909	0.1	21.382
4848	19.852	0.90909	0.1	12.079
4849	19.852	0.72727	0.1	4.2073
4850	19.852	0.54545	0.1	7.7638e-002
4851	19.852	0.36364	0.1	1.034e-002
4852	19.852	0.18182	0.1	6.393e-003
4853	19.672	5.8182	0.1	7.925e-003
4854	19.672	5.6364	0.1	2.1986e-002
4855	19.672	5.4545	0.1	0.11318
4856	19.672	5.2727	0.1	4.2258
4857	19.672	5.0909	0.1	12.962
4858	19.672	4.9091	0.1	23.44
4859	19.672	4.7273	0.1	35.217
4860	19.672	4.5455	0.1	47.822
4861	19.672	4.3636	0.1	60.735
4862	19.672	4.1818	0.1	73.416
4863	19.672	4.	0.1	85.332
4864	19.672	3.8182	0.1	95.996
4865	19.672	3.6364	0.1	104.99
4866	19.672	3.4545	0.1	112.
4867	19.672	3.2727	0.1	116.79
4868	19.672	3.0909	0.1	119.22
4869	19.672	2.9091	0.1	119.22
4870	19.672	2.7273	0.1	116.79
4871	19.672	2.5455	0.1	112.
4872	19.672	2.3636	0.1	104.99
4873	19.672	2.1818	0.1	95.996
4874	19.672	2.	0.1	85.332
4875	19.672	1.8182	0.1	73.416
4876	19.672	1.6364	0.1	60.735
4877	19.672	1.4545	0.1	47.822
4878	19.672	1.2727	0.1	35.217
4879	19.672	1.0909	0.1	23.44
4880	19.672	0.90909	0.1	12.962
4881	19.672	0.72727	0.1	4.2258
4882	19.672	0.54545	0.1	0.11318
4883	19.672	0.36364	0.1	2.1987e-002
4884	19.672	0.18182	0.1	7.9255e-003
4885	19.491	5.8182	0.1	9.4519e-003
4886	19.491	5.6364	0.1	3.6471e-002
4887	19.491	5.4545	0.1	0.13942
4888	19.491	5.2727	0.1	3.7731
4889	19.491	5.0909	0.1	13.339
4890	19.491	4.9091	0.1	25.039
4891	19.491	4.7273	0.1	38.298
4892	19.491	4.5455	0.1	52.554
4893	19.491	4.3636	0.1	67.191
4894	19.491	4.1818	0.1	81.561
4895	19.491	4.	0.1	95.034
4896	19.491	3.8182	0.1	107.04
4897	19.491	3.6364	0.1	117.12
4898	19.491	3.4545	0.1	124.93
4899	19.491	3.2727	0.1	130.23
4900	19.491	3.0909	0.1	132.92
4901	19.491	2.9091	0.1	132.92
4902	19.491	2.7273	0.1	130.23
4903	19.491	2.5455	0.1	124.93
4904	19.491	2.3636	0.1	117.12
4905	19.491	2.1818	0.1	107.04
4906	19.491	2.	0.1	95.034
4907	19.491	1.8182	0.1	81.561
4908	19.491	1.6364	0.1	67.191
4909	19.491	1.4545	0.1	52.554
4910	19.491	1.2727	0.1	38.298
4911	19.491	1.0909	0.1	25.04
4912	19.491	0.90909	0.1	13.339
4913	19.491	0.72727	0.1	3.7732
4914	19.491	0.54545	0.1	0.13942
4915	19.491	0.36364	0.1	3.6474e-002
4916	19.491	0.18182	0.1	9.4542e-003
4917	19.311	5.8182	0.1	1.0976e-002
4918	19.311	5.6364	0.1	5.3842e-002
4919	19.311	5.4545	0.1	0.1622
4920	19.311	5.2727	0.1	2.9116
4921	19.311	5.0909	0.1	13.163
4922	19.311	4.9091	0.1	26.107
4923	19.311	4.7273	0.1	40.917
4924	19.311	4.5455	0.1	56.928
4925	19.311	4.3636	0.1	73.407
4926	19.311	4.1818	0.1	89.58
4927	19.311	4.	0.1	104.69
4928	19.311	3.8182	0.1	118.08
4929	19.311	3.6364	0.1	129.22
4930	19.311	3.4545	0.1	137.77
4931	19.311	3.2727	0.1	143.54
4932	19.311	3.0909	0.1	146.44
4933	19.311	2.9091	0.1	146.44
4934	19.311	2.7273	0.1	143.54
4935	19.311	2.5455	0.1	137.77
4936	19.311	2.3636	0.1	129.22
4937	19.311	2.1818	0.1	118.08
4938	19.311	2.	0.1	104.69
4939	19.311	1.8182	0.1	89.58
4940	19.311	1.6364	0.1	73.407
4941	19.311	1.4545	0.1	56.928
4942	19.311	1.2727	0.1	40.917
4943	19.311	1.0909	0.1	26.107
4944	19.311	0.90909	0.1	13.163
4945	19.311	0.72727	0.1	2.9117
4946	19.311	0.54545	0.1	0.1622
4947	19.311	0.36364	0.1	5.3842e-002
4948	19.311	0.18182	0.1	1.0975e-002
4949	19.131	5.8182	0.1	1.2624e-002
4950	19.131	5.6364	0.1	7.4639e-002
4951	19.131	5.4545	0.1	0.18777
4952	19.131	5.2727	0.1	1.92
4953	19.131	5.0909	0.1	12.383
4954	19.131	4.9091	0.1	26.541
4955	19.131	4.7273	0.1	42.939
4956	19.131	4.5455	0.1	60.791
4957	19.131	4.3636	0.1	79.228
4958	19.131	4.1818	0.1	97.311
4959	19.131	4.	0.1	114.12
4960	19.131	3.8182	0.1	128.88
4961	19.131	3.6364	0.1	141.01
4962	19.131	3.4545	0.1	150.19
4963	19.131	3.2727	0.1	156.3
4964	19.131	3.0909	0.1	159.34
4965	19.131	2.9091	0.1	159.34
4966	19.131	2.7273	0.1	156.3
4967	19.131	2.5455	0.1	150.19
4968	19.131	2.3636	0.1	141.01
4969	19.131	2.1818	0.1	128.88
4970	19.131	2.	0.1	114.12
4971	19.131	1.8182	0.1	97.311
4972	19.131	1.6364	0.1	79.228
4973	19.131	1.4545	0.1	60.791
4974	19.131	1.2727	0.1	42.939
4975	19.131	1.0909	0.1	26.541
4976	19.131	0.90909	0.1	12.383
4977	19.131	0.72727	0.1	1.92
4978	19.131	0.54545	0.1	0.18778
4979	19.131	0.36364	0.1	7.4639e-002
4980	19.131	0.18182	0.1	1.2621e-002
4981	18.95	5.8182	0.1	1.4859e-002
4982	18.95	5.6364	0.1	0.10003
4983	18.95	5.4545	0.1	0.22108
4984	18.95	5.2727	0.1	1.2733
4985	18.95	5.0909	0.1	10.951
4986	18.95	4.9091	0.1	26.187
4987	18.95	4.7273	0.1	44.144
4988	18.95	4.5455	0.1	63.89
4989	18.95	4.3636	0.1	84.389
4990	18.95	4.1818	0.1	104.49
4991	18.95	4.	0.1	123.05
4992	18.95	3.8182	0.1	139.11
4993	18.95	3.6364	0.1	152.06
4994	18.95	3.4545	0.1	161.64
4995	18.95	3.2727	0.1	167.87
4996	18.95	3.0909	0.1	170.93
4997	18.95	2.9091	0.1	170.93
4998	18.95	2.7273	0.1	167.87
4999	18.95	2.5455	0.1	161.64
5000	18.95	2.3636	0.1	152.06
5001	18.95	2.1818	0.1	139.11
5002	18.95	2.	0.1	123.05
5003	18.95	1.8182	0.1	104.49
5004	18.95	1.6364	0.1	84.389
5005	18.95	1.4545	0.1	63.89
5006	18.95	1.2727	0.1	44.144
5007	18.95	1.0909	0.1	26.187
5008	18.95	0.90909	0.1	10.951
5009	18.95	0.72727	0.1	1.2733
5010	18.95	0.54545	0.1	0.22108
5011	18.95	0.36364	0.1	0.10003
5012	18.95	0.18182	0.1	1.4858e-002
5013	18.77	5.8182	0.1	1.8807e-002
5014	18.77	5.6364	0.1	0.13197
5015	18.77	5.4545	0.1	0.26693
5016	18.77	5.2727	0.1	1.0149
5017	18.77	5.0909	0.1	8.8474
5018	18.77	4.9091	0.1	24.794
5019	18.77	4.7273	0.1	44.162
5020	18.77	4.5455	0.1	65.79
5021	18.77	4.3636	0.1	88.445
5022	18.77	4.1818	0.1	110.68
5023	18.77	4.	0.1	131.01
5024	18.77	3.8182	0.1	148.26
5025	18.77	3.6364	0.1	161.73
5026	18.77	3.4545	0.1	171.3
5027	18.77	3.2727	0.1	177.3
5028	18.77	3.0909	0.1	180.14
5029	18.77	2.9091	0.1	180.14
5030	18.77	2.7273	0.1	177.3
5031	18.77	2.5455	0.1	171.3
5032	18.77	2.3636	0.1	161.73
5033	18.77	2.1818	0.1	148.26
5034	18.77	2.	0.1	131.01
5035	18.77	1.8182	0.1	110.68
5036	18.77	1.6364	0.1	88.445
5037	18.77	1.4545	0.1	65.79
5038	18.77	1.2727	0.1	44.162
5039	18.77	1.0909	0.1	24.794
5040	18.77	0.90909	0.1	8.8474
5041	18.77	0.72727	0.1	1.0149
5042	18.77	0.54545	0.1	0.26693
5043	18.77	0.36364	0.1	0.13197
5044	18.77	0.18182	0.1	1.8809e-002
5045	18.59	5.8182	0.1	2.7079e-002
5046	18.59	5.6364	0.1	0.17383
5047	18.59	5.4545	0.1	0.33147
5048	18.59	5.2727	0.1	0.94731
5049	18.59	5.0909	0.1	6.2268
5050	18.59	4.9091	0.1	21.96
5051	18.59	4.7273	0.1	42.359
5052	18.59	4.5455	0.1	65.742
5053	18.59	4.3636	0.1	90.637
5054	18.59	4.1818	0.1	115.17
5055	18.59	4.	0.1	137.34
5056	18.59	3.8182	0.1	155.55
5057	18.59	3.6364	0.1	169.05
5058	18.59	3.4545	0.1	177.99
5059	18.59	3.2727	0.1	183.14
5060	18.59	3.0909	0.1	185.42
5061	18.59	2.9091	0.1	185.42
5062	18.59	2.7273	0.1	183.14
5063	18.59	2.5455	0.1	177.99
5064	18.59	2.3636	0.1	169.05
5065	18.59	2.1818	0.1	155.55
5066	18.59	2.	0.1	137.34
5067	18.59	1.8182	0.1	115.17
5068	18.59	1.6364	0.1	90.637
5069	18.59	1.4545	0.1	65.742
5070	18.59	1.2727	0.1	42.359
5071	18.59	1.0909	0.1	21.96
5072	18.59	0.90909	0.1	6.2268
5073	18.59	0.72727	0.1	0.94731
5074	18.59	0.54545	0.1	0.33147
5075	18.59	0.36364	0.1	0.17383
5076	18.59	0.18182	0.1	2.708e-002
5077	18.409	5.8182	0.1	4.5359e-002
5078	18.409	5.6364	0.1	0.23174
5079	18.409	5.4545	0.1	0.42378
5080	18.409	5.2727	0.1	0.97559
5081	18.409	5.0909	0.1	3.8357
5082	18.409	4.9091	0.1	17.099
5083	18.409	4.7273	0.1	37.668
5084	18.409	4.5455	0.1	62.463
5085	18.409	4.3636	0.1	89.675
5086	18.409	4.1818	0.1	116.79
5087	18.409	4.	0.1	140.94
5088	18.409	3.8182	0.1	159.85
5089	18.409	3.6364	0.1	172.63
5090	18.409	3.4545	0.1	179.91
5091	18.409	3.2727	0.1	183.3
5092	18.409	3.0909	0.1	184.49
5093	18.409	2.9091	0.1	184.49
5094	18.409	2.7273	0.1	183.3
5095	18.409	2.5455	0.1	179.91
5096	18.409	2.3636	0.1	172.63
5097	18.409	2.1818	0.1	159.85
5098	18.409	2.	0.1	140.94
5099	18.409	1.8182	0.1	116.79
5100	18.409	1.6364	0.1	89.675
5101	18.409	1.4545	0.1	62.463
5102	18.409	1.2727	0.1	37.668
5103	18.409	1.0909	0.1	17.099
5104	18.409	0.90909	0.1	3.8357
5105	18.409	0.72727	0.1	0.97559
5106	18.409	0.54545	0.1	0.42378
5107	18.409	0.36364	0.1	0.23174
5108	18.409	0.18182	0.1	4.5358e-002
5109	18.229	5.8182	0.1	8.6714e-002
5110	18.229	5.6364	0.1	0.31879
5111	18.229	5.4545	0.1	0.55909
5112	18.229	5.2727	0.1	1.0676
5113	18.229	5.0909	0.1	2.5281
5114	18.229	4.9091	0.1	9.9518
5115	18.229	4.7273	0.1	28.422
5116	18.229	4.5455	0.1	53.783
5117	18.229	4.3636	0.1	83.358
5118	18.229	4.1818	0.1	113.62
5119	18.229	4.	0.1	140.17
5120	18.229	3.8182	0.1	159.46
5121	18.229	3.6364	0.1	170.38
5122	18.229	3.4545	0.1	174.48
5123	18.229	3.2727	0.1	174.75
5124	18.229	3.0909	0.1	174.06
5125	18.229	2.9091	0.1	174.06
5126	18.229	2.7273	0.1	174.75
5127	18.229	2.5455	0.1	174.48
5128	18.229	2.3636	0.1	170.38
5129	18.229	2.1818	0.1	159.46
5130	18.229	2.	0.1	140.17
5131	18.229	1.8182	0.1	113.62
5132	18.229	1.6364	0.1	83.358
5133	18.229	1.4545	0.1	53.783
5134	18.229	1.2727	0.1	28.422
5135	18.229	1.0909	0.1	9.9518
5136	18.229	0.90909	0.1	2.5281
5137	18.229	0.72727	0.1	1.0676
5138	18.229	0.54545	0.1	0.55909
5139	18.229	0.36364	0.1	0.31879
5140	18.229	0.18182	0.1	8.6715e-002
5141	18.049	5.8182	0.1	0.17589
5142	18.049	5.6364	0.1	0.46012
5143	18.049	5.4545	0.1	0.75864
5144	18.049	5.2727	0.1	1.207
5145	18.049	5.0909	0.1	1.9772
5146	18.049	4.9091	0.1	4.088
5147	18.049	4.7273	0.1	13.409
5148	18.049	4.5455	0.1	36.303
5149	18.049	4.3636	0.1	67.936
5150	18.049	4.1818	0.1	102.4
5151	18.049	4.	0.1	132.37
5152	18.049	3.8182	0.1	151.83
5153	18.049	3.6364	0.1	159.27
5154	18.049	3.4545	0.1	157.94
5155	18.049	3.2727	0.1	153.21
5156	18.049	3.0909	0.1	149.65
5157	18.049	2.9091	0.1	149.65
5158	18.049	2.7273	0.1	153.21
5159	18.049	2.5455	0.1	157.94
5160	18.049	2.3636	0.1	159.27
5161	18.049	2.1818	0.1	151.83
5162	18.049	2.	0.1	132.37
5163	18.049	1.8182	0.1	102.4
5164	18.049	1.6364	0.1	67.936
5165	18.049	1.4545	0.1	36.303
5166	18.049	1.2727	0.1	13.409
5167	18.049	1.0909	0.1	4.088
5168	18.049	0.90909	0.1	1.9772
5169	18.049	0.72727	0.1	1.207
5170	18.049	0.54545	0.1	0.75864
5171	18.049	0.36364	0.1	0.46012
5172	18.049	0.18182	0.1	0.1759
5173	17.868	5.8182	0.1	0.37761
5174	17.868	5.6364	0.1	0.72274
5175	17.868	5.4545	0.1	1.0641
5176	17.868	5.2727	0.1	1.3864
5177	17.868	5.0909	0.1	1.7508
5178	17.868	4.9091	0.1	2.3389
5179	17.868	4.7273	0.1	3.7619
5180	17.868	4.5455	0.1	10.379
5181	17.868	4.3636	0.1	37.763
5182	17.868	4.1818	0.1	77.718
5183	17.868	4.	0.1	113.52
5184	17.868	3.8182	0.1	133.27
5185	17.868	3.6364	0.1	134.71
5186	17.868	3.4545	0.1	124.86
5187	17.868	3.2727	0.1	112.94
5188	17.868	3.0909	0.1	105.54
5189	17.868	2.9091	0.1	105.54
5190	17.868	2.7273	0.1	112.94
5191	17.868	2.5455	0.1	124.86
5192	17.868	2.3636	0.1	134.71
5193	17.868	2.1818	0.1	133.27
5194	17.868	2.	0.1	113.52
5195	17.868	1.8182	0.1	77.718
5196	17.868	1.6364	0.1	37.763
5197	17.868	1.4545	0.1	10.379
5198	17.868	1.2727	0.1	3.7619
5199	17.868	1.0909	0.1	2.3389
5200	17.868	0.90909	0.1	1.7508
5201	17.868	0.72727	0.1	1.3864
5202	17.868	0.54545	0.1	1.0641
5203	17.868	0.36364	0.1	0.72274
5204	17.868	0.18182	0.1	0.37761
5205	17.688	5.8182	0.1	0.7837
5206	17.688	5.6364	0.1	1.198
5207	17.688	5.4545	0.1	1.462
5208	17.688	5.2727	0.1	1.534
5209	17.688	5.0909	0.1	1.6194
5210	17.688	4.9091	0.1	1.8037
5211	17.688	4.7273	0.1	2.246
5212	17.688	4.5455	0.1	3.2054
5213	17.688	4.3636	0.1	5.8993
5214	17.688	4.1818	0.1	31.248
5215	17.688	4.	0.1	76.039
5216	17.688	3.8182	0.1	97.234
5217	17.688	3.6364	0.1	89.745
5218	17.688	3.4545	0.1	67.77
5219	17.688	3.2727	0.1	47.252
5220	17.688	3.0909	0.1	35.825
5221	17.688	2.9091	0.1	35.825
5222	17.688	2.7273	0.1	47.252
5223	17.688	2.5455	0.1	67.77
5224	17.688	2.3636	0.1	89.745
5225	17.688	2.1818	0.1	97.233
5226	17.688	2.	0.1	76.039
5227	17.688	1.8182	0.1	31.248
5228	17.688	1.6364	0.1	5.8993
5229	17.688	1.4545	0.1	3.2054
5230	17.688	1.2727	0.1	2.246
5231	17.688	1.0909	0.1	1.8037
5232	17.688	0.90909	0.1	1.6194
5233	17.688	0.72727	0.1	1.534
5234	17.688	0.54545	0.1	1.462
5235	17.688	0.36364	0.1	1.198
5236	17.688	0.18182	0.1	0.7837
5237	17.508	5.8182	0.1	1.8245
5238	17.508	5.6364	0.1	2.2116
5239	17.508	5.4545	0.1	2.0194
5240	17.508	5.2727	0.1	1.75
5241	17.508	5.0909	0.1	1.6759
5242	17.508	4.9091	0.1	1.85
5243	17.508	4.7273	0.1	2.161
5244	17.508	4.5455	0.1	2.5728
5245	17.508	4.3636	0.1	5.6058
5246	17.508	4.1818	0.1	5.8887
5247	17.508	4.	0.1	14.663
5248	17.508	3.8182	0.1	35.659
5249	17.508	3.6364	0.1	17.092
5250	17.508	3.4545	0.1	2.4378
5251	17.508	3.2727	0.1	9.9273e-003
5252	17.508	3.0909	0.1	-0.40417
5253	17.508	2.9091	0.1	-0.40418
5254	17.508	2.7273	0.1	9.9273e-003
5255	17.508	2.5455	0.1	2.4378
5256	17.508	2.3636	0.1	17.092
5257	17.508	2.1818	0.1	35.659
5258	17.508	2.	0.1	14.663
5259	17.508	1.8182	0.1	5.8886
5260	17.508	1.6364	0.1	5.6058
5261	17.508	1.4545	0.1	2.5728
5262	17.508	1.2727	0.1	2.161
5263	17.508	1.0909	0.1	1.85
5264	17.508	0.90909	0.1	1.6759
5265	17.508	0.72727	0.1	1.75
5266	17.508	0.54545	0.1	2.0194
5267	17.508	0.36364	0.1	2.2116
5268	17.508	0.18182	0.1	1.8245
5269	17.327	5.8182	0.1	3.5023
5270	17.327	5.6364	0.1	2.9086
5271	17.327	5.4545	0.1	1.8096
5272	17.327	5.2727	0.1	1.1844
5273	17.327	5.0909	0.1	0.9845
5274	17.327	4.9091	0.1	0.91837
5275	17.327	4.7273	0.1	1.154
5276	17.327	4.5455	0.1	1.8953
5277	17.327	4.3636	0.1	1.4627
5278	17.327	4.1818	0.1	-1.0086
5279	17.327	4.	0.1	-31.615
5280	17.327	3.8182	0.1	-11.226
5281	17.327	3.6364	0.1	6.1418
5282	17.327	3.4545	0.1	0.38158
5283	17.327	3.2727	0.1	0.13198
5284	17.327	3.0909	0.1	-7.843e-003
5285	17.327	2.9091	0.1	-7.844e-003
5286	17.327	2.7273	0.1	0.13198
5287	17.327	2.5455	0.1	0.38158
5288	17.327	2.3636	0.1	6.1418
5289	17.327	2.1818	0.1	-11.226
5290	17.327	2.	0.1	-31.615
5291	17.327	1.8182	0.1	-1.0086
5292	17.327	1.6364	0.1	1.4627
5293	17.327	1.4545	0.1	1.8953
5294	17.327	1.2727	0.1	1.154
5295	17.327	1.0909	0.1	0.91837
5296	17.327	0.90909	0.1	0.9845
5297	17.327	0.72727	0.1	1.1844
5298	17.327	0.54545	0.1	1.8096
5299	17.327	0.36364	0.1	2.9086
5300	17.327	0.18182	0.1	3.5023
5301	17.147	5.8182	0.1	8.7881
5302	17.147	5.6364	0.1	4.4429
5303	17.147	5.4545	0.1	3.3723
5304	17.147	5.2727	0.1	3.0022
5305	17.147	5.0909	0.1	3.0365
5306	17.147	4.9091	0.1	3.8151
5307	17.147	4.7273	0.1	3.5235
5308	17.147	4.5455	0.1	10.063
5309	17.147	4.3636	0.1	-2.0203
5310	17.147	4.1818	0.1	64.216
5311	17.147	4.	0.1	215.2
5312	17.147	3.8182	0.1	20.885
5313	17.147	3.6364	0.1	8.1304
5314	17.147	3.4545	0.1	-1.5281
5315	17.147	3.2727	0.1	1.3261
5316	17.147	3.0909	0.1	0.18384
5317	17.147	2.9091	0.1	0.18384
5318	17.147	2.7273	0.1	1.3261
5319	17.147	2.5455	0.1	-1.5281
5320	17.147	2.3636	0.1	8.1304
5321	17.147	2.1818	0.1	20.885
5322	17.147	2.	0.1	215.2
5323	17.147	1.8182	0.1	64.216
5324	17.147	1.6364	0.1	-2.0203
5325	17.147	1.4545	0.1	10.063
5326	17.147	1.2727	0.1	3.5235
5327	17.147	1.0909	0.1	3.8151
5328	17.147	0.90909	0.1	3.0365
5329	17.147	0.72727	0.1	3.0022
5330	17.147	0.54545	0.1	3.3723
5331	17.147	0.36364	0.1	4.4429
5332	17.147	0.18182	0.1	8.7881
5333	0.18462	0.18182	0.1	-1.8681
5334	0.18462	0.36364	0.1	819.49
5335	0.18462	0.54545	0.1	1255.9
5336	0.18462	0.72727	0.1	1505.9
5337	0.18462	0.90909	0.1	1663.4
5338	0.18462	1.0909	0.1	1771.9
5339	0.18462	1.2727	0.1	1850.7
5340	0.18462	1.4545	0.1	1909.8
5341	0.18462	1.6364	0.1	1955.
5342	0.18462	1.8182	0.1	1990.
5343	0.18462	2.	0.1	2017.
5344	0.18462	2.1818	0.1	2037.7
5345	0.18462	2.3636	0.1	2053.2
5346	0.18462	2.5455	0.1	2064.2
5347	0.18462	2.7273	0.1	2071.3
5348	0.18462	2.9091	0.1	2074.8
5349	0.18462	3.0909	0.1	2074.8
5350	0.18462	3.2727	0.1	2071.3
5351	0.18462	3.4545	0.1	2064.2
5352	0.18462	3.6364	0.1	2053.2
5353	0.18462	3.8182	0.1	2037.7
5354	0.18462	4.	0.1	2017.
5355	0.18462	4.1818	0.1	1990.
5356	0.18462	4.3636	0.1	1955.
5357	0.18462	4.5455	0.1	1909.8
5358	0.18462	4.7273	0.1	1850.7
5359	0.18462	4.9091	0.1	1771.9
5360	0.18462	5.0909	0.1	1663.4
5361	0.18462	5.2727	0.1	1505.9
5362	0.18462	5.4545	0.1	1255.9
5363	0.18462	5.6364	0.1	819.49
5364	0.18462	5.8182	0.1	-1.8681
5365	0.36923	0.18182	0.1	81.547
5366	0.36923	0.36364	0.1	658.34
5367	0.36923	0.54545	0.1	1217.
5368	0.36923	0.72727	0.1	1590.4
5369	0.36923	0.90909	0.1	1838.6
5370	0.36923	1.0909	0.1	2008.7
5371	0.36923	1.2727	0.1	2130.3
5372	0.36923	1.4545	0.1	2220.1
5373	0.36923	1.6364	0.1	2287.8
5374	0.36923	1.8182	0.1	2339.6
5375	0.36923	2.	0.1	2379.3
5376	0.36923	2.1818	0.1	2409.6
5377	0.36923	2.3636	0.1	2432.2
5378	0.36923	2.5455	0.1	2448.2
5379	0.36923	2.7273	0.1	2458.5
5380	0.36923	2.9091	0.1	2463.5
5381	0.36923	3.0909	0.1	2463.5
5382	0.36923	3.2727	0.1	2458.5
5383	0.36923	3.4545	0.1	2448.2
5384	0.36923	3.6364	0.1	2432.2
5385	0.36923	3.8182	0.1	2409.6
5386	0.36923	4.	0.1	2379.3
5387	0.36923	4.1818	0.1	2339.6
5388	0.36923	4.3636	0.1	2287.8
5389	0.36923	4.5455	0.1	2220.1
5390	0.36923	4.7273	0.1	2130.3
5391	0.36923	4.9091	0.1	2008.7
5392	0.36923	5.0909	0.1	1838.6
5393	0.36923	5.2727	0.1	1590.4
5394	0.36923	5.4545	0.1	1217.
5395	0.36923	5.6364	0.1	658.34
5396	0.36923	5.8182	0.1	81.547
5397	0.55385	0.18182	0.1	0.68624
5398	0.55385	0.36364	0.1	411.12
5399	0.55385	0.54545	0.1	858.46
5400	0.55385	0.72727	0.1	1221.3
5401	0.55385	0.90909	0.1	1492.5
5402	0.55385	1.0909	0.1	1690.5
5403	0.55385	1.2727	0.1	1836.
5404	0.55385	1.4545	0.1	1944.3
5405	0.55385	1.6364	0.1	2026.1
5406	0.55385	1.8182	0.1	2088.6
5407	0.55385	2.	0.1	2136.3
5408	0.55385	2.1818	0.1	2172.6
5409	0.55385	2.3636	0.1	2199.5
5410	0.55385	2.5455	0.1	2218.7
5411	0.55385	2.7273	0.1	2230.9
5412	0.55385	2.9091	0.1	2236.9
5413	0.55385	3.0909	0.1	2236.9
5414	0.55385	3.2727	0.1	2230.9
5415	0.55385	3.4545	0.1	2218.7
5416	0.55385	3.6364	0.1	2199.5
5417	0.55385	3.8182	0.1	2172.6
5418	0.55385	4.	0.1	2136.3
5419	0.55385	4.1818	0.1	2088.6
5420	0.55385	4.3636	0.1	2026.1
5421	0.55385	4.5455	0.1	1944.3
5422	0.55385	4.7273	0.1	1836.
5423	0.55385	4.9091	0.1	1690.5
5424	0.55385	5.0909	0.1	1492.5
5425	0.55385	5.2727	0.1	1221.3
5426	0.55385	5.4545	0.1	858.46
5427	0.55385	5.6364	0.1	411.12
5428	0.55385	5.8182	0.1	0.68623
5429	0.73846	0.18182	0.1	18.399
5430	0.73846	0.36364	0.1	337.01
5431	0.73846	0.54545	0.1	705.57
5432	0.73846	0.72727	0.1	1035.3
5433	0.73846	0.90909	0.1	1306.6
5434	0.73846	1.0909	0.1	1519.8
5435	0.73846	1.2727	0.1	1684.2
5436	0.73846	1.4545	0.1	1810.5
5437	0.73846	1.6364	0.1	1907.6
5438	0.73846	1.8182	0.1	1982.5
5439	0.73846	2.	0.1	2040.
5440	0.73846	2.1818	0.1	2083.8
5441	0.73846	2.3636	0.1	2116.3
5442	0.73846	2.5455	0.1	2139.4
5443	0.73846	2.7273	0.1	2154.2
5444	0.73846	2.9091	0.1	2161.5
5445	0.73846	3.0909	0.1	2161.5
5446	0.73846	3.2727	0.1	2154.2
5447	0.73846	3.4545	0.1	2139.4
5448	0.73846	3.6364	0.1	2116.3
5449	0.73846	3.8182	0.1	2083.8
5450	0.73846	4.	0.1	2040.
5451	0.73846	4.1818	0.1	1982.5
5452	0.73846	4.3636	0.1	1907.6
5453	0.73846	4.5455	0.1	1810.5
5454	0.73846	4.7273	0.1	1684.2
5455	0.73846	4.9091	0.1	1519.8
5456	0.73846	5.0909	0.1	1306.6
5457	0.73846	5.2727	0.1	1035.3
5458	0.73846	5.4545	0.1	705.57
5459	0.73846	5.6364	0.1	337.01
5460	0.73846	5.8182	0.1	18.399
5461	0.92308	0.18182	0.1	14.363
5462	0.92308	0.36364	0.1	283.56
5463	0.92308	0.54545	0.1	587.51
5464	0.92308	0.72727	0.1	874.67
5465	0.92308	0.90909	0.1	1127.3
5466	0.92308	1.0909	0.1	1338.4
5467	0.92308	1.2727	0.1	1509.5
5468	0.92308	1.4545	0.1	1645.8
5469	0.92308	1.6364	0.1	1753.5
5470	0.92308	1.8182	0.1	1838.
5471	0.92308	2.	0.1	1903.7
5472	0.92308	2.1818	0.1	1954.1
5473	0.92308	2.3636	0.1	1991.9
5474	0.92308	2.5455	0.1	2018.7
5475	0.92308	2.7273	0.1	2036.
5476	0.92308	2.9091	0.1	2044.4
5477	0.92308	3.0909	0.1	2044.4
5478	0.92308	3.2727	0.1	2036.
5479	0.92308	3.4545	0.1	2018.7
5480	0.92308	3.6364	0.1	1991.9
5481	0.92308	3.8182	0.1	1954.1
5482	0.92308	4.	0.1	1903.7
5483	0.92308	4.1818	0.1	1838.
5484	0.92308	4.3636	0.1	1753.5
5485	0.92308	4.5455	0.1	1645.8
5486	0.92308	4.7273	0.1	1509.5
5487	0.92308	4.9091	0.1	1338.4
5488	0.92308	5.0909	0.1	1127.3
5489	0.92308	5.2727	0.1	874.67
5490	0.92308	5.4545	0.1	587.51
5491	0.92308	5.6364	0.1	283.56
5492	0.92308	5.8182	0.1	14.363
5493	1.1077	0.18182	0.1	17.577
5494	1.1077	0.36364	0.1	253.8
5495	1.1077	0.54545	0.1	511.6
5496	1.1077	0.72727	0.1	761.77
5497	1.1077	0.90909	0.1	991.25
5498	1.1077	1.0909	0.1	1191.9
5499	1.1077	1.2727	0.1	1361.4
5500	1.1077	1.4545	0.1	1501.4
5501	1.1077	1.6364	0.1	1615.1
5502	1.1077	1.8182	0.1	1706.2
5503	1.1077	2.	0.1	1778.3
5504	1.1077	2.1818	0.1	1834.3
5505	1.1077	2.3636	0.1	1876.5
5506	1.1077	2.5455	0.1	1906.7
5507	1.1077	2.7273	0.1	1926.1
5508	1.1077	2.9091	0.1	1935.7
5509	1.1077	3.0909	0.1	1935.7
5510	1.1077	3.2727	0.1	1926.1
5511	1.1077	3.4545	0.1	1906.7
5512	1.1077	3.6364	0.1	1876.5
5513	1.1077	3.8182	0.1	1834.3
5514	1.1077	4.	0.1	1778.3
5515	1.1077	4.1818	0.1	1706.2
5516	1.1077	4.3636	0.1	1615.1
5517	1.1077	4.5455	0.1	1501.4
5518	1.1077	4.7273	0.1	1361.4
5519	1.1077	4.9091	0.1	1191.9
5520	1.1077	5.0909	0.1	991.25
5521	1.1077	5.2727	0.1	761.77
5522	1.1077	5.4545	0.1	511.6
5523	1.1077	5.6364	0.1	253.8
5524	1.1077	5.8182	0.1	17.577
5525	1.2923	0.18182	0.1	20.842
5526	1.2923	0.36364	0.1	232.53
5527	1.2923	0.54545	0.1	455.17
5528	1.2923	0.72727	0.1	674.3
5529	1.2923	0.90909	0.1	880.68
5530	1.2923	1.0909	0.1	1067.
5531	1.2923	1.2727	0.1	1229.7
5532	1.2923	1.4545	0.1	1368.1
5533	1.2923	1.6364	0.1	1483.5
5534	1.2923	1.8182	0.1	1578.
5535	1.2923	2.	0.1	1654.1
5536	1.2923	2.1818	0.1	1713.9
5537	1.2923	2.3636	0.1	1759.5
5538	1.2923	2.5455	0.1	1792.4
5539	1.2923	2.7273	0.1	1813.7
5540	1.2923	2.9091	0.1	1824.1
5541	1.2923	3.0909	0.1	1824.1
5542	1.2923	3.2727	0.1	1813.7
5543	1.2923	3.4545	0.1	1792.4
5544	1.2923	3.6364	0.1	1759.5
5545	1.2923	3.8182	0.1	1713.9
5546	1.2923	4.	0.1	1654.1
5547	1.2923	4.1818	0.1	1578.
5548	1.2923	4.3636	0.1	1483.5
5549	1.2923	4.5455	0.1	1368.1
5550	1.2923	4.7273	0.1	1229.7
5551	1.2923	4.9091	0.1	1067.
5552	1.2923	5.0909	0.1	880.68
5553	1.2923	5.2727	0.1	674.3
5554	1.2923	5.4545	0.1	455.17
5555	1.2923	5.6364	0.1	232.53
5556	1.2923	5.8182	0.1	20.842
5557	1.4769	0.18182	0.1	25.728
5558	1.4769	0.36364	0.1	216.94
5559	1.4769	0.54545	0.1	412.32
5560	1.4769	0.72727	0.1	605.93
5561	1.4769	0.90909	0.1	791.31
5562	1.4769	1.0909	0.1	962.45
5563	1.4769	1.2727	0.1	1115.6
5564	1.4769	1.4545	0.1	1249.1
5565	1.4769	1.6364	0.1	1363.
5566	1.4769	1.8182	0.1	1458.1
5567	1.4769	2.	0.1	1535.9
5568	1.4769	2.1818	0.1	1597.9
5569	1.4769	2.3636	0.1	1645.6
5570	1.4769	2.5455	0.1	1680.3
5571	1.4769	2.7273	0.1	1702.9
5572	1.4769	2.9091	0.1	1714.1
5573	1.4769	3.0909	0.1	1714.1
5574	1.4769	3.2727	0.1	1702.9
5575	1.4769	3.4545	0.1	1680.3
5576	1.4769	3.6364	0.1	1645.6
5577	1.4769	3.8182	0.1	1597.9
5578	1.4769	4.	0.1	1535.9
5579	1.4769	4.1818	0.1	1458.1
5580	1.4769	4.3636	0.1	1363.
5581	1.4769	4.5455	0.1	1249.1
5582	1.4769	4.7273	0.1	1115.6
5583	1.4769	4.9091	0.1	962.45
5584	1.4769	5.0909	0.1	791.31
5585	1.4769	5.2727	0.1	605.93
5586	1.4769	5.4545	0.1	412.32
5587	1.4769	5.6364	0.1	216.94
5588	1.4769	5.8182	0.1	25.728
5589	1.6615	0.18182	0.1	31.178
5590	1.6615	0.36364	0.1	204.35
5591	1.6615	0.54545	0.1	377.85
5592	1.6615	0.72727	0.1	550.31
5593	1.6615	0.90909	0.1	717.14
5594	1.6615	1.0909	0.1	873.55
5595	1.6615	1.2727	0.1	1016.1
5596	1.6615	1.4545	0.1	1142.8
5597	1.6615	1.6364	0.1	1252.8
5598	1.6615	1.8182	0.1	1346.2
5599	1.6615	2.	0.1	1423.8
5600	1.6615	2.1818	0.1	1486.5
5601	1.6615	2.3636	0.1	1535.2
5602	1.6615	2.5455	0.1	1570.9
5603	1.6615	2.7273	0.1	1594.2
5604	1.6615	2.9091	0.1	1605.8
5605	1.6615	3.0909	0.1	1605.8
5606	1.6615	3.2727	0.1	1594.2
5607	1.6615	3.4545	0.1	1570.9
5608	1.6615	3.6364	0.1	1535.2
5609	1.6615	3.8182	0.1	1486.5
5610	1.6615	4.	0.1	1423.8
5611	1.6615	4.1818	0.1	1346.2
5612	1.6615	4.3636	0.1	1252.8
5613	1.6615	4.5455	0.1	1142.8
5614	1.6615	4.7273	0.1	1016.1
5615	1.6615	4.9091	0.1	873.55
5616	1.6615	5.0909	0.1	717.14
5617	1.6615	5.2727	0.1	550.31
5618	1.6615	5.4545	0.1	377.85
5619	1.6615	5.6364	0.1	204.35
5620	1.6615	5.8182	0.1	31.178
5621	1.8462	0.18182	0.1	36.476
5622	1.8462	0.36364	0.1	193.62
5623	1.8462	0.54545	0.1	349.13
5624	1.8462	0.72727	0.1	503.83
5625	1.8462	0.90909	0.1	654.43
5626	1.8462	1.0909	0.1	797.13
5627	1.8462	1.2727	0.1	928.92
5628	1.8462	1.4545	0.1	1047.8
5629	1.8462	1.6364	0.1	1152.5
5630	1.8462	1.8182	0.1	1242.8
5631	1.8462	2.	0.1	1318.7
5632	1.8462	2.1818	0.1	1380.7
5633	1.8462	2.3636	0.1	1429.3
5634	1.8462	2.5455	0.1	1465.1
5635	1.8462	2.7273	0.1	1488.7
5636	1.8462	2.9091	0.1	1500.4
5637	1.8462	3.0909	0.1	1500.4
5638	1.8462	3.2727	0.1	1488.7
5639	1.8462	3.4545	0.1	1465.1
5640	1.8462	3.6364	0.1	1429.3
5641	1.8462	3.8182	0.1	1380.7
5642	1.8462	4.	0.1	1318.7
5643	1.8462	4.1818	0.1	1242.8
5644	1.8462	4.3636	0.1	1152.5
5645	1.8462	4.5455	0.1	1047.8
5646	1.8462	4.7273	0.1	928.92
5647	1.8462	4.9091	0.1	797.13
5648	1.8462	5.0909	0.1	654.43
5649	1.8462	5.2727	0.1	503.83
5650	1.8462	5.4545	0.1	349.13
5651	1.8462	5.6364	0.1	193.62
5652	1.8462	5.8182	0.1	36.476
5653	2.0308	0.18182	0.1	41.082
5654	2.0308	0.36364	0.1	183.99
5655	2.0308	0.54545	0.1	324.36
5656	2.0308	0.72727	0.1	463.96
5657	2.0308	0.90909	0.1	600.35
5658	2.0308	1.0909	0.1	730.52
5659	2.0308	1.2727	0.1	851.91
5660	2.0308	1.4545	0.1	962.6
5661	2.0308	1.6364	0.1	1061.3
5662	2.0308	1.8182	0.1	1147.3
5663	2.0308	2.	0.1	1220.5
5664	2.0308	2.1818	0.1	1280.7
5665	2.0308	2.3636	0.1	1328.4
5666	2.0308	2.5455	0.1	1363.7
5667	2.0308	2.7273	0.1	1387.1
5668	2.0308	2.9091	0.1	1398.7
5669	2.0308	3.0909	0.1	1398.7
5670	2.0308	3.2727	0.1	1387.1
5671	2.0308	3.4545	0.1	1363.7
5672	2.0308	3.6364	0.1	1328.4
5673	2.0308	3.8182	0.1	1280.7
5674	2.0308	4.	0.1	1220.5
5675	2.0308	4.1818	0.1	1147.3
5676	2.0308	4.3636	0.1	1061.3
5677	2.0308	4.5455	0.1	962.6
5678	2.0308	4.7273	0.1	851.91
5679	2.0308	4.9091	0.1	730.52
5680	2.0308	5.0909	0.1	600.35
5681	2.0308	5.2727	0.1	463.96
5682	2.0308	5.4545	0.1	324.36
5683	2.0308	5.6364	0.1	183.99
5684	2.0308	5.8182	0.1	41.082
5685	2.2154	0.18182	0.1	44.78
5686	2.2154	0.36364	0.1	175.05
5687	2.2154	0.54545	0.1	302.44
5688	2.2154	0.72727	0.1	429.01
5689	2.2154	0.90909	0.1	552.92
5690	2.2154	1.0909	0.1	671.73
5691	2.2154	1.2727	0.1	783.31
5692	2.2154	1.4545	0.1	885.89
5693	2.2154	1.6364	0.1	978.2
5694	2.2154	1.8182	0.1	1059.4
5695	2.2154	2.	0.1	1129.
5696	2.2154	2.1818	0.1	1186.8
5697	2.2154	2.3636	0.1	1232.8
5698	2.2154	2.5455	0.1	1267.2
5699	2.2154	2.7273	0.1	1289.9
5700	2.2154	2.9091	0.1	1301.3
5701	2.2154	3.0909	0.1	1301.3
5702	2.2154	3.2727	0.1	1289.9
5703	2.2154	3.4545	0.1	1267.2
5704	2.2154	3.6364	0.1	1232.8
5705	2.2154	3.8182	0.1	1186.8
5706	2.2154	4.	0.1	1129.
5707	2.2154	4.1818	0.1	1059.4
5708	2.2154	4.3636	0.1	978.2
5709	2.2154	4.5455	0.1	885.89
5710	2.2154	4.7273	0.1	783.31
5711	2.2154	4.9091	0.1	671.73
5712	2.2154	5.0909	0.1	552.92
5713	2.2154	5.2727	0.1	429.01
5714	2.2154	5.4545	0.1	302.44
5715	2.2154	5.6364	0.1	175.05
5716	2.2154	5.8182	0.1	44.78
5717	2.4	0.18182	0.1	47.537
5718	2.4	0.36364	0.1	166.55
5719	2.4	0.54545	0.1	282.65
5720	2.4	0.72727	0.1	397.83
5721	2.4	0.90909	0.1	510.69
5722	2.4	1.0909	0.1	619.25
5723	2.4	1.2727	0.1	721.68
5724	2.4	1.4545	0.1	816.43
5725	2.4	1.6364	0.1	902.28
5726	2.4	1.8182	0.1	978.33
5727	2.4	2.	0.1	1044.
5728	2.4	2.1818	0.1	1098.8
5729	2.4	2.3636	0.1	1142.8
5730	2.4	2.5455	0.1	1175.7
5731	2.4	2.7273	0.1	1197.6
5732	2.4	2.9091	0.1	1208.6
5733	2.4	3.0909	0.1	1208.6
5734	2.4	3.2727	0.1	1197.6
5735	2.4	3.4545	0.1	1175.7
5736	2.4	3.6364	0.1	1142.8
5737	2.4	3.8182	0.1	1098.8
5738	2.4	4.	0.1	1044.
5739	2.4	4.1818	0.1	978.33
5740	2.4	4.3636	0.1	902.28
5741	2.4	4.5455	0.1	816.43
5742	2.4	4.7273	0.1	721.68
5743	2.4	4.9091	0.1	619.25
5744	2.4	5.0909	0.1	510.69
5745	2.4	5.2727	0.1	397.83
5746	2.4	5.4545	0.1	282.65
5747	2.4	5.6364	0.1	166.55
5748	2.4	5.8182	0.1	47.537
5749	2.5846	0.18182	0.1	49.404
5750	2.5846	0.36364	0.1	158.34
5751	2.5846	0.54545	0.1	264.48
5752	2.5846	0.72727	0.1	369.62
5753	2.5846	0.90909	0.1	472.65
5754	2.5846	1.0909	0.1	571.92
5755	2.5846	1.2727	0.1	665.91
5756	2.5846	1.4545	0.1	753.24
5757	2.5846	1.6364	0.1	832.76
5758	2.5846	1.8182	0.1	903.59
5759	2.5846	2.	0.1	965.06
5760	2.5846	2.1818	0.1	1016.7
5761	2.5846	2.3636	0.1	1058.2
5762	2.5846	2.5455	0.1	1089.5
5763	2.5846	2.7273	0.1	1110.3
5764	2.5846	2.9091	0.1	1120.8
5765	2.5846	3.0909	0.1	1120.8
5766	2.5846	3.2727	0.1	1110.3
5767	2.5846	3.4545	0.1	1089.5
5768	2.5846	3.6364	0.1	1058.2
5769	2.5846	3.8182	0.1	1016.7
5770	2.5846	4.	0.1	965.06
5771	2.5846	4.1818	0.1	903.59
5772	2.5846	4.3636	0.1	832.76
5773	2.5846	4.5455	0.1	753.24
5774	2.5846	4.7273	0.1	665.91
5775	2.5846	4.9091	0.1	571.92
5776	2.5846	5.0909	0.1	472.65
5777	2.5846	5.2727	0.1	369.62
5778	2.5846	5.4545	0.1	264.48
5779	2.5846	5.6364	0.1	158.34
5780	2.5846	5.8182	0.1	49.404
5781	2.7692	0.18182	0.1	50.47
5782	2.7692	0.36364	0.1	150.34
5783	2.7692	0.54545	0.1	247.62
5784	2.7692	0.72727	0.1	343.81
5785	2.7692	0.90909	0.1	438.03
5786	2.7692	1.0909	0.1	528.91
5787	2.7692	1.2727	0.1	615.12
5788	2.7692	1.4545	0.1	695.48
5789	2.7692	1.6364	0.1	768.93
5790	2.7692	1.8182	0.1	834.62
5791	2.7692	2.	0.1	891.87
5792	2.7692	2.1818	0.1	940.15
5793	2.7692	2.3636	0.1	979.12
5794	2.7692	2.5455	0.1	1008.5
5795	2.7692	2.7273	0.1	1028.2
5796	2.7692	2.9091	0.1	1038.1
5797	2.7692	3.0909	0.1	1038.1
5798	2.7692	3.2727	0.1	1028.2
5799	2.7692	3.4545	0.1	1008.5
5800	2.7692	3.6364	0.1	979.12
5801	2.7692	3.8182	0.1	940.15
5802	2.7692	4.	0.1	891.87
5803	2.7692	4.1818	0.1	834.62
5804	2.7692	4.3636	0.1	768.93
5805	2.7692	4.5455	0.1	695.48
5806	2.7692	4.7273	0.1	615.12
5807	2.7692	4.9091	0.1	528.91
5808	2.7692	5.0909	0.1	438.03
5809	2.7692	5.2727	0.1	343.81
5810	2.7692	5.4545	0.1	247.62
5811	2.7692	5.6364	0.1	150.34
5812	2.7692	5.8182	0.1	50.47
5813	2.9538	0.18182	0.1	50.835
5814	2.9538	0.36364	0.1	142.52
5815	2.9538	0.54545	0.1	231.83
5816	2.9538	0.72727	0.1	320.
5817	2.9538	0.90909	0.1	406.29
5818	2.9538	1.0909	0.1	489.54
5819	2.9538	1.2727	0.1	568.63
5820	2.9538	1.4545	0.1	642.49
5821	2.9538	1.6364	0.1	710.19
5822	2.9538	1.8182	0.1	770.92
5823	2.9538	2.	0.1	824.
5824	2.9538	2.1818	0.1	868.91
5825	2.9538	2.3636	0.1	905.26
5826	2.9538	2.5455	0.1	932.74
5827	2.9538	2.7273	0.1	951.16
5828	2.9538	2.9091	0.1	960.4
5829	2.9538	3.0909	0.1	960.4
5830	2.9538	3.2727	0.1	951.16
5831	2.9538	3.4545	0.1	932.74
5832	2.9538	3.6364	0.1	905.26
5833	2.9538	3.8182	0.1	868.91
5834	2.9538	4.	0.1	824.
5835	2.9538	4.1818	0.1	770.92
5836	2.9538	4.3636	0.1	710.19
5837	2.9538	4.5455	0.1	642.49
5838	2.9538	4.7273	0.1	568.63
5839	2.9538	4.9091	0.1	489.54
5840	2.9538	5.0909	0.1	406.29
5841	2.9538	5.2727	0.1	320.
5842	2.9538	5.4545	0.1	231.83
5843	2.9538	5.6364	0.1	142.52
5844	2.9538	5.8182	0.1	50.835
5845	3.1385	0.18182	0.1	50.599
5846	3.1385	0.36364	0.1	134.86
5847	3.1385	0.54545	0.1	216.97
5848	3.1385	0.72727	0.1	297.89
5849	3.1385	0.90909	0.1	377.02
5850	3.1385	1.0909	0.1	453.34
5851	3.1385	1.2727	0.1	525.89
5852	3.1385	1.4545	0.1	593.74
5853	3.1385	1.6364	0.1	656.03
5854	3.1385	1.8182	0.1	712.03
5855	3.1385	2.	0.1	761.09
5856	3.1385	2.1818	0.1	802.69
5857	3.1385	2.3636	0.1	836.43
5858	3.1385	2.5455	0.1	861.99
5859	3.1385	2.7273	0.1	879.14
5860	3.1385	2.9091	0.1	887.75
5861	3.1385	3.0909	0.1	887.75
5862	3.1385	3.2727	0.1	879.14
5863	3.1385	3.4545	0.1	861.99
5864	3.1385	3.6364	0.1	836.43
5865	3.1385	3.8182	0.1	802.69
5866	3.1385	4.	0.1	761.09
5867	3.1385	4.1818	0.1	712.03
5868	3.1385	4.3636	0.1	656.03
5869	3.1385	4.5455	0.1	593.74
5870	3.1385	4.7273	0.1	525.89
5871	3.1385	4.9091	0.1	453.34
5872	3.1385	5.0909	0.1	377.02
5873	3.1385	5.2727	0.1	297.89
5874	3.1385	5.4545	0.1	216.97
5875	3.1385	5.6364	0.1	134.86
5876	3.1385	5.8182	0.1	50.599
5877	3.3231	0.18182	0.1	49.858
5878	3.3231	0.36364	0.1	127.35
5879	3.3231	0.54545	0.1	202.92
5880	3.3231	0.72727	0.1	277.28
5881	3.3231	0.90909	0.1	349.89
5882	3.3231	1.0909	0.1	419.91
5883	3.3231	1.2727	0.1	486.47
5884	3.3231	1.4545	0.1	548.76
5885	3.3231	1.6364	0.1	606.01
5886	3.3231	1.8182	0.1	657.56
5887	3.3231	2.	0.1	702.79
5888	3.3231	2.1818	0.1	741.21
5889	3.3231	2.3636	0.1	772.41
5890	3.3231	2.5455	0.1	796.07
5891	3.3231	2.7273	0.1	811.97
5892	3.3231	2.9091	0.1	819.96
5893	3.3231	3.0909	0.1	819.96
5894	3.3231	3.2727	0.1	811.97
5895	3.3231	3.4545	0.1	796.07
5896	3.3231	3.6364	0.1	772.41
5897	3.3231	3.8182	0.1	741.21
5898	3.3231	4.	0.1	702.79
5899	3.3231	4.1818	0.1	657.56
5900	3.3231	4.3636	0.1	606.01
5901	3.3231	4.5455	0.1	548.76
5902	3.3231	4.7273	0.1	486.47
5903	3.3231	4.9091	0.1	419.91
5904	3.3231	5.0909	0.1	349.89
5905	3.3231	5.2727	0.1	277.28
5906	3.3231	5.4545	0.1	202.92
5907	3.3231	5.6364	0.1	127.35
5908	3.3231	5.8182	0.1	49.858
5909	3.5077	0.18182	0.1	48.697
5910	3.5077	0.36364	0.1	120.02
5911	3.5077	0.54545	0.1	189.62
5912	3.5077	0.72727	0.1	258.
5913	3.5077	0.90909	0.1	324.69
5914	3.5077	1.0909	0.1	388.94
5915	3.5077	1.2727	0.1	450.01
5916	3.5077	1.4545	0.1	507.18
5917	3.5077	1.6364	0.1	559.77
5918	3.5077	1.8182	0.1	607.15
5919	3.5077	2.	0.1	648.77
5920	3.5077	2.1818	0.1	684.16
5921	3.5077	2.3636	0.1	712.93
5922	3.5077	2.5455	0.1	734.78
5923	3.5077	2.7273	0.1	749.46
5924	3.5077	2.9091	0.1	756.84
5925	3.5077	3.0909	0.1	756.84
5926	3.5077	3.2727	0.1	749.46
5927	3.5077	3.4545	0.1	734.78
5928	3.5077	3.6364	0.1	712.93
5929	3.5077	3.8182	0.1	684.16
5930	3.5077	4.	0.1	648.77
5931	3.5077	4.1818	0.1	607.15
5932	3.5077	4.3636	0.1	559.77
5933	3.5077	4.5455	0.1	507.18
5934	3.5077	4.7273	0.1	450.01
5935	3.5077	4.9091	0.1	388.94
5936	3.5077	5.0909	0.1	324.69
5937	3.5077	5.2727	0.1	258.
5938	3.5077	5.4545	0.1	189.62
5939	3.5077	5.6364	0.1	120.02
5940	3.5077	5.8182	0.1	48.697
5941	3.6923	0.18182	0.1	47.197
5942	3.6923	0.36364	0.1	112.87
5943	3.6923	0.54545	0.1	177.01
5944	3.6923	0.72727	0.1	239.92
5945	3.6923	0.90909	0.1	301.21
5946	3.6923	1.0909	0.1	360.2
5947	3.6923	1.2727	0.1	416.25
5948	3.6923	1.4545	0.1	468.71
5949	3.6923	1.6364	0.1	516.97
5950	3.6923	1.8182	0.1	560.48
5951	3.6923	2.	0.1	598.73
5952	3.6923	2.1818	0.1	631.27
5953	3.6923	2.3636	0.1	657.75
5954	3.6923	2.5455	0.1	677.86
5955	3.6923	2.7273	0.1	691.39
5956	3.6923	2.9091	0.1	698.19
5957	3.6923	3.0909	0.1	698.19
5958	3.6923	3.2727	0.1	691.39
5959	3.6923	3.4545	0.1	677.86
5960	3.6923	3.6364	0.1	657.75
5961	3.6923	3.8182	0.1	631.27
5962	3.6923	4.	0.1	598.73
5963	3.6923	4.1818	0.1	560.48
5964	3.6923	4.3636	0.1	516.97
5965	3.6923	4.5455	0.1	468.71
5966	3.6923	4.7273	0.1	416.25
5967	3.6923	4.9091	0.1	360.2
5968	3.6923	5.0909	0.1	301.21
5969	3.6923	5.2727	0.1	239.92
5970	3.6923	5.4545	0.1	177.01
5971	3.6923	5.6364	0.1	112.87
5972	3.6923	5.8182	0.1	47.197
5973	3.8769	0.18182	0.1	45.427
5974	3.8769	0.36364	0.1	105.93
5975	3.8769	0.54545	0.1	165.05
5976	3.8769	0.72727	0.1	222.96
5977	3.8769	0.90909	0.1	279.3
5978	3.8769	1.0909	0.1	333.48
5979	3.8769	1.2727	0.1	384.92
5980	3.8769	1.4545	0.1	433.06
5981	3.8769	1.6364	0.1	477.34
5982	3.8769	1.8182	0.1	517.27
5983	3.8769	2.	0.1	552.38
5984	3.8769	2.1818	0.1	582.26
5985	3.8769	2.3636	0.1	606.58
5986	3.8769	2.5455	0.1	625.07
5987	3.8769	2.7273	0.1	637.51
5988	3.8769	2.9091	0.1	643.76
5989	3.8769	3.0909	0.1	643.76
5990	3.8769	3.2727	0.1	637.51
5991	3.8769	3.4545	0.1	625.07
5992	3.8769	3.6364	0.1	606.58
5993	3.8769	3.8182	0.1	582.26
5994	3.8769	4.	0.1	552.38
5995	3.8769	4.1818	0.1	517.27
5996	3.8769	4.3636	0.1	477.34
5997	3.8769	4.5455	0.1	433.06
5998	3.8769	4.7273	0.1	384.92
5999	3.8769	4.9091	0.1	333.48
6000	3.8769	5.0909	0.1	279.3
6001	3.8769	5.2727	0.1	222.96
6002	3.8769	5.4545	0.1	165.05
6003	3.8769	5.6364	0.1	105.93
6004	3.8769	5.8182	0.1	45.427
6005	4.0615	0.18182	0.1	43.448
6006	4.0615	0.36364	0.1	99.199
6007	4.0615	0.54545	0.1	153.72
6008	4.0615	0.72727	0.1	207.04
6009	4.0615	0.90909	0.1	258.85
6010	4.0615	1.0909	0.1	308.62
6011	4.0615	1.2727	0.1	355.84
6012	4.0615	1.4545	0.1	400.01
6013	4.0615	1.6364	0.1	440.63
6014	4.0615	1.8182	0.1	477.25
6015	4.0615	2.	0.1	509.45
6016	4.0615	2.1818	0.1	536.87
6017	4.0615	2.3636	0.1	559.19
6018	4.0615	2.5455	0.1	576.15
6019	4.0615	2.7273	0.1	587.57
6020	4.0615	2.9091	0.1	593.31
6021	4.0615	3.0909	0.1	593.31
6022	4.0615	3.2727	0.1	587.57
6023	4.0615	3.4545	0.1	576.15
6024	4.0615	3.6364	0.1	559.19
6025	4.0615	3.8182	0.1	536.87
6026	4.0615	4.	0.1	509.45
6027	4.0615	4.1818	0.1	477.25
6028	4.0615	4.3636	0.1	440.63
6029	4.0615	4.5455	0.1	400.01
6030	4.0615	4.7273	0.1	355.84
6031	4.0615	4.9091	0.1	308.62
6032	4.0615	5.0909	0.1	258.85
6033	4.0615	5.2727	0.1	207.04
6034	4.0615	5.4545	0.1	153.72
6035	4.0615	5.6364	0.1	99.199
6036	4.0615	5.8182	0.1	43.448
6037	4.2462	0.18182	0.1	41.314
6038	4.2462	0.36364	0.1	92.704
6039	4.2462	0.54545	0.1	142.98
6040	4.2462	0.72727	0.1	192.09
6041	4.2462	0.90909	0.1	239.74
6042	4.2462	1.0909	0.1	285.47
6043	4.2462	1.2727	0.1	328.83
6044	4.2462	1.4545	0.1	369.35
6045	4.2462	1.6364	0.1	406.61
6046	4.2462	1.8182	0.1	440.19
6047	4.2462	2.	0.1	469.71
6048	4.2462	2.1818	0.1	494.85
6049	4.2462	2.3636	0.1	515.31
6050	4.2462	2.5455	0.1	530.87
6051	4.2462	2.7273	0.1	541.34
6052	4.2462	2.9091	0.1	546.6
6053	4.2462	3.0909	0.1	546.6
6054	4.2462	3.2727	0.1	541.34
6055	4.2462	3.4545	0.1	530.87
6056	4.2462	3.6364	0.1	515.31
6057	4.2462	3.8182	0.1	494.85
6058	4.2462	4.	0.1	469.71
6059	4.2462	4.1818	0.1	440.19
6060	4.2462	4.3636	0.1	406.61
6061	4.2462	4.5455	0.1	369.35
6062	4.2462	4.7273	0.1	328.83
6063	4.2462	4.9091	0.1	285.47
6064	4.2462	5.0909	0.1	239.74
6065	4.2462	5.2727	0.1	192.09
6066	4.2462	5.4545	0.1	142.98
6067	4.2462	5.6364	0.1	92.704
6068	4.2462	5.8182	0.1	41.314
6069	4.4308	0.18182	0.1	39.071
6070	4.4308	0.36364	0.1	86.451
6071	4.4308	0.54545	0.1	132.82
6072	4.4308	0.72727	0.1	178.05
6073	4.4308	0.90909	0.1	221.89
6074	4.4308	1.0909	0.1	263.92
6075	4.4308	1.2727	0.1	303.73
6076	4.4308	1.4545	0.1	340.91
6077	4.4308	1.6364	0.1	375.08
6078	4.4308	1.8182	0.1	405.87
6079	4.4308	2.	0.1	432.93
6080	4.4308	2.1818	0.1	455.96
6081	4.4308	2.3636	0.1	474.71
6082	4.4308	2.5455	0.1	488.96
6083	4.4308	2.7273	0.1	498.56
6084	4.4308	2.9091	0.1	503.38
6085	4.4308	3.0909	0.1	503.38
6086	4.4308	3.2727	0.1	498.56
6087	4.4308	3.4545	0.1	488.96
6088	4.4308	3.6364	0.1	474.71
6089	4.4308	3.8182	0.1	455.96
6090	4.4308	4.	0.1	432.93
6091	4.4308	4.1818	0.1	405.87
6092	4.4308	4.3636	0.1	375.08
6093	4.4308	4.5455	0.1	340.91
6094	4.4308	4.7273	0.1	303.73
6095	4.4308	4.9091	0.1	263.92
6096	4.4308	5.0909	0.1	221.89
6097	4.4308	5.2727	0.1	178.05
6098	4.4308	5.4545	0.1	132.82
6099	4.4308	5.6364	0.1	86.451
6100	4.4308	5.8182	0.1	39.071
6101	4.6154	0.18182	0.1	36.759
6102	4.6154	0.36364	0.1	80.451
6103	4.6154	0.54545	0.1	123.21
6104	4.6154	0.72727	0.1	164.87
6105	4.6154	0.90909	0.1	205.21
6106	4.6154	1.0909	0.1	243.84
6107	4.6154	1.2727	0.1	280.4
6108	4.6154	1.4545	0.1	314.53
6109	4.6154	1.6364	0.1	345.86
6110	4.6154	1.8182	0.1	374.08
6111	4.6154	2.	0.1	398.88
6112	4.6154	2.1818	0.1	419.98
6113	4.6154	2.3636	0.1	437.16
6114	4.6154	2.5455	0.1	450.21
6115	4.6154	2.7273	0.1	459.
6116	4.6154	2.9091	0.1	463.42
6117	4.6154	3.0909	0.1	463.42
6118	4.6154	3.2727	0.1	459.
6119	4.6154	3.4545	0.1	450.21
6120	4.6154	3.6364	0.1	437.16
6121	4.6154	3.8182	0.1	419.98
6122	4.6154	4.	0.1	398.88
6123	4.6154	4.1818	0.1	374.08
6124	4.6154	4.3636	0.1	345.86
6125	4.6154	4.5455	0.1	314.53
6126	4.6154	4.7273	0.1	280.4
6127	4.6154	4.9091	0.1	243.84
6128	4.6154	5.0909	0.1	205.21
6129	4.6154	5.2727	0.1	164.87
6130	4.6154	5.4545	0.1	123.21
6131	4.6154	5.6364	0.1	80.451
6132	4.6154	5.8182	0.1	36.759
6133	4.8	0.18182	0.1	34.411
6134	4.8	0.36364	0.1	74.709
6135	4.8	0.54545	0.1	114.14
6136	4.8	0.72727	0.1	152.52
6137	4.8	0.90909	0.1	189.63
6138	4.8	1.0909	0.1	225.15
6139	4.8	1.2727	0.1	258.72
6140	4.8	1.4545	0.1	290.04
6141	4.8	1.6364	0.1	318.78
6142	4.8	1.8182	0.1	344.65
6143	4.8	2.	0.1	367.37
6144	4.8	2.1818	0.1	386.7
6145	4.8	2.3636	0.1	402.43
6146	4.8	2.5455	0.1	414.39
6147	4.8	2.7273	0.1	422.43
6148	4.8	2.9091	0.1	426.48
6149	4.8	3.0909	0.1	426.48
6150	4.8	3.2727	0.1	422.43
6151	4.8	3.4545	0.1	414.39
6152	4.8	3.6364	0.1	402.43
6153	4.8	3.8182	0.1	386.7
6154	4.8	4.	0.1	367.37
6155	4.8	4.1818	0.1	344.65
6156	4.8	4.3636	0.1	318.78
6157	4.8	4.5455	0.1	290.04
6158	4.8	4.7273	0.1	258.72
6159	4.8	4.9091	0.1	225.15
6160	4.8	5.0909	0.1	189.63
6161	4.8	5.2727	0.1	152.52
6162	4.8	5.4545	0.1	114.14
6163	4.8	5.6364	0.1	74.709
6164	4.8	5.8182	0.1	34.411
6165	4.9846	0.18182	0.1	32.055
6166	4.9846	0.36364	0.1	69.228
6167	4.9846	0.54545	0.1	105.59
6168	4.9846	0.72727	0.1	140.94
6169	4.9846	0.90909	0.1	175.09
6170	4.9846	1.0909	0.1	207.74
6171	4.9846	1.2727	0.1	238.58
6172	4.9846	1.4545	0.1	267.33
6173	4.9846	1.6364	0.1	293.69
6174	4.9846	1.8182	0.1	317.4
6175	4.9846	2.	0.1	338.22
6176	4.9846	2.1818	0.1	355.93
6177	4.9846	2.3636	0.1	370.34
6178	4.9846	2.5455	0.1	381.28
6179	4.9846	2.7273	0.1	388.64
6180	4.9846	2.9091	0.1	392.35
6181	4.9846	3.0909	0.1	392.35
6182	4.9846	3.2727	0.1	388.64
6183	4.9846	3.4545	0.1	381.28
6184	4.9846	3.6364	0.1	370.34
6185	4.9846	3.8182	0.1	355.93
6186	4.9846	4.	0.1	338.22
6187	4.9846	4.1818	0.1	317.4
6188	4.9846	4.3636	0.1	293.69
6189	4.9846	4.5455	0.1	267.33
6190	4.9846	4.7273	0.1	238.58
6191	4.9846	4.9091	0.1	207.74
6192	4.9846	5.0909	0.1	175.09
6193	4.9846	5.2727	0.1	140.94
6194	4.9846	5.4545	0.1	105.59
6195	4.9846	5.6364	0.1	69.228
6196	4.9846	5.8182	0.1	32.055
6197	5.1692	0.18182	0.1	29.714
6198	5.1692	0.36364	0.1	64.009
6199	5.1692	0.54545	0.1	97.53
6200	5.1692	0.72727	0.1	130.09
6201	5.1692	0.90909	0.1	161.52
6202	5.1692	1.0909	0.1	191.53
6203	5.1692	1.2727	0.1	219.87
6204	5.1692	1.4545	0.1	246.25
6205	5.1692	1.6364	0.1	270.44
6206	5.1692	1.8182	0.1	292.18
6207	5.1692	2.	0.1	311.26
6208	5.1692	2.1818	0.1	327.48
6209	5.1692	2.3636	0.1	340.67
6210	5.1692	2.5455	0.1	350.69
6211	5.1692	2.7273	0.1	357.43
6212	5.1692	2.9091	0.1	360.82
6213	5.1692	3.0909	0.1	360.82
6214	5.1692	3.2727	0.1	357.43
6215	5.1692	3.4545	0.1	350.69
6216	5.1692	3.6364	0.1	340.67
6217	5.1692	3.8182	0.1	327.48
6218	5.1692	4.	0.1	311.26
6219	5.1692	4.1818	0.1	292.18
6220	5.1692	4.3636	0.1	270.44
6221	5.1692	4.5455	0.1	246.25
6222	5.1692	4.7273	0.1	219.87
6223	5.1692	4.9091	0.1	191.53
6224	5.1692	5.0909	0.1	161.52
6225	5.1692	5.2727	0.1	130.09
6226	5.1692	5.4545	0.1	97.53
6227	5.1692	5.6364	0.1	64.009
6228	5.1692	5.8182	0.1	29.714
6229	5.3538	0.18182	0.1	27.406
6230	5.3538	0.36364	0.1	59.052
6231	5.3538	0.54545	0.1	89.952
6232	5.3538	0.72727	0.1	119.94
6233	5.3538	0.90909	0.1	148.86
6234	5.3538	1.0909	0.1	176.46
6235	5.3538	1.2727	0.1	202.48
6236	5.3538	1.4545	0.1	226.71
6237	5.3538	1.6364	0.1	248.89
6238	5.3538	1.8182	0.1	268.83
6239	5.3538	2.	0.1	286.31
6240	5.3538	2.1818	0.1	301.17
6241	5.3538	2.3636	0.1	313.25
6242	5.3538	2.5455	0.1	322.43
6243	5.3538	2.7273	0.1	328.6
6244	5.3538	2.9091	0.1	331.7
6245	5.3538	3.0909	0.1	331.7
6246	5.3538	3.2727	0.1	328.6
6247	5.3538	3.4545	0.1	322.43
6248	5.3538	3.6364	0.1	313.25
6249	5.3538	3.8182	0.1	301.17
6250	5.3538	4.	0.1	286.31
6251	5.3538	4.1818	0.1	268.83
6252	5.3538	4.3636	0.1	248.89
6253	5.3538	4.5455	0.1	226.71
6254	5.3538	4.7273	0.1	202.48
6255	5.3538	4.9091	0.1	176.46
6256	5.3538	5.0909	0.1	148.86
6257	5.3538	5.2727	0.1	119.94
6258	5.3538	5.4545	0.1	89.952
6259	5.3538	5.6364	0.1	59.052
6260	5.3538	5.8182	0.1	27.406
6261	5.5385	0.18182	0.1	25.148
6262	5.5385	0.36364	0.1	54.352
6263	5.5385	0.54545	0.1	82.833
6264	5.5385	0.72727	0.1	110.45
6265	5.5385	0.90909	0.1	137.06
6266	5.5385	1.0909	0.1	162.43
6267	5.5385	1.2727	0.1	186.34
6268	5.5385	1.4545	0.1	208.58
6269	5.5385	1.6364	0.1	228.93
6270	5.5385	1.8182	0.1	247.21
6271	5.5385	2.	0.1	263.24
6272	5.5385	2.1818	0.1	276.85
6273	5.5385	2.3636	0.1	287.92
6274	5.5385	2.5455	0.1	296.32
6275	5.5385	2.7273	0.1	301.97
6276	5.5385	2.9091	0.1	304.81
6277	5.5385	3.0909	0.1	304.81
6278	5.5385	3.2727	0.1	301.97
6279	5.5385	3.4545	0.1	296.32
6280	5.5385	3.6364	0.1	287.92
6281	5.5385	3.8182	0.1	276.85
6282	5.5385	4.	0.1	263.24
6283	5.5385	4.1818	0.1	247.21
6284	5.5385	4.3636	0.1	228.93
6285	5.5385	4.5455	0.1	208.58
6286	5.5385	4.7273	0.1	186.34
6287	5.5385	4.9091	0.1	162.43
6288	5.5385	5.0909	0.1	137.06
6289	5.5385	5.2727	0.1	110.45
6290	5.5385	5.4545	0.1	82.833
6291	5.5385	5.6364	0.1	54.352
6292	5.5385	5.8182	0.1	25.148
6293	5.7231	0.18182	0.1	22.949
6294	5.7231	0.36364	0.1	49.905
6295	5.7231	0.54545	0.1	76.15
6296	5.7231	0.72727	0.1	101.58
6297	5.7231	0.90909	0.1	126.06
6298	5.7231	1.0909	0.1	149.38
6299	5.7231	1.2727	0.1	171.35
6300	5.7231	1.4545	0.1	191.77
6301	5.7231	1.6364	0.1	210.44
6302	5.7231	1.8182	0.1	227.21
6303	5.7231	2.	0.1	241.9
6304	5.7231	2.1818	0.1	254.37
6305	5.7231	2.3636	0.1	264.51
6306	5.7231	2.5455	0.1	272.2
6307	5.7231	2.7273	0.1	277.37
6308	5.7231	2.9091	0.1	279.97
6309	5.7231	3.0909	0.1	279.97
6310	5.7231	3.2727	0.1	277.37
6311	5.7231	3.4545	0.1	272.2
6312	5.7231	3.6364	0.1	264.51
6313	5.7231	3.8182	0.1	254.37
6314	5.7231	4.	0.1	241.9
6315	5.7231	4.1818	0.1	227.21
6316	5.7231	4.3636	0.1	210.44
6317	5.7231	4.5455	0.1	191.77
6318	5.7231	4.7273	0.1	171.35
6319	5.7231	4.9091	0.1	149.38
6320	5.7231	5.0909	0.1	126.06
6321	5.7231	5.2727	0.1	101.58
6322	5.7231	5.4545	0.1	76.15
6323	5.7231	5.6364	0.1	49.905
6324	5.7231	5.8182	0.1	22.949
6325	5.9077	0.18182	0.1	20.82
6326	5.9077	0.36364	0.1	45.704
6327	5.9077	0.54545	0.1	69.885
6328	5.9077	0.72727	0.1	93.294
6329	5.9077	0.90909	0.1	115.81
6330	5.9077	1.0909	0.1	137.26
6331	5.9077	1.2727	0.1	157.44
6332	5.9077	1.4545	0.1	176.18
6333	5.9077	1.6364	0.1	193.32
6334	5.9077	1.8182	0.1	208.7
6335	5.9077	2.	0.1	222.16
6336	5.9077	2.1818	0.1	233.59
6337	5.9077	2.3636	0.1	242.88
6338	5.9077	2.5455	0.1	249.92
6339	5.9077	2.7273	0.1	254.66
6340	5.9077	2.9091	0.1	257.04
6341	5.9077	3.0909	0.1	257.04
6342	5.9077	3.2727	0.1	254.66
6343	5.9077	3.4545	0.1	249.92
6344	5.9077	3.6364	0.1	242.88
6345	5.9077	3.8182	0.1	233.59
6346	5.9077	4.	0.1	222.16
6347	5.9077	4.1818	0.1	208.7
6348	5.9077	4.3636	0.1	193.32
6349	5.9077	4.5455	0.1	176.18
6350	5.9077	4.7273	0.1	157.44
6351	5.9077	4.9091	0.1	137.26
6352	5.9077	5.0909	0.1	115.81
6353	5.9077	5.2727	0.1	93.294
6354	5.9077	5.4545	0.1	69.885
6355	5.9077	5.6364	0.1	45.704
6356	5.9077	5.8182	0.1	20.82
6357	6.0923	0.18182	0.1	18.766
6358	6.0923	0.36364	0.1	41.742
6359	6.0923	0.54545	0.1	64.015
6360	6.0923	0.72727	0.1	85.561
6361	6.0923	0.90909	0.1	106.28
6362	6.0923	1.0909	0.1	125.99
6363	6.0923	1.2727	0.1	144.52
6364	6.0923	1.4545	0.1	161.73
6365	6.0923	1.6364	0.1	177.46
6366	6.0923	1.8182	0.1	191.56
6367	6.0923	2.	0.1	203.91
6368	6.0923	2.1818	0.1	214.38
6369	6.0923	2.3636	0.1	222.89
6370	6.0923	2.5455	0.1	229.34
6371	6.0923	2.7273	0.1	233.68
6372	6.0923	2.9091	0.1	235.86
6373	6.0923	3.0909	0.1	235.86
6374	6.0923	3.2727	0.1	233.68
6375	6.0923	3.4545	0.1	229.34
6376	6.0923	3.6364	0.1	222.89
6377	6.0923	3.8182	0.1	214.38
6378	6.0923	4.	0.1	203.91
6379	6.0923	4.1818	0.1	191.56
6380	6.0923	4.3636	0.1	177.46
6381	6.0923	4.5455	0.1	161.73
6382	6.0923	4.7273	0.1	144.52
6383	6.0923	4.9091	0.1	125.99
6384	6.0923	5.0909	0.1	106.28
6385	6.0923	5.2727	0.1	85.561
6386	6.0923	5.4545	0.1	64.015
6387	6.0923	5.6364	0.1	41.742
6388	6.0923	5.8182	0.1	18.766
6389	6.2769	0.18182	0.1	16.794
6390	6.2769	0.36364	0.1	38.01
6391	6.2769	0.54545	0.1	58.52
6392	6.2769	0.72727	0.1	78.347
6393	6.2769	0.90909	0.1	97.397
6394	6.2769	1.0909	0.1	115.51
6395	6.2769	1.2727	0.1	132.54
6396	6.2769	1.4545	0.1	148.34
6397	6.2769	1.6364	0.1	162.77
6398	6.2769	1.8182	0.1	175.7
6399	6.2769	2.	0.1	187.02
6400	6.2769	2.1818	0.1	196.62
6401	6.2769	2.3636	0.1	204.42
6402	6.2769	2.5455	0.1	210.33
6403	6.2769	2.7273	0.1	214.3
6404	6.2769	2.9091	0.1	216.3
6405	6.2769	3.0909	0.1	216.3
6406	6.2769	3.2727	0.1	214.3
6407	6.2769	3.4545	0.1	210.33
6408	6.2769	3.6364	0.1	204.42
6409	6.2769	3.8182	0.1	196.62
6410	6.2769	4.	0.1	187.02
6411	6.2769	4.1818	0.1	175.7
6412	6.2769	4.3636	0.1	162.77
6413	6.2769	4.5455	0.1	148.34
6414	6.2769	4.7273	0.1	132.54
6415	6.2769	4.9091	0.1	115.51
6416	6.2769	5.0909	0.1	97.397
6417	6.2769	5.2727	0.1	78.347
6418	6.2769	5.4545	0.1	58.52
6419	6.2769	5.6364	0.1	38.01
6420	6.2769	5.8182	0.1	16.794
6421	6.4615	0.18182	0.1	14.904
6422	6.4615	0.36364	0.1	34.499
6423	6.4615	0.54545	0.1	53.381
6424	6.4615	0.72727	0.1	71.62
6425	6.4615	0.90909	0.1	89.134
6426	6.4615	1.0909	0.1	105.78
6427	6.4615	1.2727	0.1	121.42
6428	6.4615	1.4545	0.1	135.92
6429	6.4615	1.6364	0.1	149.16
6430	6.4615	1.8182	0.1	161.02
6431	6.4615	2.	0.1	171.4
6432	6.4615	2.1818	0.1	180.2
6433	6.4615	2.3636	0.1	187.34
6434	6.4615	2.5455	0.1	192.76
6435	6.4615	2.7273	0.1	196.39
6436	6.4615	2.9091	0.1	198.22
6437	6.4615	3.0909	0.1	198.22
6438	6.4615	3.2727	0.1	196.39
6439	6.4615	3.4545	0.1	192.76
6440	6.4615	3.6364	0.1	187.34
6441	6.4615	3.8182	0.1	180.2
6442	6.4615	4.	0.1	171.4
6443	6.4615	4.1818	0.1	161.02
6444	6.4615	4.3636	0.1	149.16
6445	6.4615	4.5455	0.1	135.92
6446	6.4615	4.7273	0.1	121.42
6447	6.4615	4.9091	0.1	105.78
6448	6.4615	5.0909	0.1	89.134
6449	6.4615	5.2727	0.1	71.62
6450	6.4615	5.4545	0.1	53.381
6451	6.4615	5.6364	0.1	34.499
6452	6.4615	5.8182	0.1	14.904
6453	6.6462	0.18182	0.1	13.1
6454	6.6462	0.36364	0.1	31.199
6455	6.6462	0.54545	0.1	48.576
6456	6.6462	0.72727	0.1	65.349
6457	6.6462	0.90909	0.1	81.448
6458	6.6462	1.0909	0.1	96.74
6459	6.6462	1.2727	0.1	111.1
6460	6.6462	1.4545	0.1	124.41
6461	6.6462	1.6364	0.1	136.56
6462	6.6462	1.8182	0.1	147.44
6463	6.6462	2.	0.1	156.95
6464	6.6462	2.1818	0.1	165.01
6465	6.6462	2.3636	0.1	171.55
6466	6.6462	2.5455	0.1	176.52
6467	6.6462	2.7273	0.1	179.85
6468	6.6462	2.9091	0.1	181.52
6469	6.6462	3.0909	0.1	181.52
6470	6.6462	3.2727	0.1	179.85
6471	6.6462	3.4545	0.1	176.52
6472	6.6462	3.6364	0.1	171.55
6473	6.6462	3.8182	0.1	165.01
6474	6.6462	4.	0.1	156.95
6475	6.6462	4.1818	0.1	147.44
6476	6.6462	4.3636	0.1	136.56
6477	6.6462	4.5455	0.1	124.41
6478	6.6462	4.7273	0.1	111.1
6479	6.6462	4.9091	0.1	96.74
6480	6.6462	5.0909	0.1	81.448
6481	6.6462	5.2727	0.1	65.349
6482	6.6462	5.4545	0.1	48.576
6483	6.6462	5.6364	0.1	31.199
6484	6.6462	5.8182	0.1	13.1
6485	6.8308	0.18182	0.1	11.382
6486	6.8308	0.36364	0.1	28.101
6487	6.8308	0.54545	0.1	44.087
6488	6.8308	0.72727	0.1	59.506
6489	6.8308	0.90909	0.1	74.298
6490	6.8308	1.0909	0.1	88.343
6491	6.8308	1.2727	0.1	101.53
6492	6.8308	1.4545	0.1	113.74
6493	6.8308	1.6364	0.1	124.88
6494	6.8308	1.8182	0.1	134.85
6495	6.8308	2.	0.1	143.57
6496	6.8308	2.1818	0.1	150.96
6497	6.8308	2.3636	0.1	156.96
6498	6.8308	2.5455	0.1	161.5
6499	6.8308	2.7273	0.1	164.55
6500	6.8308	2.9091	0.1	166.09
6501	6.8308	3.0909	0.1	166.09
6502	6.8308	3.2727	0.1	164.55
6503	6.8308	3.4545	0.1	161.5
6504	6.8308	3.6364	0.1	156.96
6505	6.8308	3.8182	0.1	150.96
6506	6.8308	4.	0.1	143.57
6507	6.8308	4.1818	0.1	134.85
6508	6.8308	4.3636	0.1	124.88
6509	6.8308	4.5455	0.1	113.74
6510	6.8308	4.7273	0.1	101.53
6511	6.8308	4.9091	0.1	88.343
6512	6.8308	5.0909	0.1	74.298
6513	6.8308	5.2727	0.1	59.506
6514	6.8308	5.4545	0.1	44.087
6515	6.8308	5.6364	0.1	28.101
6516	6.8308	5.8182	0.1	11.382
6517	7.0154	0.18182	0.1	9.7484
6518	7.0154	0.36364	0.1	25.194
6519	7.0154	0.54545	0.1	39.893
6520	7.0154	0.72727	0.1	54.063
6521	7.0154	0.90909	0.1	67.649
6522	7.0154	1.0909	0.1	80.542
6523	7.0154	1.2727	0.1	92.64
6524	7.0154	1.4545	0.1	103.84
6525	7.0154	1.6364	0.1	114.06
6526	7.0154	1.8182	0.1	123.2
6527	7.0154	2.	0.1	131.19
6528	7.0154	2.1818	0.1	137.96
6529	7.0154	2.3636	0.1	143.45
6530	7.0154	2.5455	0.1	147.62
6531	7.0154	2.7273	0.1	150.41
6532	7.0154	2.9091	0.1	151.81
6533	7.0154	3.0909	0.1	151.81
6534	7.0154	3.2727	0.1	150.41
6535	7.0154	3.4545	0.1	147.62
6536	7.0154	3.6364	0.1	143.45
6537	7.0154	3.8182	0.1	137.96
6538	7.0154	4.	0.1	131.19
6539	7.0154	4.1818	0.1	123.2
6540	7.0154	4.3636	0.1	114.06
6541	7.0154	4.5455	0.1	103.84
6542	7.0154	4.7273	0.1	92.64
6543	7.0154	4.9091	0.1	80.542
6544	7.0154	5.0909	0.1	67.649
6545	7.0154	5.2727	0.1	54.063
6546	7.0154	5.4545	0.1	39.893
6547	7.0154	5.6364	0.1	25.194
6548	7.0154	5.8182	0.1	9.7484
6549	7.2	0.18182	0.1	8.1993
6550	7.2	0.36364	0.1	22.468
6551	7.2	0.54545	0.1	35.978
6552	7.2	0.72727	0.1	48.991
6553	7.2	0.90909	0.1	61.464
6554	7.2	1.0909	0.1	73.296
6555	7.2	1.2727	0.1	84.393
6556	7.2	1.4545	0.1	94.667
6557	7.2	1.6364	0.1	104.03
6558	7.2	1.8182	0.1	112.41
6559	7.2	2.	0.1	119.73
6560	7.2	2.1818	0.1	125.93
6561	7.2	2.3636	0.1	130.96
6562	7.2	2.5455	0.1	134.77
6563	7.2	2.7273	0.1	137.33
6564	7.2	2.9091	0.1	138.61
6565	7.2	3.0909	0.1	138.61
6566	7.2	3.2727	0.1	137.33
6567	7.2	3.4545	0.1	134.77
6568	7.2	3.6364	0.1	130.96
6569	7.2	3.8182	0.1	125.93
6570	7.2	4.	0.1	119.73
6571	7.2	4.1818	0.1	112.41
6572	7.2	4.3636	0.1	104.03
6573	7.2	4.5455	0.1	94.667
6574	7.2	4.7273	0.1	84.393
6575	7.2	4.9091	0.1	73.296
6576	7.2	5.0909	0.1	61.464
6577	7.2	5.2727	0.1	48.991
6578	7.2	5.4545	0.1	35.978
6579	7.2	5.6364	0.1	22.468
6580	7.2	5.8182	0.1	8.1993
6581	7.3846	0.18182	0.1	6.7332
6582	7.3846	0.36364	0.1	19.913
6583	7.3846	0.54545	0.1	32.322
6584	7.3846	0.72727	0.1	44.267
6585	7.3846	0.90909	0.1	55.71
6586	7.3846	1.0909	0.1	66.562
6587	7.3846	1.2727	0.1	76.737
6588	7.3846	1.4545	0.1	86.154
6589	7.3846	1.6364	0.1	94.735
6590	7.3846	1.8182	0.1	102.41
6591	7.3846	2.	0.1	109.11
6592	7.3846	2.1818	0.1	114.79
6593	7.3846	2.3636	0.1	119.39
6594	7.3846	2.5455	0.1	122.88
6595	7.3846	2.7273	0.1	125.22
6596	7.3846	2.9091	0.1	126.4
6597	7.3846	3.0909	0.1	126.4
6598	7.3846	3.2727	0.1	125.22
6599	7.3846	3.4545	0.1	122.88
6600	7.3846	3.6364	0.1	119.39
6601	7.3846	3.8182	0.1	114.79
6602	7.3846	4.	0.1	109.11
6603	7.3846	4.1818	0.1	102.41
6604	7.3846	4.3636	0.1	94.735
6605	7.3846	4.5455	0.1	86.154
6606	7.3846	4.7273	0.1	76.737
6607	7.3846	4.9091	0.1	66.562
6608	7.3846	5.0909	0.1	55.71
6609	7.3846	5.2727	0.1	44.267
6610	7.3846	5.4545	0.1	32.322
6611	7.3846	5.6364	0.1	19.913
6612	7.3846	5.8182	0.1	6.7332
6613	7.5692	0.18182	0.1	5.3489
6614	7.5692	0.36364	0.1	17.519
6615	7.5692	0.54545	0.1	28.91
6616	7.5692	0.72727	0.1	39.865
6617	7.5692	0.90909	0.1	50.357
6618	7.5692	1.0909	0.1	60.304
6619	7.5692	1.2727	0.1	69.627
6620	7.5692	1.4545	0.1	78.252
6621	7.5692	1.6364	0.1	86.111
6622	7.5692	1.8182	0.1	93.138
6623	7.5692	2.	0.1	99.275
6624	7.5692	2.1818	0.1	104.47
6625	7.5692	2.3636	0.1	108.68
6626	7.5692	2.5455	0.1	111.87
6627	7.5692	2.7273	0.1	114.02
6628	7.5692	2.9091	0.1	115.09
6629	7.5692	3.0909	0.1	115.09
6630	7.5692	3.2727	0.1	114.02
6631	7.5692	3.4545	0.1	111.87
6632	7.5692	3.6364	0.1	108.68
6633	7.5692	3.8182	0.1	104.47
6634	7.5692	4.	0.1	99.275
6635	7.5692	4.1818	0.1	93.138
6636	7.5692	4.3636	0.1	86.111
6637	7.5692	4.5455	0.1	78.252
6638	7.5692	4.7273	0.1	69.627
6639	7.5692	4.9091	0.1	60.304
6640	7.5692	5.0909	0.1	50.357
6641	7.5692	5.2727	0.1	39.865
6642	7.5692	5.4545	0.1	28.91
6643	7.5692	5.6364	0.1	17.519
6644	7.5692	5.8182	0.1	5.3489
6645	7.7538	0.18182	0.1	4.0464
6646	7.7538	0.36364	0.1	15.277
6647	7.7538	0.54545	0.1	25.723
6648	7.7538	0.72727	0.1	35.763
6649	7.7538	0.90909	0.1	45.375
6650	7.7538	1.0909	0.1	54.485
6651	7.7538	1.2727	0.1	63.021
6652	7.7538	1.4545	0.1	70.916
6653	7.7538	1.6364	0.1	78.108
6654	7.7538	1.8182	0.1	84.537
6655	7.7538	2.	0.1	90.151
6656	7.7538	2.1818	0.1	94.904
6657	7.7538	2.3636	0.1	98.755
6658	7.7538	2.5455	0.1	101.67
6659	7.7538	2.7273	0.1	103.63
6660	7.7538	2.9091	0.1	104.62
6661	7.7538	3.0909	0.1	104.62
6662	7.7538	3.2727	0.1	103.63
6663	7.7538	3.4545	0.1	101.67
6664	7.7538	3.6364	0.1	98.755
6665	7.7538	3.8182	0.1	94.904
6666	7.7538	4.	0.1	90.151
6667	7.7538	4.1818	0.1	84.537
6668	7.7538	4.3636	0.1	78.108
6669	7.7538	4.5455	0.1	70.916
6670	7.7538	4.7273	0.1	63.021
6671	7.7538	4.9091	0.1	54.485
6672	7.7538	5.0909	0.1	45.375
6673	7.7538	5.2727	0.1	35.763
6674	7.7538	5.4545	0.1	25.723
6675	7.7538	5.6364	0.1	15.277
6676	7.7538	5.8182	0.1	4.0464
6677	7.9385	0.18182	0.1	2.8292
6678	7.9385	0.36364	0.1	13.176
6679	7.9385	0.54545	0.1	22.747
6680	7.9385	0.72727	0.1	31.939
6681	7.9385	0.90909	0.1	40.736
6682	7.9385	1.0909	0.1	49.071
6683	7.9385	1.2727	0.1	56.879
6684	7.9385	1.4545	0.1	64.1
6685	7.9385	1.6364	0.1	70.676
6686	7.9385	1.8182	0.1	76.553
6687	7.9385	2.	0.1	81.685
6688	7.9385	2.1818	0.1	86.029
6689	7.9385	2.3636	0.1	89.549
6690	7.9385	2.5455	0.1	92.215
6691	7.9385	2.7273	0.1	94.005
6692	7.9385	2.9091	0.1	94.904
6693	7.9385	3.0909	0.1	94.904
6694	7.9385	3.2727	0.1	94.005
6695	7.9385	3.4545	0.1	92.215
6696	7.9385	3.6364	0.1	89.549
6697	7.9385	3.8182	0.1	86.029
6698	7.9385	4.	0.1	81.685
6699	7.9385	4.1818	0.1	76.553
6700	7.9385	4.3636	0.1	70.676
6701	7.9385	4.5455	0.1	64.1
6702	7.9385	4.7273	0.1	56.879
6703	7.9385	4.9091	0.1	49.071
6704	7.9385	5.0909	0.1	40.736
6705	7.9385	5.2727	0.1	31.939
6706	7.9385	5.4545	0.1	22.747
6707	7.9385	5.6364	0.1	13.176
6708	7.9385	5.8182	0.1	2.8292
6709	8.1231	0.18182	0.1	1.7147
6710	8.1231	0.36364	0.1	11.207
6711	8.1231	0.54545	0.1	19.967
6712	8.1231	0.72727	0.1	28.372
6713	8.1231	0.90909	0.1	36.413
6714	8.1231	1.0909	0.1	44.031
6715	8.1231	1.2727	0.1	51.166
6716	8.1231	1.4545	0.1	57.762
6717	8.1231	1.6364	0.1	63.769
6718	8.1231	1.8182	0.1	69.137
6719	8.1231	2.	0.1	73.824
6720	8.1231	2.1818	0.1	77.79
6721	8.1231	2.3636	0.1	81.004
6722	8.1231	2.5455	0.1	83.438
6723	8.1231	2.7273	0.1	85.073
6724	8.1231	2.9091	0.1	85.893
6725	8.1231	3.0909	0.1	85.893
6726	8.1231	3.2727	0.1	85.073
6727	8.1231	3.4545	0.1	83.438
6728	8.1231	3.6364	0.1	81.004
6729	8.1231	3.8182	0.1	77.79
6730	8.1231	4.	0.1	73.824
6731	8.1231	4.1818	0.1	69.137
6732	8.1231	4.3636	0.1	63.769
6733	8.1231	4.5455	0.1	57.762
6734	8.1231	4.7273	0.1	51.166
6735	8.1231	4.9091	0.1	44.031
6736	8.1231	5.0909	0.1	36.413
6737	8.1231	5.2727	0.1	28.372
6738	8.1231	5.4545	0.1	19.967
6739	8.1231	5.6364	0.1	11.207
6740	8.1231	5.8182	0.1	1.7147
6741	8.3077	0.18182	0.1	0.78485
6742	8.3077	0.36364	0.1	9.3623
6743	8.3077	0.54545	0.1	17.368
6744	8.3077	0.72727	0.1	25.042
6745	8.3077	0.90909	0.1	32.382
6746	8.3077	1.0909	0.1	39.335
6747	8.3077	1.2727	0.1	45.845
6748	8.3077	1.4545	0.1	51.864
6749	8.3077	1.6364	0.1	57.344
6750	8.3077	1.8182	0.1	62.242
6751	8.3077	2.	0.1	66.517
6752	8.3077	2.1818	0.1	70.135
6753	8.3077	2.3636	0.1	73.067
6754	8.3077	2.5455	0.1	75.287
6755	8.3077	2.7273	0.1	76.777
6756	8.3077	2.9091	0.1	77.526
6757	8.3077	3.0909	0.1	77.526
6758	8.3077	3.2727	0.1	76.777
6759	8.3077	3.4545	0.1	75.287
6760	8.3077	3.6364	0.1	73.067
6761	8.3077	3.8182	0.1	70.135
6762	8.3077	4.	0.1	66.517
6763	8.3077	4.1818	0.1	62.242
6764	8.3077	4.3636	0.1	57.344
6765	8.3077	4.5455	0.1	51.864
6766	8.3077	4.7273	0.1	45.845
6767	8.3077	4.9091	0.1	39.335
6768	8.3077	5.0909	0.1	32.382
6769	8.3077	5.2727	0.1	25.042
6770	8.3077	5.4545	0.1	17.368
6771	8.3077	5.6364	0.1	9.3623
6772	8.3077	5.8182	0.1	0.78486
6773	8.4923	0.18182	0.1	0.27775
6774	8.4923	0.36364	0.1	7.6323
6775	8.4923	0.54545	0.1	14.936
6776	8.4923	0.72727	0.1	21.931
6777	8.4923	0.90909	0.1	28.62
6778	8.4923	1.0909	0.1	34.954
6779	8.4923	1.2727	0.1	40.886
6780	8.4923	1.4545	0.1	46.37
6781	8.4923	1.6364	0.1	51.362
6782	8.4923	1.8182	0.1	55.823
6783	8.4923	2.	0.1	59.718
6784	8.4923	2.1818	0.1	63.014
6785	8.4923	2.3636	0.1	65.685
6786	8.4923	2.5455	0.1	67.707
6787	8.4923	2.7273	0.1	69.065
6788	8.4923	2.9091	0.1	69.747
6789	8.4923	3.0909	0.1	69.747
6790	8.4923	3.2727	0.1	69.065
6791	8.4923	3.4545	0.1	67.707
6792	8.4923	3.6364	0.1	65.685
6793	8.4923	3.8182	0.1	63.014
6794	8.4923	4.	0.1	59.718
6795	8.4923	4.1818	0.1	55.823
6796	8.4923	4.3636	0.1	51.362
6797	8.4923	4.5455	0.1	46.37
6798	8.4923	4.7273	0.1	40.886
6799	8.4923	4.9091	0.1	34.954
6800	8.4923	5.0909	0.1	28.62
6801	8.4923	5.2727	0.1	21.931
6802	8.4923	5.4545	0.1	14.936
6803	8.4923	5.6364	0.1	7.6323
6804	8.4923	5.8182	0.1	0.27775
6805	8.6769	0.18182	0.1	0.1233
6806	8.6769	0.36364	0.1	6.0087
6807	8.6769	0.54545	0.1	12.658
6808	8.6769	0.72727	0.1	19.02
6809	8.6769	0.90909	0.1	25.103
6810	8.6769	1.0909	0.1	30.863
6811	8.6769	1.2727	0.1	36.257
6812	8.6769	1.4545	0.1	41.244
6813	8.6769	1.6364	0.1	45.784
6814	8.6769	1.8182	0.1	49.841
6815	8.6769	2.	0.1	53.384
6816	8.6769	2.1818	0.1	56.382
6817	8.6769	2.3636	0.1	58.811
6818	8.6769	2.5455	0.1	60.651
6819	8.6769	2.7273	0.1	61.887
6820	8.6769	2.9091	0.1	62.507
6821	8.6769	3.0909	0.1	62.507
6822	8.6769	3.2727	0.1	61.887
6823	8.6769	3.4545	0.1	60.651
6824	8.6769	3.6364	0.1	58.811
6825	8.6769	3.8182	0.1	56.382
6826	8.6769	4.	0.1	53.384
6827	8.6769	4.1818	0.1	49.841
6828	8.6769	4.3636	0.1	45.784
6829	8.6769	4.5455	0.1	41.244
6830	8.6769	4.7273	0.1	36.257
6831	8.6769	4.9091	0.1	30.863
6832	8.6769	5.0909	0.1	25.103
6833	8.6769	5.2727	0.1	19.02
6834	8.6769	5.4545	0.1	12.658
6835	8.6769	5.6364	0.1	6.0087
6836	8.6769	5.8182	0.1	0.1233
6837	8.8615	0.18182	0.1	6.9201e-002
6838	8.8615	0.36364	0.1	4.4835
6839	8.8615	0.54545	0.1	10.522
6840	8.8615	0.72727	0.1	16.294
6841	8.8615	0.90909	0.1	21.811
6842	8.8615	1.0909	0.1	27.037
6843	8.8615	1.2727	0.1	31.93
6844	8.8615	1.4545	0.1	36.454
6845	8.8615	1.6364	0.1	40.575
6846	8.8615	1.8182	0.1	44.257
6847	8.8615	2.	0.1	47.473
6848	8.8615	2.1818	0.1	50.196
6849	8.8615	2.3636	0.1	52.402
6850	8.8615	2.5455	0.1	54.073
6851	8.8615	2.7273	0.1	55.196
6852	8.8615	2.9091	0.1	55.759
6853	8.8615	3.0909	0.1	55.759
6854	8.8615	3.2727	0.1	55.196
6855	8.8615	3.4545	0.1	54.073
6856	8.8615	3.6364	0.1	52.402
6857	8.8615	3.8182	0.1	50.196
6858	8.8615	4.	0.1	47.473
6859	8.8615	4.1818	0.1	44.257
6860	8.8615	4.3636	0.1	40.575
6861	8.8615	4.5455	0.1	36.454
6862	8.8615	4.7273	0.1	31.93
6863	8.8615	4.9091	0.1	27.037
6864	8.8615	5.0909	0.1	21.811
6865	8.8615	5.2727	0.1	16.294
6866	8.8615	5.4545	0.1	10.522
6867	8.8615	5.6364	0.1	4.4835
6868	8.8615	5.8182	0.1	6.9202e-002
6869	9.0462	0.18182	0.1	4.3892e-002
6870	9.0462	0.36364	0.1	3.049
6871	9.0462	0.54545	0.1	8.5156
6872	9.0462	0.72727	0.1	13.735
6873	9.0462	0.90909	0.1	18.725
6874	9.0462	1.0909	0.1	23.45
6875	9.0462	1.2727	0.1	27.877
6876	9.0462	1.4545	0.1	31.972
6877	9.0462	1.6364	0.1	35.701
6878	9.0462	1.8182	0.1	39.036
6879	9.0462	2.	0.1	41.949
6880	9.0462	2.1818	0.1	44.416
6881	9.0462	2.3636	0.1	46.416
6882	9.0462	2.5455	0.1	47.931
6883	9.0462	2.7273	0.1	48.949
6884	9.0462	2.9091	0.1	49.46
6885	9.0462	3.0909	0.1	49.46
6886	9.0462	3.2727	0.1	48.949
6887	9.0462	3.4545	0.1	47.931
6888	9.0462	3.6364	0.1	46.416
6889	9.0462	3.8182	0.1	44.416
6890	9.0462	4.	0.1	41.949
6891	9.0462	4.1818	0.1	39.036
6892	9.0462	4.3636	0.1	35.701
6893	9.0462	4.5455	0.1	31.972
6894	9.0462	4.7273	0.1	27.877
6895	9.0462	4.9091	0.1	23.45
6896	9.0462	5.0909	0.1	18.725
6897	9.0462	5.2727	0.1	13.735
6898	9.0462	5.4545	0.1	8.5156
6899	9.0462	5.6364	0.1	3.049
6900	9.0462	5.8182	0.1	4.3893e-002
6901	9.2308	0.18182	0.1	2.9792e-002
6902	9.2308	0.36364	0.1	1.6978
6903	9.2308	0.54545	0.1	6.6271
6904	9.2308	0.72727	0.1	11.328
6905	9.2308	0.90909	0.1	15.823
6906	9.2308	1.0909	0.1	20.082
6907	9.2308	1.2727	0.1	24.073
6908	9.2308	1.4545	0.1	27.767
6909	9.2308	1.6364	0.1	31.133
6910	9.2308	1.8182	0.1	34.144
6911	9.2308	2.	0.1	36.776
6912	9.2308	2.1818	0.1	39.006
6913	9.2308	2.3636	0.1	40.815
6914	9.2308	2.5455	0.1	42.186
6915	9.2308	2.7273	0.1	43.107
6916	9.2308	2.9091	0.1	43.569
6917	9.2308	3.0909	0.1	43.569
6918	9.2308	3.2727	0.1	43.107
6919	9.2308	3.4545	0.1	42.186
6920	9.2308	3.6364	0.1	40.815
6921	9.2308	3.8182	0.1	39.006
6922	9.2308	4.	0.1	36.776
6923	9.2308	4.1818	0.1	34.144
6924	9.2308	4.3636	0.1	31.133
6925	9.2308	4.5455	0.1	27.767
6926	9.2308	4.7273	0.1	24.073
6927	9.2308	4.9091	0.1	20.082
6928	9.2308	5.0909	0.1	15.823
6929	9.2308	5.2727	0.1	11.328
6930	9.2308	5.4545	0.1	6.6271
6931	9.2308	5.6364	0.1	1.6979
6932	9.2308	5.8182	0.1	2.9794e-002
6933	9.4154	0.18182	0.1	2.1072e-002
6934	9.4154	0.36364	0.1	0.42622
6935	9.4154	0.54545	0.1	4.8452
6936	9.4154	0.72727	0.1	9.0589
6937	9.4154	0.90909	0.1	13.089
6938	9.4154	1.0909	0.1	16.91
6939	9.4154	1.2727	0.1	20.494
6940	9.4154	1.4545	0.1	23.812
6941	9.4154	1.6364	0.1	26.84
6942	9.4154	1.8182	0.1	29.55
6943	9.4154	2.	0.1	31.921
6944	9.4154	2.1818	0.1	33.932
6945	9.4154	2.3636	0.1	35.563
6946	9.4154	2.5455	0.1	36.8
6947	9.4154	2.7273	0.1	37.632
6948	9.4154	2.9091	0.1	38.05
6949	9.4154	3.0909	0.1	38.05
6950	9.4154	3.2727	0.1	37.632
6951	9.4154	3.4545	0.1	36.8
6952	9.4154	3.6364	0.1	35.563
6953	9.4154	3.8182	0.1	33.932
6954	9.4154	4.	0.1	31.921
6955	9.4154	4.1818	0.1	29.55
6956	9.4154	4.3636	0.1	26.84
6957	9.4154	4.5455	0.1	23.812
6958	9.4154	4.7273	0.1	20.494
6959	9.4154	4.9091	0.1	16.91
6960	9.4154	5.0909	0.1	13.089
6961	9.4154	5.2727	0.1	9.0589
6962	9.4154	5.4545	0.1	4.8452
6963	9.4154	5.6364	0.1	0.42623
6964	9.4154	5.8182	0.1	2.1073e-002
6965	9.6	0.18182	0.1	1.5296e-002
6966	9.6	0.36364	0.1	-1.1007e-002
6967	9.6	0.54545	0.1	3.1591
6968	9.6	0.72727	0.1	6.9124
6969	9.6	0.90909	0.1	10.505
6970	9.6	1.0909	0.1	13.914
6971	9.6	1.2727	0.1	17.114
6972	9.6	1.4545	0.1	20.083
6973	9.6	1.6364	0.1	22.794
6974	9.6	1.8182	0.1	25.224
6975	9.6	2.	0.1	27.353
6976	9.6	2.1818	0.1	29.16
6977	9.6	2.3636	0.1	30.627
6978	9.6	2.5455	0.1	31.741
6979	9.6	2.7273	0.1	32.49
6980	9.6	2.9091	0.1	32.867
6981	9.6	3.0909	0.1	32.867
6982	9.6	3.2727	0.1	32.49
6983	9.6	3.4545	0.1	31.741
6984	9.6	3.6364	0.1	30.627
6985	9.6	3.8182	0.1	29.16
6986	9.6	4.	0.1	27.353
6987	9.6	4.1818	0.1	25.224
6988	9.6	4.3636	0.1	22.794
6989	9.6	4.5455	0.1	20.083
6990	9.6	4.7273	0.1	17.114
6991	9.6	4.9091	0.1	13.914
6992	9.6	5.0909	0.1	10.505
6993	9.6	5.2727	0.1	6.9124
6994	9.6	5.4545	0.1	3.1591
6995	9.6	5.6364	0.1	-1.1006e-002
6996	9.6	5.8182	0.1	1.5297e-002
6997	9.7846	0.18182	0.1	1.1277e-002
6998	9.7846	0.36364	0.1	-1.0319e-002
6999	9.7846	0.54545	0.1	1.5584
7000	9.7846	0.72727	0.1	4.8746
7001	9.7846	0.90909	0.1	8.0522
7002	9.7846	1.0909	0.1	11.072
7003	9.7846	1.2727	0.1	13.913
7004	9.7846	1.4545	0.1	16.553
7005	9.7846	1.6364	0.1	18.968
7006	9.7846	1.8182	0.1	21.138
7007	9.7846	2.	0.1	23.042
7008	9.7846	2.1818	0.1	24.66
7009	9.7846	2.3636	0.1	25.976
7010	9.7846	2.5455	0.1	26.976
7011	9.7846	2.7273	0.1	27.649
7012	9.7846	2.9091	0.1	27.988
7013	9.7846	3.0909	0.1	27.988
7014	9.7846	3.2727	0.1	27.649
7015	9.7846	3.4545	0.1	26.976
7016	9.7846	3.6364	0.1	25.976
7017	9.7846	3.8182	0.1	24.66
7018	9.7846	4.	0.1	23.042
7019	9.7846	4.1818	0.1	21.138
7020	9.7846	4.3636	0.1	18.968
7021	9.7846	4.5455	0.1	16.553
7022	9.7846	4.7273	0.1	13.913
7023	9.7846	4.9091	0.1	11.072
7024	9.7846	5.0909	0.1	8.0521
7025	9.7846	5.2727	0.1	4.8746
7026	9.7846	5.4545	0.1	1.5584
7027	9.7846	5.6364	0.1	-1.0318e-002
7028	9.7846	5.8182	0.1	1.1278e-002
7029	9.9692	0.18182	0.1	8.3729e-003
7030	9.9692	0.36364	0.1	-8.1554e-003
7031	9.9692	0.54545	0.1	6.9021e-002
7032	9.9692	0.72727	0.1	2.9318
7033	9.9692	0.90909	0.1	5.7149
7034	9.9692	1.0909	0.1	8.3669
7035	9.9692	1.2727	0.1	10.868
7036	9.9692	1.4545	0.1	13.199
7037	9.9692	1.6364	0.1	15.338
7038	9.9692	1.8182	0.1	17.265
7039	9.9692	2.	0.1	18.96
7040	9.9692	2.1818	0.1	20.404
7041	9.9692	2.3636	0.1	21.581
7042	9.9692	2.5455	0.1	22.476
7043	9.9692	2.7273	0.1	23.08
7044	9.9692	2.9091	0.1	23.383
7045	9.9692	3.0909	0.1	23.383
7046	9.9692	3.2727	0.1	23.08
7047	9.9692	3.4545	0.1	22.476
7048	9.9692	3.6364	0.1	21.581
7049	9.9692	3.8182	0.1	20.404
7050	9.9692	4.	0.1	18.96
7051	9.9692	4.1818	0.1	17.265
7052	9.9692	4.3636	0.1	15.338
7053	9.9692	4.5455	0.1	13.199
7054	9.9692	4.7273	0.1	10.868
7055	9.9692	4.9091	0.1	8.3668
7056	9.9692	5.0909	0.1	5.7149
7057	9.9692	5.2727	0.1	2.9318
7058	9.9692	5.4545	0.1	6.9018e-002
7059	9.9692	5.6364	0.1	-8.1542e-003
7060	9.9692	5.8182	0.1	8.3745e-003
7061	10.154	0.18182	0.1	6.2521e-003
7062	10.154	0.36364	0.1	-5.7927e-003
7063	10.154	0.54545	0.1	6.6825e-004
7064	10.154	0.72727	0.1	1.0732
7065	10.154	0.90909	0.1	3.4763
7066	10.154	1.0909	0.1	5.7777
7067	10.154	1.2727	0.1	7.9578
7068	10.154	1.4545	0.1	9.9979
7069	10.154	1.6364	0.1	11.878
7070	10.154	1.8182	0.1	13.579
7071	10.154	2.	0.1	15.08
7072	10.154	2.1818	0.1	16.364
7073	10.154	2.3636	0.1	17.413
7074	10.154	2.5455	0.1	18.213
7075	10.154	2.7273	0.1	18.753
7076	10.154	2.9091	0.1	19.025
7077	10.154	3.0909	0.1	19.025
7078	10.154	3.2727	0.1	18.753
7079	10.154	3.4545	0.1	18.213
7080	10.154	3.6364	0.1	17.413
7081	10.154	3.8182	0.1	16.364
7082	10.154	4.	0.1	15.08
7083	10.154	4.1818	0.1	13.579
7084	10.154	4.3636	0.1	11.878
7085	10.154	4.5455	0.1	9.9978
7086	10.154	4.7273	0.1	7.9578
7087	10.154	4.9091	0.1	5.7777
7088	10.154	5.0909	0.1	3.4763
7089	10.154	5.2727	0.1	1.0732
7090	10.154	5.4545	0.1	6.689e-004
7091	10.154	5.6364	0.1	-5.7913e-003
7092	10.154	5.8182	0.1	6.2527e-003
7093	10.338	0.18182	0.1	4.6831e-003
7094	10.338	0.36364	0.1	-3.3996e-003
7095	10.338	0.54545	0.1	3.2038e-004
7096	10.338	0.72727	0.1	9.3343e-003
7097	10.338	0.90909	0.1	1.3226
7098	10.338	1.0909	0.1	3.2861
7099	10.338	1.2727	0.1	5.1608
7100	10.338	1.4545	0.1	6.9267
7101	10.338	1.6364	0.1	8.5649
7102	10.338	1.8182	0.1	10.055
7103	10.338	2.	0.1	11.379
7104	10.338	2.1818	0.1	12.515
7105	10.338	2.3636	0.1	13.448
7106	10.338	2.5455	0.1	14.162
7107	10.338	2.7273	0.1	14.644
7108	10.338	2.9091	0.1	14.888
7109	10.338	3.0909	0.1	14.888
7110	10.338	3.2727	0.1	14.644
7111	10.338	3.4545	0.1	14.162
7112	10.338	3.6364	0.1	13.448
7113	10.338	3.8182	0.1	12.515
7114	10.338	4.	0.1	11.379
7115	10.338	4.1818	0.1	10.055
7116	10.338	4.3636	0.1	8.5649
7117	10.338	4.5455	0.1	6.9267
7118	10.338	4.7273	0.1	5.1608
7119	10.338	4.9091	0.1	3.2861
7120	10.338	5.0909	0.1	1.3225
7121	10.338	5.2727	0.1	9.3353e-003
7122	10.338	5.4545	0.1	3.2061e-004
7123	10.338	5.6364	0.1	-3.3988e-003
7124	10.338	5.8182	0.1	4.684e-003
7125	10.523	0.18182	0.1	3.4805e-003
7126	10.523	0.36364	0.1	-1.0546e-003
7127	10.523	0.54545	0.1	5.4688e-004
7128	10.523	0.72727	0.1	1.7758e-003
7129	10.523	0.90909	0.1	1.1004e-002
7130	10.523	1.0909	0.1	0.87882
7131	10.523	1.2727	0.1	2.4564
7132	10.523	1.4545	0.1	3.9629
7133	10.523	1.6364	0.1	5.3745
7134	10.523	1.8182	0.1	6.6704
7135	10.523	2.	0.1	7.83
7136	10.523	2.1818	0.1	8.833
7137	10.523	2.3636	0.1	9.6608
7138	10.523	2.5455	0.1	10.297
7139	10.523	2.7273	0.1	10.729
7140	10.523	2.9091	0.1	10.947
7141	10.523	3.0909	0.1	10.947
7142	10.523	3.2727	0.1	10.729
7143	10.523	3.4545	0.1	10.297
7144	10.523	3.6364	0.1	9.6608
7145	10.523	3.8182	0.1	8.833
7146	10.523	4.	0.1	7.83
7147	10.523	4.1818	0.1	6.6704
7148	10.523	4.3636	0.1	5.3744
7149	10.523	4.5455	0.1	3.9629
7150	10.523	4.7273	0.1	2.4564
7151	10.523	4.9091	0.1	0.87882
7152	10.523	5.0909	0.1	1.1005e-002
7153	10.523	5.2727	0.1	1.7765e-003
7154	10.523	5.4545	0.1	5.4716e-004
7155	10.523	5.6364	0.1	-1.0537e-003
7156	10.523	5.8182	0.1	3.4815e-003
7157	10.708	0.18182	0.1	2.6282e-003
7158	10.708	0.36364	0.1	1.3211e-003
7159	10.708	0.54545	0.1	9.3182e-004
7160	10.708	0.72727	0.1	8.0096e-004
7161	10.708	0.90909	0.1	1.2559e-003
7162	10.708	1.0909	0.1	3.586e-003
7163	10.708	1.2727	0.1	3.7339e-002
7164	10.708	1.4545	0.1	1.0874
7165	10.708	1.6364	0.1	2.2844
7166	10.708	1.8182	0.1	3.4005
7167	10.708	2.	0.1	4.4112
7168	10.708	2.1818	0.1	5.2942
7169	10.708	2.3636	0.1	6.0289
7170	10.708	2.5455	0.1	6.5971
7171	10.708	2.7273	0.1	6.9844
7172	10.708	2.9091	0.1	7.1807
7173	10.708	3.0909	0.1	7.1807
7174	10.708	3.2727	0.1	6.9844
7175	10.708	3.4545	0.1	6.5971
7176	10.708	3.6364	0.1	6.0289
7177	10.708	3.8182	0.1	5.2942
7178	10.708	4.	0.1	4.4112
7179	10.708	4.1818	0.1	3.4005
7180	10.708	4.3636	0.1	2.2844
7181	10.708	4.5455	0.1	1.0874
7182	10.708	4.7273	0.1	3.7339e-002
7183	10.708	4.9091	0.1	3.5864e-003
7184	10.708	5.0909	0.1	1.2566e-003
7185	10.708	5.2727	0.1	8.0259e-004
7186	10.708	5.4545	0.1	9.3248e-004
7187	10.708	5.6364	0.1	1.3223e-003
7188	10.708	5.8182	0.1	2.6288e-003
7189	10.892	0.18182	0.1	1.9948e-003
7190	10.892	0.36364	0.1	3.6683e-003
7191	10.892	0.54545	0.1	1.3022e-003
7192	10.892	0.72727	0.1	5.4845e-004
7193	10.892	0.90909	0.1	-3.0116e-004
7194	10.892	1.0909	0.1	-8.6232e-004
7195	10.892	1.2727	0.1	-1.1322e-003
7196	10.892	1.4545	0.1	-8.1915e-004
7197	10.892	1.6364	0.1	1.7808e-003
7198	10.892	1.8182	0.1	0.23465
7199	10.892	2.	0.1	1.1002
7200	10.892	2.1818	0.1	1.8766
7201	10.892	2.3636	0.1	2.5304
7202	10.892	2.5455	0.1	3.0406
7203	10.892	2.7273	0.1	3.3905
7204	10.892	2.9091	0.1	3.5684
7205	10.892	3.0909	0.1	3.5684
7206	10.892	3.2727	0.1	3.3905
7207	10.892	3.4545	0.1	3.0406
7208	10.892	3.6364	0.1	2.5304
7209	10.892	3.8182	0.1	1.8766
7210	10.892	4.	0.1	1.1002
7211	10.892	4.1818	0.1	0.23464
7212	10.892	4.3636	0.1	1.7811e-003
7213	10.892	4.5455	0.1	-8.1853e-004
7214	10.892	4.7273	0.1	-1.1323e-003
7215	10.892	4.9091	0.1	-8.6167e-004
7216	10.892	5.0909	0.1	-2.993e-004
7217	10.892	5.2727	0.1	5.4929e-004
7218	10.892	5.4545	0.1	1.3018e-003
7219	10.892	5.6364	0.1	3.6692e-003
7220	10.892	5.8182	0.1	1.996e-003
7221	11.077	0.18182	0.1	1.5491e-003
7222	11.077	0.36364	0.1	6.0075e-003
7223	11.077	0.54545	0.1	1.6222e-003
7224	11.077	0.72727	0.1	4.6384e-004
7225	11.077	0.90909	0.1	-1.0123e-003
7226	11.077	1.0909	0.1	-2.1071e-003
7227	11.077	1.2727	0.1	-3.0011e-003
7228	11.077	1.4545	0.1	-3.6722e-003
7229	11.077	1.6364	0.1	-4.1552e-003
7230	11.077	1.8182	0.1	-4.4816e-003
7231	11.077	2.	0.1	-4.6818e-003
7232	11.077	2.1818	0.1	-4.7839e-003
7233	11.077	2.3636	0.1	-4.8119e-003
7234	11.077	2.5455	0.1	-4.754e-003
7235	11.077	2.7273	0.1	-4.1182e-003
7236	11.077	2.9091	0.1	9.154e-002
7237	11.077	3.0909	0.1	9.1539e-002
7238	11.077	3.2727	0.1	-4.118e-003
7239	11.077	3.4545	0.1	-4.7541e-003
7240	11.077	3.6364	0.1	-4.8112e-003
7241	11.077	3.8182	0.1	-4.7839e-003
7242	11.077	4.	0.1	-4.6815e-003
7243	11.077	4.1818	0.1	-4.4811e-003
7244	11.077	4.3636	0.1	-4.155e-003
7245	11.077	4.5455	0.1	-3.671e-003
7246	11.077	4.7273	0.1	-3.0006e-003
7247	11.077	4.9091	0.1	-2.1062e-003
7248	11.077	5.0909	0.1	-1.0109e-003
7249	11.077	5.2727	0.1	4.648e-004
7250	11.077	5.4545	0.1	1.6221e-003
7251	11.077	5.6364	0.1	6.008e-003
7252	11.077	5.8182	0.1	1.5506e-003
7253	11.262	0.18182	0.1	1.3446e-003
7254	11.262	0.36364	0.1	8.4343e-003
7255	11.262	0.54545	0.1	1.9461e-003
7256	11.262	0.72727	0.1	4.679e-004
7257	11.262	0.90909	0.1	-1.4613e-003
7258	11.262	1.0909	0.1	-2.8049e-003
7259	11.262	1.2727	0.1	-3.8611e-003
7260	11.262	1.4545	0.1	-4.6105e-003
7261	11.262	1.6364	0.1	-5.1173e-003
7262	11.262	1.8182	0.1	-5.4292e-003
7263	11.262	2.	0.1	-5.5942e-003
7264	11.262	2.1818	0.1	-5.655e-003
7265	11.262	2.3636	0.1	-5.6536e-003
7266	11.262	2.5455	0.1	-5.6234e-003
7267	11.262	2.7273	0.1	-5.587e-003
7268	11.262	2.9091	0.1	-5.5648e-003
7269	11.262	3.0909	0.1	-5.5649e-003
7270	11.262	3.2727	0.1	-5.5869e-003
7271	11.262	3.4545	0.1	-5.6232e-003
7272	11.262	3.6364	0.1	-5.6533e-003
7273	11.262	3.8182	0.1	-5.655e-003
7274	11.262	4.	0.1	-5.5937e-003
7275	11.262	4.1818	0.1	-5.4285e-003
7276	11.262	4.3636	0.1	-5.1165e-003
7277	11.262	4.5455	0.1	-4.6102e-003
7278	11.262	4.7273	0.1	-3.8605e-003
7279	11.262	4.9091	0.1	-2.8041e-003
7280	11.262	5.0909	0.1	-1.4606e-003
7281	11.262	5.2727	0.1	4.6909e-004
7282	11.262	5.4545	0.1	1.946e-003
7283	11.262	5.6364	0.1	8.4356e-003
7284	11.262	5.8182	0.1	1.3455e-003
7285	11.446	0.18182	0.1	1.3307e-003
7286	11.446	0.36364	0.1	1.0927e-002
7287	11.446	0.54545	0.1	2.2081e-003
7288	11.446	0.72727	0.1	4.4803e-004
7289	11.446	0.90909	0.1	-1.8775e-003
7290	11.446	1.0909	0.1	-3.3928e-003
7291	11.446	1.2727	0.1	-4.5362e-003
7292	11.446	1.4545	0.1	-5.2955e-003
7293	11.446	1.6364	0.1	-5.7655e-003
7294	11.446	1.8182	0.1	-6.0117e-003
7295	11.446	2.	0.1	-6.0987e-003
7296	11.446	2.1818	0.1	-6.0806e-003
7297	11.446	2.3636	0.1	-6.0082e-003
7298	11.446	2.5455	0.1	-5.9204e-003
7299	11.446	2.7273	0.1	-5.8448e-003
7300	11.446	2.9091	0.1	-5.8022e-003
7301	11.446	3.0909	0.1	-5.8017e-003
7302	11.446	3.2727	0.1	-5.8449e-003
7303	11.446	3.4545	0.1	-5.9199e-003
7304	11.446	3.6364	0.1	-6.0082e-003
7305	11.446	3.8182	0.1	-6.0804e-003
7306	11.446	4.	0.1	-6.0985e-003
7307	11.446	4.1818	0.1	-6.0111e-003
7308	11.446	4.3636	0.1	-5.765e-003
7309	11.446	4.5455	0.1	-5.2941e-003
7310	11.446	4.7273	0.1	-4.5354e-003
7311	11.446	4.9091	0.1	-3.3927e-003
7312	11.446	5.0909	0.1	-1.8762e-003
7313	11.446	5.2727	0.1	4.4913e-004
7314	11.446	5.4545	0.1	2.2076e-003
7315	11.446	5.6364	0.1	1.0927e-002
7316	11.446	5.8182	0.1	1.3328e-003
7317	11.631	0.18182	0.1	1.5495e-003
7318	11.631	0.36364	0.1	1.354e-002
7319	11.631	0.54545	0.1	2.4201e-003
7320	11.631	0.72727	0.1	3.9308e-004
7321	11.631	0.90909	0.1	-2.3083e-003
7322	11.631	1.0909	0.1	-3.9681e-003
7323	11.631	1.2727	0.1	-5.1728e-003
7324	11.631	1.4545	0.1	-5.9248e-003
7325	11.631	1.6364	0.1	-6.3486e-003
7326	11.631	1.8182	0.1	-6.528e-003
7327	11.631	2.	0.1	-6.5417e-003
7328	11.631	2.1818	0.1	-6.4541e-003
7329	11.631	2.3636	0.1	-6.322e-003
7330	11.631	2.5455	0.1	-6.1885e-003
7331	11.631	2.7273	0.1	-6.0837e-003
7332	11.631	2.9091	0.1	-6.0256e-003
7333	11.631	3.0909	0.1	-6.0258e-003
7334	11.631	3.2727	0.1	-6.0834e-003
7335	11.631	3.4545	0.1	-6.189e-003
7336	11.631	3.6364	0.1	-6.3216e-003
7337	11.631	3.8182	0.1	-6.454e-003
7338	11.631	4.	0.1	-6.5411e-003
7339	11.631	4.1818	0.1	-6.5276e-003
7340	11.631	4.3636	0.1	-6.3483e-003
7341	11.631	4.5455	0.1	-5.9237e-003
7342	11.631	4.7273	0.1	-5.1725e-003
7343	11.631	4.9091	0.1	-3.9663e-003
7344	11.631	5.0909	0.1	-2.3072e-003
7345	11.631	5.2727	0.1	3.9384e-004
7346	11.631	5.4545	0.1	2.4197e-003
7347	11.631	5.6364	0.1	1.3541e-002
7348	11.631	5.8182	0.1	1.5505e-003
7349	11.815	0.18182	0.1	2.0089e-003
7350	11.815	0.36364	0.1	1.6288e-002
7351	11.815	0.54545	0.1	2.5446e-003
7352	11.815	0.72727	0.1	2.5557e-004
7353	11.815	0.90909	0.1	-2.8207e-003
7354	11.815	1.0909	0.1	-4.6078e-003
7355	11.815	1.2727	0.1	-5.8621e-003
7356	11.815	1.4545	0.1	-6.593e-003
7357	11.815	1.6364	0.1	-6.9612e-003
7358	11.815	1.8182	0.1	-7.0663e-003
7359	11.815	2.	0.1	-7.0014e-003
7360	11.815	2.1818	0.1	-6.8423e-003
7361	11.815	2.3636	0.1	-6.6496e-003
7362	11.815	2.5455	0.1	-6.4717e-003
7363	11.815	2.7273	0.1	-6.3369e-003
7364	11.815	2.9091	0.1	-6.265e-003
7365	11.815	3.0909	0.1	-6.2651e-003
7366	11.815	3.2727	0.1	-6.3369e-003
7367	11.815	3.4545	0.1	-6.4716e-003
7368	11.815	3.6364	0.1	-6.6497e-003
7369	11.815	3.8182	0.1	-6.8418e-003
7370	11.815	4.	0.1	-7.0011e-003
7371	11.815	4.1818	0.1	-7.066e-003
7372	11.815	4.3636	0.1	-6.9605e-003
7373	11.815	4.5455	0.1	-6.5923e-003
7374	11.815	4.7273	0.1	-5.8612e-003
7375	11.815	4.9091	0.1	-4.6075e-003
7376	11.815	5.0909	0.1	-2.8191e-003
7377	11.815	5.2727	0.1	2.5658e-004
7378	11.815	5.4545	0.1	2.5452e-003
7379	11.815	5.6364	0.1	1.6288e-002
7380	11.815	5.8182	0.1	2.0095e-003
7381	12.	0.18182	0.1	2.7784e-003
7382	12.	0.36364	0.1	1.9229e-002
7383	12.	0.54545	0.1	2.5872e-003
7384	12.	0.72727	0.1	3.2179e-005
7385	12.	0.90909	0.1	-3.426e-003
7386	12.	1.0909	0.1	-5.3297e-003
7387	12.	1.2727	0.1	-6.6189e-003
7388	12.	1.4545	0.1	-7.3144e-003
7389	12.	1.6364	0.1	-7.6123e-003
7390	12.	1.8182	0.1	-7.6301e-003
7391	12.	2.	0.1	-7.4775e-003
7392	12.	2.1818	0.1	-7.2382e-003
7393	12.	2.3636	0.1	-6.9817e-003
7394	12.	2.5455	0.1	-6.7572e-003
7395	12.	2.7273	0.1	-6.5927e-003
7396	12.	2.9091	0.1	-6.5072e-003
7397	12.	3.0909	0.1	-6.5068e-003
7398	12.	3.2727	0.1	-6.5927e-003
7399	12.	3.4545	0.1	-6.7566e-003
7400	12.	3.6364	0.1	-6.9818e-003
7401	12.	3.8182	0.1	-7.2378e-003
7402	12.	4.	0.1	-7.4773e-003
7403	12.	4.1818	0.1	-7.6299e-003
7404	12.	4.3636	0.1	-7.6116e-003
7405	12.	4.5455	0.1	-7.3141e-003
7406	12.	4.7273	0.1	-6.6182e-003
7407	12.	4.9091	0.1	-5.3295e-003
7408	12.	5.0909	0.1	-3.4252e-003
7409	12.	5.2727	0.1	3.3374e-005
7410	12.	5.4545	0.1	2.5879e-003
7411	12.	5.6364	0.1	1.9229e-002
7412	12.	5.8182	0.1	2.779e-003
7413	12.185	0.18182	0.1	3.9563e-003
7414	12.185	0.36364	0.1	2.2433e-002
7415	12.185	0.54545	0.1	2.5542e-003
7416	12.185	0.72727	0.1	-2.6932e-004
7417	12.185	0.90909	0.1	-4.124e-003
7418	12.185	1.0909	0.1	-6.1325e-003
7419	12.185	1.2727	0.1	-7.4396e-003
7420	12.185	1.4545	0.1	-8.0813e-003
7421	12.185	1.6364	0.1	-8.2888e-003
7422	12.185	1.8182	0.1	-8.2026e-003
7423	12.185	2.	0.1	-7.9477e-003
7424	12.185	2.1818	0.1	-7.6204e-003
7425	12.185	2.3636	0.1	-7.2962e-003
7426	12.185	2.5455	0.1	-7.0243e-003
7427	12.185	2.7273	0.1	-6.8322e-003
7428	12.185	2.9091	0.1	-6.7331e-003
7429	12.185	3.0909	0.1	-6.7337e-003
7430	12.185	3.2727	0.1	-6.832e-003
7431	12.185	3.4545	0.1	-7.0242e-003
7432	12.185	3.6364	0.1	-7.2959e-003
7433	12.185	3.8182	0.1	-7.6202e-003
7434	12.185	4.	0.1	-7.9474e-003
7435	12.185	4.1818	0.1	-8.2024e-003
7436	12.185	4.3636	0.1	-8.2882e-003
7437	12.185	4.5455	0.1	-8.0805e-003
7438	12.185	4.7273	0.1	-7.4394e-003
7439	12.185	4.9091	0.1	-6.1315e-003
7440	12.185	5.0909	0.1	-4.1227e-003
7441	12.185	5.2727	0.1	-2.6832e-004
7442	12.185	5.4545	0.1	2.5547e-003
7443	12.185	5.6364	0.1	2.2434e-002
7444	12.185	5.8182	0.1	3.9565e-003
7445	12.369	0.18182	0.1	5.6205e-003
7446	12.369	0.36364	0.1	2.5933e-002
7447	12.369	0.54545	0.1	2.4033e-003
7448	12.369	0.72727	0.1	-6.9172e-004
7449	12.369	0.90909	0.1	-4.9573e-003
7450	12.369	1.0909	0.1	-7.055e-003
7451	12.369	1.2727	0.1	-8.3605e-003
7452	12.369	1.4545	0.1	-8.9296e-003
7453	12.369	1.6364	0.1	-9.0149e-003
7454	12.369	1.8182	0.1	-8.8033e-003
7455	12.369	2.	0.1	-8.4314e-003
7456	12.369	2.1818	0.1	-8.008e-003
7457	12.369	2.3636	0.1	-7.6133e-003
7458	12.369	2.5455	0.1	-7.2978e-003
7459	12.369	2.7273	0.1	-7.0829e-003
7460	12.369	2.9091	0.1	-6.9755e-003
7461	12.369	3.0909	0.1	-6.9753e-003
7462	12.369	3.2727	0.1	-7.0836e-003
7463	12.369	3.4545	0.1	-7.2982e-003
7464	12.369	3.6364	0.1	-7.6129e-003
7465	12.369	3.8182	0.1	-8.0076e-003
7466	12.369	4.	0.1	-8.431e-003
7467	12.369	4.1818	0.1	-8.8032e-003
7468	12.369	4.3636	0.1	-9.0145e-003
7469	12.369	4.5455	0.1	-8.9296e-003
7470	12.369	4.7273	0.1	-8.3596e-003
7471	12.369	4.9091	0.1	-7.0544e-003
7472	12.369	5.0909	0.1	-4.956e-003
7473	12.369	5.2727	0.1	-6.905e-004
7474	12.369	5.4545	0.1	2.404e-003
7475	12.369	5.6364	0.1	2.5934e-002
7476	12.369	5.8182	0.1	5.6214e-003
7477	12.554	0.18182	0.1	7.8918e-003
7478	12.554	0.36364	0.1	2.9771e-002
7479	12.554	0.54545	0.1	2.0989e-003
7480	12.554	0.72727	0.1	-1.2645e-003
7481	12.554	0.90909	0.1	-5.9573e-003
7482	12.554	1.0909	0.1	-8.1223e-003
7483	12.554	1.2727	0.1	-9.3987e-003
7484	12.554	1.4545	0.1	-9.8481e-003
7485	12.554	1.6364	0.1	-9.797e-003
7486	12.554	1.8182	0.1	-9.4346e-003
7487	12.554	2.	0.1	-8.9288e-003
7488	12.554	2.1818	0.1	-8.4022e-003
7489	12.554	2.3636	0.1	-7.9417e-003
7490	12.554	2.5455	0.1	-7.5931e-003
7491	12.554	2.7273	0.1	-7.3668e-003
7492	12.554	2.9091	0.1	-7.2579e-003
7493	12.554	3.0909	0.1	-7.2576e-003
7494	12.554	3.2727	0.1	-7.3666e-003
7495	12.554	3.4545	0.1	-7.5928e-003
7496	12.554	3.6364	0.1	-7.9419e-003
7497	12.554	3.8182	0.1	-8.4022e-003
7498	12.554	4.	0.1	-8.9282e-003
7499	12.554	4.1818	0.1	-9.4338e-003
7500	12.554	4.3636	0.1	-9.7966e-003
7501	12.554	4.5455	0.1	-9.8476e-003
7502	12.554	4.7273	0.1	-9.3984e-003
7503	12.554	4.9091	0.1	-8.1224e-003
7504	12.554	5.0909	0.1	-5.9563e-003
7505	12.554	5.2727	0.1	-1.2633e-003
7506	12.554	5.4545	0.1	2.0993e-003
7507	12.554	5.6364	0.1	2.9771e-002
7508	12.554	5.8182	0.1	7.8926e-003
7509	12.738	0.18182	0.1	1.0959e-002
7510	12.738	0.36364	0.1	3.4032e-002
7511	12.738	0.54545	0.1	1.6383e-003
7512	12.738	0.72727	0.1	-1.9817e-003
7513	12.738	0.90909	0.1	-7.1145e-003
7514	12.738	1.0909	0.1	-9.317e-003
7515	12.738	1.2727	0.1	-1.0527e-002
7516	12.738	1.4545	0.1	-1.0824e-002
7517	12.738	1.6364	0.1	-1.059e-002
7518	12.738	1.8182	0.1	-1.0047e-002
7519	12.738	2.	0.1	-9.3902e-003
7520	12.738	2.1818	0.1	-8.7597e-003
7521	12.738	2.3636	0.1	-8.2452e-003
7522	12.738	2.5455	0.1	-7.8831e-003
7523	12.738	2.7273	0.1	-7.6688e-003
7524	12.738	2.9091	0.1	-7.5722e-003
7525	12.738	3.0909	0.1	-7.572e-003
7526	12.738	3.2727	0.1	-7.6687e-003
7527	12.738	3.4545	0.1	-7.8838e-003
7528	12.738	3.6364	0.1	-8.2443e-003
7529	12.738	3.8182	0.1	-8.759e-003
7530	12.738	4.	0.1	-9.3902e-003
7531	12.738	4.1818	0.1	-1.0047e-002
7532	12.738	4.3636	0.1	-1.0589e-002
7533	12.738	4.5455	0.1	-1.0824e-002
7534	12.738	4.7273	0.1	-1.0527e-002
7535	12.738	4.9091	0.1	-9.3171e-003
7536	12.738	5.0909	0.1	-7.1136e-003
7537	12.738	5.2727	0.1	-1.9799e-003
7538	12.738	5.4545	0.1	1.6388e-003
7539	12.738	5.6364	0.1	3.4033e-002
7540	12.738	5.8182	0.1	1.096e-002
7541	12.923	0.18182	0.1	1.5012e-002
7542	12.923	0.36364	0.1	3.8767e-002
7543	12.923	0.54545	0.1	9.7445e-004
7544	12.923	0.72727	0.1	-2.8732e-003
7545	12.923	0.90909	0.1	-8.4555e-003
7546	12.923	1.0909	0.1	-1.0653e-002
7547	12.923	1.2727	0.1	-1.1748e-002
7548	12.923	1.4545	0.1	-1.1839e-002
7549	12.923	1.6364	0.1	-1.1375e-002
7550	12.923	1.8182	0.1	-1.0617e-002
7551	12.923	2.	0.1	-9.7931e-003
7552	12.923	2.1818	0.1	-9.0622e-003
7553	12.923	2.3636	0.1	-8.5188e-003
7554	12.923	2.5455	0.1	-8.1838e-003
7555	12.923	2.7273	0.1	-8.018e-003
7556	12.923	2.9091	0.1	-7.9569e-003
7557	12.923	3.0909	0.1	-7.9577e-003
7558	12.923	3.2727	0.1	-8.0171e-003
7559	12.923	3.4545	0.1	-8.1835e-003
7560	12.923	3.6364	0.1	-8.5188e-003
7561	12.923	3.8182	0.1	-9.0622e-003
7562	12.923	4.	0.1	-9.7925e-003
7563	12.923	4.1818	0.1	-1.0616e-002
7564	12.923	4.3636	0.1	-1.1375e-002
7565	12.923	4.5455	0.1	-1.1838e-002
7566	12.923	4.7273	0.1	-1.1747e-002
7567	12.923	4.9091	0.1	-1.0652e-002
7568	12.923	5.0909	0.1	-8.4531e-003
7569	12.923	5.2727	0.1	-2.8723e-003
7570	12.923	5.4545	0.1	9.7453e-004
7571	12.923	5.6364	0.1	3.8768e-002
7572	12.923	5.8182	0.1	1.5012e-002
7573	13.108	0.18182	0.1	2.0327e-002
7574	13.108	0.36364	0.1	4.4082e-002
7575	13.108	0.54545	0.1	1.1463e-004
7576	13.108	0.72727	0.1	-3.9131e-003
7577	13.108	0.90909	0.1	-9.9363e-003
7578	13.108	1.0909	0.1	-1.207e-002
7579	13.108	1.2727	0.1	-1.2987e-002
7580	13.108	1.4545	0.1	-1.2804e-002
7581	13.108	1.6364	0.1	-1.2052e-002
7582	13.108	1.8182	0.1	-1.1037e-002
7583	13.108	2.	0.1	-1.003e-002
7584	13.108	2.1818	0.1	-9.2147e-003
7585	13.108	2.3636	0.1	-8.6873e-003
7586	13.108	2.5455	0.1	-8.4406e-003
7587	13.108	2.7273	0.1	-8.3862e-003
7588	13.108	2.9091	0.1	-8.4012e-003
7589	13.108	3.0909	0.1	-8.4011e-003
7590	13.108	3.2727	0.1	-8.3859e-003
7591	13.108	3.4545	0.1	-8.4406e-003
7592	13.108	3.6364	0.1	-8.6865e-003
7593	13.108	3.8182	0.1	-9.2142e-003
7594	13.108	4.	0.1	-1.003e-002
7595	13.108	4.1818	0.1	-1.1037e-002
7596	13.108	4.3636	0.1	-1.2052e-002
7597	13.108	4.5455	0.1	-1.2804e-002
7598	13.108	4.7273	0.1	-1.2986e-002
7599	13.108	4.9091	0.1	-1.207e-002
7600	13.108	5.0909	0.1	-9.9358e-003
7601	13.108	5.2727	0.1	-3.9108e-003
7602	13.108	5.4545	0.1	1.1467e-004
7603	13.108	5.6364	0.1	4.4082e-002
7604	13.108	5.8182	0.1	2.0327e-002
7605	13.292	0.18182	0.1	2.7118e-002
7606	13.292	0.36364	0.1	4.9985e-002
7607	13.292	0.54545	0.1	-1.0335e-003
7608	13.292	0.72727	0.1	-5.1551e-003
7609	13.292	0.90909	0.1	-1.1602e-002
7610	13.292	1.0909	0.1	-1.3591e-002
7611	13.292	1.2727	0.1	-1.4242e-002
7612	13.292	1.4545	0.1	-1.3702e-002
7613	13.292	1.6364	0.1	-1.2587e-002
7614	13.292	1.8182	0.1	-1.1265e-002
7615	13.292	2.	0.1	-1.006e-002
7616	13.292	2.1818	0.1	-9.1884e-003
7617	13.292	2.3636	0.1	-8.7492e-003
7618	13.292	2.5455	0.1	-8.6933e-003
7619	13.292	2.7273	0.1	-8.8489e-003
7620	13.292	2.9091	0.1	-9.0011e-003
7621	13.292	3.0909	0.1	-9.0012e-003
7622	13.292	3.2727	0.1	-8.8484e-003
7623	13.292	3.4545	0.1	-8.6935e-003
7624	13.292	3.6364	0.1	-8.7491e-003
7625	13.292	3.8182	0.1	-9.1886e-003
7626	13.292	4.	0.1	-1.0059e-002
7627	13.292	4.1818	0.1	-1.1265e-002
7628	13.292	4.3636	0.1	-1.2586e-002
7629	13.292	4.5455	0.1	-1.3702e-002
7630	13.292	4.7273	0.1	-1.4242e-002
7631	13.292	4.9091	0.1	-1.359e-002
7632	13.292	5.0909	0.1	-1.1601e-002
7633	13.292	5.2727	0.1	-5.1536e-003
7634	13.292	5.4545	0.1	-1.0317e-003
7635	13.292	5.6364	0.1	4.9985e-002
7636	13.292	5.8182	0.1	2.7118e-002
7637	13.477	0.18182	0.1	3.564e-002
7638	13.477	0.36364	0.1	5.6518e-002
7639	13.477	0.54545	0.1	-2.5095e-003
7640	13.477	0.72727	0.1	-6.5999e-003
7641	13.477	0.90909	0.1	-1.3423e-002
7642	13.477	1.0909	0.1	-1.5155e-002
7643	13.477	1.2727	0.1	-1.5434e-002
7644	13.477	1.4545	0.1	-1.4426e-002
7645	13.477	1.6364	0.1	-1.2854e-002
7646	13.477	1.8182	0.1	-1.1161e-002
7647	13.477	2.	0.1	-9.7437e-003
7648	13.477	2.1818	0.1	-8.8675e-003
7649	13.477	2.3636	0.1	-8.6283e-003
7650	13.477	2.5455	0.1	-8.9168e-003
7651	13.477	2.7273	0.1	-9.4355e-003
7652	13.477	2.9091	0.1	-9.8212e-003
7653	13.477	3.0909	0.1	-9.8212e-003
7654	13.477	3.2727	0.1	-9.4354e-003
7655	13.477	3.4545	0.1	-8.9165e-003
7656	13.477	3.6364	0.1	-8.6273e-003
7657	13.477	3.8182	0.1	-8.8671e-003
7658	13.477	4.	0.1	-9.7429e-003
7659	13.477	4.1818	0.1	-1.1161e-002
7660	13.477	4.3636	0.1	-1.2854e-002
7661	13.477	4.5455	0.1	-1.4425e-002
7662	13.477	4.7273	0.1	-1.5434e-002
7663	13.477	4.9091	0.1	-1.5154e-002
7664	13.477	5.0909	0.1	-1.3421e-002
7665	13.477	5.2727	0.1	-6.5981e-003
7666	13.477	5.4545	0.1	-2.5098e-003
7667	13.477	5.6364	0.1	5.6519e-002
7668	13.477	5.8182	0.1	3.5642e-002
7669	13.662	0.18182	0.1	4.6149e-002
7670	13.662	0.36364	0.1	6.3758e-002
7671	13.662	0.54545	0.1	-4.3074e-003
7672	13.662	0.72727	0.1	-8.1712e-003
7673	13.662	0.90909	0.1	-1.5288e-002
7674	13.662	1.0909	0.1	-1.6618e-002
7675	13.662	1.2727	0.1	-1.6382e-002
7676	13.662	1.4545	0.1	-1.4767e-002
7677	13.662	1.6364	0.1	-1.2619e-002
7678	13.662	1.8182	0.1	-1.0476e-002
7679	13.662	2.	0.1	-8.8326e-003
7680	13.662	2.1818	0.1	-8.0227e-003
7681	13.662	2.3636	0.1	-8.1502e-003
7682	13.662	2.5455	0.1	-9.0146e-003
7683	13.662	2.7273	0.1	-1.0129e-002
7684	13.662	2.9091	0.1	-1.0895e-002
7685	13.662	3.0909	0.1	-1.0895e-002
7686	13.662	3.2727	0.1	-1.0129e-002
7687	13.662	3.4545	0.1	-9.0149e-003
7688	13.662	3.6364	0.1	-8.1498e-003
7689	13.662	3.8182	0.1	-8.0223e-003
7690	13.662	4.	0.1	-8.8332e-003
7691	13.662	4.1818	0.1	-1.0476e-002
7692	13.662	4.3636	0.1	-1.2619e-002
7693	13.662	4.5455	0.1	-1.4767e-002
7694	13.662	4.7273	0.1	-1.6382e-002
7695	13.662	4.9091	0.1	-1.6617e-002
7696	13.662	5.0909	0.1	-1.5286e-002
7697	13.662	5.2727	0.1	-8.17e-003
7698	13.662	5.4545	0.1	-4.3086e-003
7699	13.662	5.6364	0.1	6.3758e-002
7700	13.662	5.8182	0.1	4.6151e-002
7701	13.846	0.18182	0.1	5.8651e-002
7702	13.846	0.36364	0.1	7.1625e-002
7703	13.846	0.54545	0.1	-6.5186e-003
7704	13.846	0.72727	0.1	-9.8735e-003
7705	13.846	0.90909	0.1	-1.7146e-002
7706	13.846	1.0909	0.1	-1.7885e-002
7707	13.846	1.2727	0.1	-1.6955e-002
7708	13.846	1.4545	0.1	-1.4558e-002
7709	13.846	1.6364	0.1	-1.1682e-002
7710	13.846	1.8182	0.1	-8.9859e-003
7711	13.846	2.	0.1	-7.1007e-003
7712	13.846	2.1818	0.1	-6.463e-003
7713	13.846	2.3636	0.1	-7.1972e-003
7714	13.846	2.5455	0.1	-8.9773e-003
7715	13.846	2.7273	0.1	-1.1031e-002
7716	13.846	2.9091	0.1	-1.2399e-002
7717	13.846	3.0909	0.1	-1.2399e-002
7718	13.846	3.2727	0.1	-1.1032e-002
7719	13.846	3.4545	0.1	-8.9768e-003
7720	13.846	3.6364	0.1	-7.1967e-003
7721	13.846	3.8182	0.1	-6.4629e-003
7722	13.846	4.	0.1	-7.1e-003
7723	13.846	4.1818	0.1	-8.9854e-003
7724	13.846	4.3636	0.1	-1.1682e-002
7725	13.846	4.5455	0.1	-1.4558e-002
7726	13.846	4.7273	0.1	-1.6955e-002
7727	13.846	4.9091	0.1	-1.7884e-002
7728	13.846	5.0909	0.1	-1.7146e-002
7729	13.846	5.2727	0.1	-9.8715e-003
7730	13.846	5.4545	0.1	-6.5178e-003
7731	13.846	5.6364	0.1	7.1625e-002
7732	13.846	5.8182	0.1	5.8652e-002
7733	14.031	0.18182	0.1	7.2908e-002
7734	14.031	0.36364	0.1	8.0014e-002
7735	14.031	0.54545	0.1	-9.1682e-003
7736	14.031	0.72727	0.1	-1.1615e-002
7737	14.031	0.90909	0.1	-1.8839e-002
7738	14.031	1.0909	0.1	-1.874e-002
7739	14.031	1.2727	0.1	-1.6895e-002
7740	14.031	1.4545	0.1	-1.3501e-002
7741	14.031	1.6364	0.1	-9.704e-003
7742	14.031	1.8182	0.1	-6.3203e-003
7743	14.031	2.	0.1	-4.1707e-003
7744	14.031	2.1818	0.1	-3.8518e-003
7745	14.031	2.3636	0.1	-5.5333e-003
7746	14.031	2.5455	0.1	-8.7192e-003
7747	14.031	2.7273	0.1	-1.2219e-002
7748	14.031	2.9091	0.1	-1.4516e-002
7749	14.031	3.0909	0.1	-1.4517e-002
7750	14.031	3.2727	0.1	-1.2219e-002
7751	14.031	3.4545	0.1	-8.7199e-003
7752	14.031	3.6364	0.1	-5.5329e-003
7753	14.031	3.8182	0.1	-3.8519e-003
7754	14.031	4.	0.1	-4.1697e-003
7755	14.031	4.1818	0.1	-6.3197e-003
7756	14.031	4.3636	0.1	-9.7036e-003
7757	14.031	4.5455	0.1	-1.35e-002
7758	14.031	4.7273	0.1	-1.6895e-002
7759	14.031	4.9091	0.1	-1.8738e-002
7760	14.031	5.0909	0.1	-1.8837e-002
7761	14.031	5.2727	0.1	-1.1613e-002
7762	14.031	5.4545	0.1	-9.1693e-003
7763	14.031	5.6364	0.1	8.0014e-002
7764	14.031	5.8182	0.1	7.2909e-002
7765	14.215	0.18182	0.1	8.812e-002
7766	14.215	0.36364	0.1	8.8647e-002
7767	14.215	0.54545	0.1	-1.2331e-002
7768	14.215	0.72727	0.1	-1.33e-002
7769	14.215	0.90909	0.1	-2.017e-002
7770	14.215	1.0909	0.1	-1.8924e-002
7771	14.215	1.2727	0.1	-1.5897e-002
7772	14.215	1.4545	0.1	-1.1246e-002
7773	14.215	1.6364	0.1	-6.2888e-003
7774	14.215	1.8182	0.1	-2.0424e-003
7775	14.215	2.	0.1	4.0013e-004
7776	14.215	2.1818	0.1	1.9801e-004
7777	14.215	2.3636	0.1	-2.907e-003
7778	14.215	2.5455	0.1	-8.195e-003
7779	14.215	2.7273	0.1	-1.3869e-002
7780	14.215	2.9091	0.1	-1.757e-002
7781	14.215	3.0909	0.1	-1.757e-002
7782	14.215	3.2727	0.1	-1.3869e-002
7783	14.215	3.4545	0.1	-8.1952e-003
7784	14.215	3.6364	0.1	-2.9053e-003
7785	14.215	3.8182	0.1	1.977e-004
7786	14.215	4.	0.1	3.9966e-004
7787	14.215	4.1818	0.1	-2.042e-003
7788	14.215	4.3636	0.1	-6.2881e-003
7789	14.215	4.5455	0.1	-1.1245e-002
7790	14.215	4.7273	0.1	-1.5897e-002
7791	14.215	4.9091	0.1	-1.8924e-002
7792	14.215	5.0909	0.1	-2.0169e-002
7793	14.215	5.2727	0.1	-1.3298e-002
7794	14.215	5.4545	0.1	-1.2332e-002
7795	14.215	5.6364	0.1	8.8647e-002
7796	14.215	5.8182	0.1	8.8122e-002
7797	14.4	0.18182	0.1	0.10269
7798	14.4	0.36364	0.1	9.7064e-002
7799	14.4	0.54545	0.1	-1.6038e-002
7800	14.4	0.72727	0.1	-1.4738e-002
7801	14.4	0.90909	0.1	-2.0812e-002
7802	14.4	1.0909	0.1	-1.8038e-002
7803	14.4	1.2727	0.1	-1.3514e-002
7804	14.4	1.4545	0.1	-7.3026e-003
7805	14.4	1.6364	0.1	-8.9268e-004
7806	14.4	1.8182	0.1	4.4387e-003
7807	14.4	2.	0.1	7.2147e-003
7808	14.4	2.1818	0.1	6.2125e-003
7809	14.4	2.3636	0.1	1.0172e-003
7810	14.4	2.5455	0.1	-7.3578e-003
7811	14.4	2.7273	0.1	-1.6231e-002
7812	14.4	2.9091	0.1	-2.2006e-002
7813	14.4	3.0909	0.1	-2.2006e-002
7814	14.4	3.2727	0.1	-1.623e-002
7815	14.4	3.4545	0.1	-7.3574e-003
7816	14.4	3.6364	0.1	1.0167e-003
7817	14.4	3.8182	0.1	6.2128e-003
7818	14.4	4.	0.1	7.2151e-003
7819	14.4	4.1818	0.1	4.4394e-003
7820	14.4	4.3636	0.1	-8.9283e-004
7821	14.4	4.5455	0.1	-7.3018e-003
7822	14.4	4.7273	0.1	-1.3514e-002
7823	14.4	4.9091	0.1	-1.8037e-002
7824	14.4	5.0909	0.1	-2.0811e-002
7825	14.4	5.2727	0.1	-1.4736e-002
7826	14.4	5.4545	0.1	-1.6038e-002
7827	14.4	5.6364	0.1	9.7064e-002
7828	14.4	5.8182	0.1	0.1027
7829	14.585	0.18182	0.1	0.11382
7830	14.585	0.36364	0.1	0.10449
7831	14.585	0.54545	0.1	-2.0314e-002
7832	14.585	0.72727	0.1	-1.5652e-002
7833	14.585	0.90909	0.1	-2.0297e-002
7834	14.585	1.0909	0.1	-1.5525e-002
7835	14.585	1.2727	0.1	-9.1568e-003
7836	14.585	1.4545	0.1	-1.0601e-003
7837	14.585	1.6364	0.1	7.1338e-003
7838	14.585	1.8182	0.1	1.3821e-002
7839	14.585	2.	0.1	1.6959e-002
7840	14.585	2.1818	0.1	1.4762e-002
7841	14.585	2.3636	0.1	6.5476e-003
7842	14.585	2.5455	0.1	-6.2685e-003
7843	14.585	2.7273	0.1	-1.9747e-002
7844	14.585	2.9091	0.1	-2.8507e-002
7845	14.585	3.0909	0.1	-2.8507e-002
7846	14.585	3.2727	0.1	-1.9748e-002
7847	14.585	3.4545	0.1	-6.2684e-003
7848	14.585	3.6364	0.1	6.5473e-003
7849	14.585	3.8182	0.1	1.4762e-002
7850	14.585	4.	0.1	1.6959e-002
7851	14.585	4.1818	0.1	1.3822e-002
7852	14.585	4.3636	0.1	7.1347e-003
7853	14.585	4.5455	0.1	-1.0594e-003
7854	14.585	4.7273	0.1	-9.1571e-003
7855	14.585	4.9091	0.1	-1.5525e-002
7856	14.585	5.0909	0.1	-2.0296e-002
7857	14.585	5.2727	0.1	-1.565e-002
7858	14.585	5.4545	0.1	-2.0313e-002
7859	14.585	5.6364	0.1	0.10449
7860	14.585	5.8182	0.1	0.11382
7861	14.769	0.18182	0.1	0.11701
7862	14.769	0.36364	0.1	0.10964
7863	14.769	0.54545	0.1	-2.5221e-002
7864	14.769	0.72727	0.1	-1.5692e-002
7865	14.769	0.90909	0.1	-1.8003e-002
7866	14.769	1.0909	0.1	-1.0659e-002
7867	14.769	1.2727	0.1	-2.0765e-003
7868	14.769	1.4545	0.1	8.2367e-003
7869	14.769	1.6364	0.1	1.859e-002
7870	14.769	1.8182	0.1	2.696e-002
7871	14.769	2.	0.1	3.0507e-002
7872	14.769	2.1818	0.1	2.6503e-002
7873	14.769	2.3636	0.1	1.386e-002
7874	14.769	2.5455	0.1	-5.3119e-003
7875	14.769	2.7273	0.1	-2.5255e-002
7876	14.769	2.9091	0.1	-3.8154e-002
7877	14.769	3.0909	0.1	-3.8154e-002
7878	14.769	3.2727	0.1	-2.5255e-002
7879	14.769	3.4545	0.1	-5.3116e-003
7880	14.769	3.6364	0.1	1.3861e-002
7881	14.769	3.8182	0.1	2.6504e-002
7882	14.769	4.	0.1	3.0508e-002
7883	14.769	4.1818	0.1	2.6961e-002
7884	14.769	4.3636	0.1	1.859e-002
7885	14.769	4.5455	0.1	8.2373e-003
7886	14.769	4.7273	0.1	-2.0762e-003
7887	14.769	4.9091	0.1	-1.0659e-002
7888	14.769	5.0909	0.1	-1.8002e-002
7889	14.769	5.2727	0.1	-1.5691e-002
7890	14.769	5.4545	0.1	-2.522e-002
7891	14.769	5.6364	0.1	0.10964
7892	14.769	5.8182	0.1	0.11701
7893	14.954	0.18182	0.1	0.10584
7894	14.954	0.36364	0.1	0.11062
7895	14.954	0.54545	0.1	-3.0856e-002
7896	14.954	0.72727	0.1	-1.4413e-002
7897	14.954	0.90909	0.1	-1.308e-002
7898	14.954	1.0909	0.1	-2.4409e-003
7899	14.954	1.2727	0.1	8.6971e-003
7900	14.954	1.4545	0.1	2.143e-002
7901	14.954	1.6364	0.1	3.4164e-002
7902	14.954	1.8182	0.1	4.445e-002
7903	14.954	2.	0.1	4.815e-002
7904	14.954	2.1818	0.1	4.1384e-002
7905	14.954	2.3636	0.1	2.2548e-002
7906	14.954	2.5455	0.1	-5.4673e-003
7907	14.954	2.7273	0.1	-3.4187e-002
7908	14.954	2.9091	0.1	-5.2538e-002
7909	14.954	3.0909	0.1	-5.2538e-002
7910	14.954	3.2727	0.1	-3.4187e-002
7911	14.954	3.4545	0.1	-5.4664e-003
7912	14.954	3.6364	0.1	2.2548e-002
7913	14.954	3.8182	0.1	4.1385e-002
7914	14.954	4.	0.1	4.815e-002
7915	14.954	4.1818	0.1	4.4451e-002
7916	14.954	4.3636	0.1	3.4164e-002
7917	14.954	4.5455	0.1	2.143e-002
7918	14.954	4.7273	0.1	8.6979e-003
7919	14.954	4.9091	0.1	-2.4395e-003
7920	14.954	5.0909	0.1	-1.3078e-002
7921	14.954	5.2727	0.1	-1.4412e-002
7922	14.954	5.4545	0.1	-3.0858e-002
7923	14.954	5.6364	0.1	0.11062
7924	14.954	5.8182	0.1	0.10584
7925	15.138	0.18182	0.1	7.213e-002
7926	15.138	0.36364	0.1	0.10478
7927	15.138	0.54545	0.1	-3.7296e-002
7928	15.138	0.72727	0.1	-1.1178e-002
7929	15.138	0.90909	0.1	-4.2919e-003
7930	15.138	1.0909	0.1	1.0638e-002
7931	15.138	1.2727	0.1	2.4787e-002
7932	15.138	1.4545	0.1	4.0135e-002
7933	15.138	1.6364	0.1	5.5679e-002
7934	15.138	1.8182	0.1	6.8193e-002
7935	15.138	2.	0.1	7.2316e-002
7936	15.138	2.1818	0.1	6.1033e-002
7937	15.138	2.3636	0.1	3.1839e-002
7938	15.138	2.5455	0.1	-8.9068e-003
7939	15.138	2.7273	0.1	-4.8932e-002
7940	15.138	2.9091	0.1	-7.3854e-002
7941	15.138	3.0909	0.1	-7.3855e-002
7942	15.138	3.2727	0.1	-4.8931e-002
7943	15.138	3.4545	0.1	-8.9078e-003
7944	15.138	3.6364	0.1	3.1838e-002
7945	15.138	3.8182	0.1	6.1034e-002
7946	15.138	4.	0.1	7.2317e-002
7947	15.138	4.1818	0.1	6.8192e-002
7948	15.138	4.3636	0.1	5.5679e-002
7949	15.138	4.5455	0.1	4.0137e-002
7950	15.138	4.7273	0.1	2.4787e-002
7951	15.138	4.9091	0.1	1.064e-002
7952	15.138	5.0909	0.1	-4.292e-003
7953	15.138	5.2727	0.1	-1.1175e-002
7954	15.138	5.4545	0.1	-3.7297e-002
7955	15.138	5.6364	0.1	0.10478
7956	15.138	5.8182	0.1	7.2131e-002
7957	15.323	0.18182	0.1	6.7104e-003
7958	15.323	0.36364	0.1	8.8416e-002
7959	15.323	0.54545	0.1	-4.4985e-002
7960	15.323	0.72727	0.1	-5.7138e-003
7961	15.323	0.90909	0.1	9.4971e-003
7962	15.323	1.0909	0.1	3.0343e-002
7963	15.323	1.2727	0.1	4.7825e-002
7964	15.323	1.4545	0.1	6.4926e-002
7965	15.323	1.6364	0.1	8.1332e-002
7966	15.323	1.8182	0.1	9.5327e-002
7967	15.323	2.	0.1	9.5724e-002
7968	15.323	2.1818	0.1	7.6603e-002
7969	15.323	2.3636	0.1	3.667e-002
7970	15.323	2.5455	0.1	-1.9696e-002
7971	15.323	2.7273	0.1	-7.3269e-002
7972	15.323	2.9091	0.1	-0.10491
7973	15.323	3.0909	0.1	-0.10491
7974	15.323	3.2727	0.1	-7.3268e-002
7975	15.323	3.4545	0.1	-1.9695e-002
7976	15.323	3.6364	0.1	3.667e-002
7977	15.323	3.8182	0.1	7.6603e-002
7978	15.323	4.	0.1	9.5724e-002
7979	15.323	4.1818	0.1	9.5327e-002
7980	15.323	4.3636	0.1	8.1332e-002
7981	15.323	4.5455	0.1	6.4926e-002
7982	15.323	4.7273	0.1	4.7825e-002
7983	15.323	4.9091	0.1	3.0343e-002
7984	15.323	5.0909	0.1	9.4972e-003
7985	15.323	5.2727	0.1	-5.7112e-003
7986	15.323	5.4545	0.1	-4.4984e-002
7987	15.323	5.6364	0.1	8.8415e-002
7988	15.323	5.8182	0.1	6.7122e-003
7989	15.508	0.18182	0.1	-9.6057e-002
7990	15.508	0.36364	0.1	5.8558e-002
7991	15.508	0.54545	0.1	-5.3248e-002
7992	15.508	0.72727	0.1	3.1869e-003
7993	15.508	0.90909	0.1	3.072e-002
7994	15.508	1.0909	0.1	6.0112e-002
7995	15.508	1.2727	0.1	8.2913e-002
7996	15.508	1.4545	0.1	0.10469
7997	15.508	1.6364	0.1	0.12753
7998	15.508	1.8182	0.1	0.13965
7999	15.508	2.	0.1	0.14541
8000	15.508	2.1818	0.1	0.1141
8001	15.508	2.3636	0.1	3.5283e-002
8002	15.508	2.5455	0.1	-4.7785e-002
8003	15.508	2.7273	0.1	-0.11227
8004	15.508	2.9091	0.1	-0.14798
8005	15.508	3.0909	0.1	-0.14798
8006	15.508	3.2727	0.1	-0.11227
8007	15.508	3.4545	0.1	-4.7785e-002
8008	15.508	3.6364	0.1	3.5284e-002
8009	15.508	3.8182	0.1	0.1141
8010	15.508	4.	0.1	0.14541
8011	15.508	4.1818	0.1	0.13965
8012	15.508	4.3636	0.1	0.12753
8013	15.508	4.5455	0.1	0.10469
8014	15.508	4.7273	0.1	8.2913e-002
8015	15.508	4.9091	0.1	6.0113e-002
8016	15.508	5.0909	0.1	3.0721e-002
8017	15.508	5.2727	0.1	3.1886e-003
8018	15.508	5.4545	0.1	-5.3249e-002
8019	15.508	5.6364	0.1	5.8558e-002
8020	15.508	5.8182	0.1	-9.6057e-002
8021	15.692	0.18182	0.1	-0.23513
8022	15.692	0.36364	0.1	1.0831e-002
8023	15.692	0.54545	0.1	-6.4521e-002
8024	15.692	0.72727	0.1	1.1765e-002
8025	15.692	0.90909	0.1	5.5144e-002
8026	15.692	1.0909	0.1	9.8433e-002
8027	15.692	1.2727	0.1	0.13356
8028	15.692	1.4545	0.1	0.14849
8029	15.692	1.6364	0.1	0.13851
8030	15.692	1.8182	0.1	0.16005
8031	15.692	2.	0.1	0.10511
8032	15.692	2.1818	0.1	2.9485e-002
8033	15.692	2.3636	0.1	-8.5439e-003
8034	15.692	2.5455	0.1	-9.6065e-002
8035	15.692	2.7273	0.1	-0.173
8036	15.692	2.9091	0.1	-0.20193
8037	15.692	3.0909	0.1	-0.20193
8038	15.692	3.2727	0.1	-0.173
8039	15.692	3.4545	0.1	-9.6065e-002
8040	15.692	3.6364	0.1	-8.5432e-003
8041	15.692	3.8182	0.1	2.9486e-002
8042	15.692	4.	0.1	0.10511
8043	15.692	4.1818	0.1	0.16005
8044	15.692	4.3636	0.1	0.13851
8045	15.692	4.5455	0.1	0.14849
8046	15.692	4.7273	0.1	0.13357
8047	15.692	4.9091	0.1	9.8433e-002
8048	15.692	5.0909	0.1	5.5147e-002
8049	15.692	5.2727	0.1	1.1767e-002
8050	15.692	5.4545	0.1	-6.452e-002
8051	15.692	5.6364	0.1	1.083e-002
8052	15.692	5.8182	0.1	-0.23513
8053	15.877	0.18182	0.1	-0.36717
8054	15.877	0.36364	0.1	-3.4568e-002
8055	15.877	0.54545	0.1	-5.9902e-002
8056	15.877	0.72727	0.1	3.2822e-002
8057	15.877	0.90909	0.1	9.833e-002
8058	15.877	1.0909	0.1	0.16601
8059	15.877	1.2727	0.1	0.21032
8060	15.877	1.4545	0.1	0.27102
8061	15.877	1.6364	0.1	0.42791
8062	15.877	1.8182	0.1	0.30088
8063	15.877	2.	0.1	0.40263
8064	15.877	2.1818	0.1	0.35097
8065	15.877	2.3636	0.1	-0.10228
8066	15.877	2.5455	0.1	-0.22971
8067	15.877	2.7273	0.1	-0.24096
8068	15.877	2.9091	0.1	-0.2554
8069	15.877	3.0909	0.1	-0.2554
8070	15.877	3.2727	0.1	-0.24096
8071	15.877	3.4545	0.1	-0.22971
8072	15.877	3.6364	0.1	-0.10228
8073	15.877	3.8182	0.1	0.35097
8074	15.877	4.	0.1	0.40264
8075	15.877	4.1818	0.1	0.30088
8076	15.877	4.3636	0.1	0.42792
8077	15.877	4.5455	0.1	0.27102
8078	15.877	4.7273	0.1	0.21032
8079	15.877	4.9091	0.1	0.16601
8080	15.877	5.0909	0.1	9.8331e-002
8081	15.877	5.2727	0.1	3.2823e-002
8082	15.877	5.4545	0.1	-5.9903e-002
8083	15.877	5.6364	0.1	-3.4568e-002
8084	15.877	5.8182	0.1	-0.36717
8085	16.062	0.18182	0.1	-0.44435
8086	16.062	0.36364	0.1	-8.835e-002
8087	16.062	0.54545	0.1	-7.2914e-002
8088	16.062	0.72727	0.1	1.3108e-002
8089	16.062	0.90909	0.1	8.34e-002
8090	16.062	1.0909	0.1	0.15167
8091	16.062	1.2727	0.1	0.29423
8092	16.062	1.4545	0.1	0.43775
8093	16.062	1.6364	0.1	-0.28468
8094	16.062	1.8182	0.1	0.17898
8095	16.062	2.	0.1	-0.87152
8096	16.062	2.1818	0.1	-1.4475
8097	16.062	2.3636	0.1	-0.18315
8098	16.062	2.5455	0.1	-0.36157
8099	16.062	2.7273	0.1	-0.31994
8100	16.062	2.9091	0.1	-0.26438
8101	16.062	3.0909	0.1	-0.26438
8102	16.062	3.2727	0.1	-0.31994
8103	16.062	3.4545	0.1	-0.36157
8104	16.062	3.6364	0.1	-0.18315
8105	16.062	3.8182	0.1	-1.4475
8106	16.062	4.	0.1	-0.87152
8107	16.062	4.1818	0.1	0.17898
8108	16.062	4.3636	0.1	-0.28468
8109	16.062	4.5455	0.1	0.43775
8110	16.062	4.7273	0.1	0.29423
8111	16.062	4.9091	0.1	0.15167
8112	16.062	5.0909	0.1	8.3402e-002
8113	16.062	5.2727	0.1	1.311e-002
8114	16.062	5.4545	0.1	-7.2913e-002
8115	16.062	5.6364	0.1	-8.8351e-002
8116	16.062	5.8182	0.1	-0.44435
8117	16.246	0.18182	0.1	8.1204e-003
8118	16.246	0.36364	0.1	0.18464
8119	16.246	0.54545	0.1	0.16157
8120	16.246	0.72727	0.1	0.20508
8121	16.246	0.90909	0.1	0.26043
8122	16.246	1.0909	0.1	0.44468
8123	16.246	1.2727	0.1	0.54389
8124	16.246	1.4545	0.1	0.52413
8125	16.246	1.6364	0.1	3.7236
8126	16.246	1.8182	0.1	1.7654
8127	16.246	2.	0.1	5.0764
8128	16.246	2.1818	0.1	3.7063
8129	16.246	2.3636	0.1	-2.1665
8130	16.246	2.5455	0.1	-0.26941
8131	16.246	2.7273	0.1	-0.28198
8132	16.246	2.9091	0.1	-0.17132
8133	16.246	3.0909	0.1	-0.17132
8134	16.246	3.2727	0.1	-0.28198
8135	16.246	3.4545	0.1	-0.26941
8136	16.246	3.6364	0.1	-2.1665
8137	16.246	3.8182	0.1	3.7063
8138	16.246	4.	0.1	5.0764
8139	16.246	4.1818	0.1	1.7654
8140	16.246	4.3636	0.1	3.7236
8141	16.246	4.5455	0.1	0.52413
8142	16.246	4.7273	0.1	0.54389
8143	16.246	4.9091	0.1	0.44468
8144	16.246	5.0909	0.1	0.26044
8145	16.246	5.2727	0.1	0.20508
8146	16.246	5.4545	0.1	0.16157
8147	16.246	5.6364	0.1	0.18463
8148	16.246	5.8182	0.1	8.1189e-003
8149	16.431	0.18182	0.1	0.72775
8150	16.431	0.36364	0.1	4.8156e-002
8151	16.431	0.54545	0.1	-0.26993
8152	16.431	0.72727	0.1	-0.50802
8153	16.431	0.90909	0.1	-0.60871
8154	16.431	1.0909	0.1	-0.77306
8155	16.431	1.2727	0.1	-0.69374
8156	16.431	1.4545	0.1	-0.61558
8157	16.431	1.6364	0.1	-2.8913
8158	16.431	1.8182	0.1	-7.4478
8159	16.431	2.	0.1	-27.869
8160	16.431	2.1818	0.1	-14.315
8161	16.431	2.3636	0.1	2.2137
8162	16.431	2.5455	0.1	-0.53485
8163	16.431	2.7273	0.1	8.0522e-002
8164	16.431	2.9091	0.1	0.11134
8165	16.431	3.0909	0.1	0.11134
8166	16.431	3.2727	0.1	8.0523e-002
8167	16.431	3.4545	0.1	-0.53485
8168	16.431	3.6364	0.1	2.2137
8169	16.431	3.8182	0.1	-14.315
8170	16.431	4.	0.1	-27.869
8171	16.431	4.1818	0.1	-7.4478
8172	16.431	4.3636	0.1	-2.8913
8173	16.431	4.5455	0.1	-0.61558
8174	16.431	4.7273	0.1	-0.69374
8175	16.431	4.9091	0.1	-0.77306
8176	16.431	5.0909	0.1	-0.60871
8177	16.431	5.2727	0.1	-0.50802
8178	16.431	5.4545	0.1	-0.26993
8179	16.431	5.6364	0.1	4.8156e-002
8180	16.431	5.8182	0.1	0.72775
8181	16.615	0.18182	0.1	7.4204
8182	16.615	0.36364	0.1	3.3715
8183	16.615	0.54545	0.1	2.6286
8184	16.615	0.72727	0.1	2.3669
8185	16.615	0.90909	0.1	2.3303
8186	16.615	1.0909	0.1	3.0618
8187	16.615	1.2727	0.1	2.0043
8188	16.615	1.4545	0.1	9.3426
8189	16.615	1.6364	0.1	-9.046
8190	16.615	1.8182	0.1	51.456
8191	16.615	2.	0.1	230.09
8192	16.615	2.1818	0.1	-11.884
8193	16.615	2.3636	0.1	6.9799
8194	16.615	2.5455	0.1	-2.2345
8195	16.615	2.7273	0.1	1.3995
8196	16.615	2.9091	0.1	0.31825
8197	16.615	3.0909	0.1	0.31825
8198	16.615	3.2727	0.1	1.3995
8199	16.615	3.4545	0.1	-2.2345
8200	16.615	3.6364	0.1	6.98
8201	16.615	3.8182	0.1	-11.884
8202	16.615	4.	0.1	230.09
8203	16.615	4.1818	0.1	51.455
8204	16.615	4.3636	0.1	-9.046
8205	16.615	4.5455	0.1	9.3426
8206	16.615	4.7273	0.1	2.0043
8207	16.615	4.9091	0.1	3.0618
8208	16.615	5.0909	0.1	2.3303
8209	16.615	5.2727	0.1	2.3669
8210	16.615	5.4545	0.1	2.6286
8211	16.615	5.6364	0.1	3.3715
8212	16.615	5.8182	0.1	7.4204
8213	16.967	3.8182	0.1	-9.0138
8214	16.967	3.6364	0.1	16.613
8215	16.967	3.4545	0.1	-0.52421
8216	16.967	3.2727	0.1	1.7618
8217	16.967	3.0909	0.1	0.85561
8218	16.967	2.9091	0.1	0.85561
8219	16.967	2.7273	0.1	1.7618
8220	16.967	2.5455	0.1	-0.52421
8221	16.967	2.3636	0.1	16.613
8222	16.967	2.1818	0.1	-9.0137
8223	16.8	3.8182	0.1	-80.519
8224	16.8	3.6364	0.1	14.238
8225	16.8	3.4545	0.1	-0.2201
8226	16.8	3.2727	0.1	1.631
8227	16.8	3.0909	0.1	0.88545
8228	16.8	2.9091	0.1	0.88545
8229	16.8	2.7273	0.1	1.631
8230	16.8	2.5455	0.1	-0.2201
8231	16.8	2.3636	0.1	14.238
8232	16.8	2.1818	0.1	-80.519
8233	16.967	5.8182	0.1	-3.5396
8234	16.967	5.6364	0.1	-5.3099
8235	16.967	5.4545	0.1	-5.409
8236	16.967	5.2727	0.1	-6.0793
8237	16.967	5.0909	0.1	-7.1678
8238	16.967	4.9091	0.1	-8.1825
8239	16.967	4.7273	0.1	-12.142
8240	16.967	4.5455	0.1	-11.076
8241	16.967	4.3636	0.1	-44.153
8242	16.967	4.1818	0.1	7.4477
8243	16.967	4.	0.1	579.1
8244	16.8	4.	0.1	269.86
8245	16.8	4.1818	0.1	7.5665
8246	16.8	4.3636	0.1	-48.395
8247	16.8	4.5455	0.1	-12.532
8248	16.8	4.7273	0.1	-14.842
8249	16.8	4.9091	0.1	-10.311
8250	16.8	5.0909	0.1	-9.3894
8251	16.8	5.2727	0.1	-8.2041
8252	16.8	5.4545	0.1	-7.4839
8253	16.8	5.6364	0.1	-7.3302
8254	16.8	5.8182	0.1	-5.645
8255	16.967	0.18182	0.1	-3.5396
8256	16.967	0.36364	0.1	-5.3099
8257	16.967	0.54545	0.1	-5.409
8258	16.967	0.72727	0.1	-6.0793
8259	16.967	0.90909	0.1	-7.1678
8260	16.967	1.0909	0.1	-8.1825
8261	16.967	1.2727	0.1	-12.142
8262	16.967	1.4545	0.1	-11.076
8263	16.967	1.6364	0.1	-44.153
8264	16.967	1.8182	0.1	7.4476
8265	16.967	2.	0.1	579.1
8266	16.8	2.	0.1	269.86
8267	16.8	1.8182	0.1	7.5664
8268	16.8	1.6364	0.1	-48.395
8269	16.8	1.4545	0.1	-12.532
8270	16.8	1.2727	0.1	-14.842
8271	16.8	1.0909	0.1	-10.311
8272	16.8	0.90909	0.1	-9.3894
8273	16.8	0.72727	0.1	-8.2041
8274	16.8	0.54545	0.1	-7.4839
8275	16.8	0.36364	0.1	-7.3302
8276	16.8	0.18182	0.1	-5.645
8277	16.967	6.	0.1	11.221
8278	17.147	6.	0.1	1.0688
8279	17.327	6.	0.1	-1.2274
8280	17.508	6.	0.1	-0.46911
8281	17.688	6.	0.1	-0.26907
8282	17.868	6.	0.1	-2.142e-002
8283	18.049	6.	0.1	0.11343
8284	18.229	6.	0.1	0.18908
8285	18.409	6.	0.1	0.2146
8286	18.59	6.	0.1	0.20923
8287	18.77	6.	0.1	0.18579
8288	18.95	6.	0.1	0.15404
8289	19.131	6.	0.1	0.12037
8290	19.311	6.	0.1	8.8767e-002
8291	19.491	6.	0.1	6.1454e-002
8292	19.672	6.	0.1	3.952e-002
8293	19.852	6.	0.1	2.3292e-002
8294	20.032	6.	0.1	1.2641e-002
8295	20.213	6.	0.1	7.2084e-003
8296	20.393	6.	0.1	6.4891e-003
8297	20.574	6.	0.1	9.9592e-003
8298	20.754	6.	0.1	1.7128e-002
8299	20.934	6.	0.1	2.7562e-002
8300	21.115	6.	0.1	4.0896e-002
8301	21.295	6.	0.1	5.6821e-002
8302	21.475	6.	0.1	7.5123e-002
8303	21.656	6.	0.1	9.5668e-002
8304	21.836	6.	0.1	0.11841
8305	22.016	6.	0.1	0.14341
8306	22.197	6.	0.1	0.17084
8307	22.377	6.	0.1	0.20101
8308	22.557	6.	0.1	0.23437
8309	22.738	6.	0.1	0.27173
8310	22.918	6.	0.1	0.31395
8311	23.098	6.	0.1	0.36372
8312	23.279	6.	0.1	0.41954
8313	23.459	6.	0.1	0.50512
8314	23.639	6.	0.1	0.57112
8315	23.82	6.	0.1	0.93434
8316	24.	6.	0.1	-1.1165
8317	24.	5.8182	0.1	-2.2686
8318	24.	5.6364	0.1	-2.298
8319	24.	5.4545	0.1	-2.4732
8320	24.	5.2727	0.1	-2.4965
8321	24.	5.0909	0.1	-2.5233
8322	24.	4.9091	0.1	-2.5366
8323	24.	4.7273	0.1	-2.5462
8324	24.	4.5455	0.1	-2.5522
8325	24.	4.3636	0.1	-2.556
8326	24.	4.1818	0.1	-2.5584
8327	24.	4.	0.1	-2.5597
8328	24.	3.8182	0.1	-2.5604
8329	24.	3.6364	0.1	-2.5607
8330	24.	3.4545	0.1	-2.5607
8331	24.	3.2727	0.1	-2.5607
8332	24.	3.0909	0.1	-2.5607
8333	24.	2.9091	0.1	-2.5607
8334	24.	2.7273	0.1	-2.5607
8335	24.	2.5455	0.1	-2.5607
8336	24.	2.3636	0.1	-2.5607
8337	24.	2.1818	0.1	-2.5604
8338	24.	2.	0.1	-2.5597
8339	24.	1.8182	0.1	-2.5584
8340	24.	1.6364	0.1	-2.556
8341	24.	1.4545	0.1	-2.5522
8342	24.	1.2727	0.1	-2.5462
8343	24.	1.0909	0.1	-2.5366
8344	24.	0.90909	0.1	-2.5233
8345	24.	0.72727	0.1	-2.4965
8346	24.	0.54545	0.1	-2.4732
8347	24.	0.36364	0.1	-2.298
8348	24.	0.18182	0.1	-2.2686
8349	1.5894e-015	0.18182	0.1	1194.5
8350	3.1789e-015	0.36364	0.1	2308.3
8351	4.7683e-015	0.54545	0.1	2825.1
8352	6.3578e-015	0.72727	0.1	3134.4
8353	7.9472e-015	0.90909	0.1	3341.7
8354	9.5366e-015	1.0909	0.1	3490.4
8355	1.1126e-014	1.2727	0.1	3600.7
8356	1.2716e-014	1.4545	0.1	3684.5
8357	1.4305e-014	1.6364	0.1	3749.1
8358	1.5894e-014	1.8182	0.1	3799.2
8359	1.7484e-014	2.	0.1	3838.1
8360	1.9073e-014	2.1818	0.1	3867.9
8361	2.0663e-014	2.3636	0.1	3890.1
8362	2.2252e-014	2.5455	0.1	3906.
8363	2.3842e-014	2.7273	0.1	3916.1
8364	2.5431e-014	2.9091	0.1	3921.
8365	2.702e-014	3.0909	0.1	3921.
8366	2.861e-014	3.2727	0.1	3916.1
8367	3.0199e-014	3.4545	0.1	3906.
8368	3.1789e-014	3.6364	0.1	3890.1
8369	3.3378e-014	3.8182	0.1	3867.9
8370	3.4968e-014	4.	0.1	3838.1
8371	3.6557e-014	4.1818	0.1	3799.2
8372	3.8147e-014	4.3636	0.1	3749.1
8373	3.9736e-014	4.5455	0.1	3684.5
8374	4.1325e-014	4.7273	0.1	3600.7
8375	4.2915e-014	4.9091	0.1	3490.4
8376	4.4504e-014	5.0909	0.1	3341.7
8377	4.6094e-014	5.2727	0.1	3134.4
8378	4.7683e-014	5.4545	0.1	2825.1
8379	4.9273e-014	5.6364	0.1	2308.3
8380	5.0862e-014	5.8182	0.1	1194.5
8381	24.	0.	0.1	-1.1165
8382	23.82	0.	0.1	0.93434
8383	23.639	0.	0.1	0.57113
8384	23.459	0.	0.1	0.50512
8385	23.279	0.	0.1	0.41954
8386	23.098	0.	0.1	0.36373
8387	22.918	0.	0.1	0.31395
8388	22.738	0.	0.1	0.27173
8389	22.557	0.	0.1	0.23437
8390	22.377	0.	0.1	0.20101
8391	22.197	0.	0.1	0.17084
8392	22.016	0.	0.1	0.14341
8393	21.836	0.	0.1	0.11841
8394	21.656	0.	0.1	9.5665e-002
8395	21.475	0.	0.1	7.5129e-002
8396	21.295	0.	0.1	5.6824e-002
8397	21.115	0.	0.1	4.0899e-002
8398	20.934	0.	0.1	2.7562e-002
8399	20.754	0.	0.1	1.7132e-002
8400	20.574	0.	0.1	9.9617e-003
8401	20.393	0.	0.1	6.4908e-003
8402	20.213	0.	0.1	7.2065e-003
8403	20.032	0.	0.1	1.264e-002
8404	19.852	0.	0.1	2.3294e-002
8405	19.672	0.	0.1	3.9522e-002
8406	19.491	0.	0.1	6.1455e-002
8407	19.311	0.	0.1	8.8768e-002
8408	19.131	0.	0.1	0.12038
8409	18.95	0.	0.1	0.15404
8410	18.77	0.	0.1	0.1858
8411	18.59	0.	0.1	0.20923
8412	18.409	0.	0.1	0.21459
8413	18.229	0.	0.1	0.18908
8414	18.049	0.	0.1	0.11343
8415	17.868	0.	0.1	-2.1418e-002
8416	17.688	0.	0.1	-0.26907
8417	17.508	0.	0.1	-0.46911
8418	17.327	0.	0.1	-1.2274
8419	17.147	0.	0.1	1.0688
8420	16.967	0.	0.1	11.221
8421	16.8	0.	0.1	14.35
8422	16.615	4.7994e-031	0.1	1.9342
8423	16.431	4.7461e-031	0.1	-0.68043
8424	16.246	4.6928e-031	0.1	0.32638
8425	16.062	4.6394e-031	0.1	0.58214
8426	15.877	4.5861e-031	0.1	0.90604
8427	15.692	4.5328e-031	0.1	1.0728
8428	15.508	4.4794e-031	0.1	1.1524
8429	15.323	4.4261e-031	0.1	1.155
8430	15.138	4.3728e-031	0.1	1.1069
8431	14.954	4.3195e-031	0.1	1.0275
8432	14.769	4.2661e-031	0.1	0.93237
8433	14.585	4.2128e-031	0.1	0.83243
8434	14.4	4.1595e-031	0.1	0.73472
8435	14.215	4.1062e-031	0.1	0.64329
8436	14.031	4.0528e-031	0.1	0.56013
8437	13.846	3.9995e-031	0.1	0.4859
8438	13.662	3.9462e-031	0.1	0.42047
8439	13.477	3.8929e-031	0.1	0.36325
8440	13.292	3.8395e-031	0.1	0.31348
8441	13.108	3.7862e-031	0.1	0.27023
8442	12.923	3.7329e-031	0.1	0.23264
8443	12.738	3.6795e-031	0.1	0.19993
8444	12.554	3.6262e-031	0.1	0.1713
8445	12.369	3.5729e-031	0.1	0.14612
8446	12.185	3.5196e-031	0.1	0.12377
8447	12.	3.4662e-031	0.1	0.10375
8448	11.815	3.4129e-031	0.1	8.5641e-002
8449	11.631	3.3596e-031	0.1	6.9045e-002
8450	11.446	3.3063e-031	0.1	5.361e-002
8451	11.262	3.2529e-031	0.1	3.9078e-002
8452	11.077	3.1996e-031	0.1	2.5174e-002
8453	10.892	3.1463e-031	0.1	1.1732e-002
8454	10.708	3.093e-031	0.1	-1.5013e-003
8455	10.523	3.0396e-031	0.1	-1.47e-002
8456	10.338	2.9863e-031	0.1	-2.7954e-002
8457	10.154	2.933e-031	0.1	-4.1474e-002
8458	9.9692	2.8796e-031	0.1	-5.535e-002
8459	9.7846	2.8263e-031	0.1	-6.9713e-002
8460	9.6	2.773e-031	0.1	-8.4708e-002
8461	9.4154	2.7197e-031	0.1	-0.10045
8462	9.2308	2.6663e-031	0.1	-0.11706
8463	9.0462	2.613e-031	0.1	-0.13466
8464	8.8615	2.5597e-031	0.1	-0.15337
8465	8.6769	2.5064e-031	0.1	-0.17332
8466	8.4923	2.453e-031	0.1	-0.19466
8467	8.3077	2.3997e-031	0.1	-0.21752
8468	8.1231	2.3464e-031	0.1	-0.24205
8469	7.9385	2.2931e-031	0.1	-0.26842
8470	7.7538	2.2397e-031	0.1	-0.29679
8471	7.5692	2.1864e-031	0.1	-0.32735
8472	7.3846	2.1331e-031	0.1	-0.36026
8473	7.2	2.0797e-031	0.1	-0.39571
8474	7.0154	2.0264e-031	0.1	-0.43267
8475	6.8308	1.9731e-031	0.1	-0.13646
8476	6.6462	1.9198e-031	0.1	0.21298
8477	6.4615	1.8664e-031	0.1	0.56725
8478	6.2769	1.8131e-031	0.1	0.92357
8479	6.0923	1.7598e-031	0.1	1.2785
8480	5.9077	1.7065e-031	0.1	1.6279
8481	5.7231	1.6531e-031	0.1	1.9667
8482	5.5385	1.5998e-031	0.1	2.2885
8483	5.3538	1.5465e-031	0.1	2.586
8484	5.1692	1.4931e-031	0.1	2.8502
8485	4.9846	1.4398e-031	0.1	3.0703
8486	4.8	1.3865e-031	0.1	3.2338
8487	4.6154	1.3332e-031	0.1	3.3257
8488	4.4308	1.2798e-031	0.1	3.3285
8489	4.2462	1.2265e-031	0.1	3.222
8490	4.0615	1.1732e-031	0.1	2.9823
8491	3.8769	1.1199e-031	0.1	2.5828
8492	3.6923	1.0665e-031	0.1	1.9933
8493	3.5077	1.0132e-031	0.1	1.184
8494	3.3231	9.5988e-032	0.1	0.13722
8495	3.1385	9.0656e-032	0.1	-1.082
8496	2.9538	8.5323e-032	0.1	-2.0698
8497	2.7692	7.999e-032	0.1	-2.5737
8498	2.5846	7.4657e-032	0.1	-2.9129
8499	2.4	6.9325e-032	0.1	-3.2222
8500	2.2154	6.3992e-032	0.1	-3.538
8501	2.0308	5.8659e-032	0.1	-3.8765
8502	1.8462	5.3327e-032	0.1	-4.2476
8503	1.6615	4.7994e-032	0.1	-4.6662
8504	1.4769	4.2661e-032	0.1	-5.1327
8505	1.2923	3.7329e-032	0.1	-5.7107
8506	1.1077	3.1996e-032	0.1	-6.2709
8507	0.92308	2.6663e-032	0.1	-7.3456
8508	0.73846	2.1331e-032	0.1	-7.5128
8509	0.55385	1.5998e-032	0.1	-10.309
8510	0.36923	1.0665e-032	0.1	-16.516
8511	0.18462	5.3327e-033	0.1	51.514
8512	0.	0.	0.1	-351.77
8513	3.937e-014	6.	0.1	-351.77
8514	0.18462	6.	0.1	51.514
8515	0.36923	6.	0.1	-16.516
8516	0.55385	6.	0.1	-10.309
8517	0.73846	6.	0.1	-7.5128
8518	0.92308	6.	0.1	-7.3456
8519	1.1077	6.	0.1	-6.2709
8520	1.2923	6.	0.1	-5.7107
8521	1.4769	6.	0.1	-5.1327
8522	1.6615	6.	0.1	-4.6662
8523	1.8462	6.	0.1	-4.2476
8524	2.0308	6.	0.1	-3.8765
8525	2.2154	6.	0.1	-3.538
8526	2.4	6.	0.1	-3.2222
8527	2.5846	6.	0.1	-2.9129
8528	2.7692	6.	0.1	-2.5737
8529	2.9538	6.	0.1	-2.0698
8530	3.1385	6.	0.1	-1.082
8531	3.3231	6.	0.1	0.13721
8532	3.5077	6.	0.1	1.184
8533	3.6923	6.	0.1	1.9933
8534	3.8769	6.	0.1	2.5828
8535	4.0615	6.	0.1	2.9823
8536	4.2462	6.	0.1	3.222
8537	4.4308	6.	0.1	3.3285
8538	4.6154	6.	0.1	3.3257
8539	4.8	6.	0.1	3.2338
8540	4.9846	6.	0.1	3.0703
8541	5.1692	6.	0.1	2.8502
8542	5.3538	6.	0.1	2.586
8543	5.5385	6.	0.1	2.2885
8544	5.7231	6.	0.1	1.9667
8545	5.9077	6.	0.1	1.6279
8546	6.0923	6.	0.1	1.2785
8547	6.2769	6.	0.1	0.92357
8548	6.4615	6.	0.1	0.56725
8549	6.6462	6.	0.1	0.21299
8550	6.8308	6.	0.1	-0.13646
8551	7.0154	6.	0.1	-0.43267
8552	7.2	6.	0.1	-0.39571
8553	7.3846	6.	0.1	-0.36026
8554	7.5692	6.	0.1	-0.32734
8555	7.7538	6.	0.1	-0.29679
8556	7.9385	6.	0.1	-0.26842
8557	8.1231	6.	0.1	-0.24205
8558	8.3077	6.	0.1	-0.21752
8559	8.4923	6.	0.1	-0.19466
8560	8.6769	6.	0.1	-0.17332
8561	8.8615	6.	0.1	-0.15337
8562	9.0462	6.	0.1	-0.13466
8563	9.2308	6.	0.1	-0.11706
8564	9.4154	6.	0.1	-0.10045
8565	9.6	6.	0.1	-8.4707e-002
8566	9.7846	6.	0.1	-6.9712e-002
8567	9.9692	6.	0.1	-5.535e-002
8568	10.154	6.	0.1	-4.1474e-002
8569	10.338	6.	0.1	-2.7954e-002
8570	10.523	6.	0.1	-1.47e-002
8571	10.708	6.	0.1	-1.5011e-003
8572	10.892	6.	0.1	1.1733e-002
8573	11.077	6.	0.1	2.5175e-002
8574	11.262	6.	0.1	3.9078e-002
8575	11.446	6.	0.1	5.3609e-002
8576	11.631	6.	0.1	6.9045e-002
8577	11.815	6.	0.1	8.5642e-002
8578	12.	6.	0.1	0.10375
8579	12.185	6.	0.1	0.12377
8580	12.369	6.	0.1	0.14612
8581	12.554	6.	0.1	0.1713
8582	12.738	6.	0.1	0.19993
8583	12.923	6.	0.1	0.23264
8584	13.108	6.	0.1	0.27024
8585	13.292	6.	0.1	0.31348
8586	13.477	6.	0.1	0.36325
8587	13.662	6.	0.1	0.42047
8588	13.846	6.	0.1	0.48589
8589	14.031	6.	0.1	0.56013
8590	14.215	6.	0.1	0.64329
8591	14.4	6.	0.1	0.73472
8592	14.585	6.	0.1	0.83243
8593	14.769	6.	0.1	0.93237
8594	14.954	6.	0.1	1.0275
8595	15.138	6.	0.1	1.1069
8596	15.323	6.	0.1	1.155
8597	15.508	6.	0.1	1.1524
8598	15.692	6.	0.1	1.0728
8599	15.877	6.	0.1	0.90604
8600	16.062	6.	0.1	0.58214
8601	16.246	6.	0.1	0.32638
8602	16.431	6.	0.1	-0.68043
8603	16.615	6.	0.1	1.9342
8604	16.8	6.	0.1	14.35
8605	16.615	6.	0.	-1.9342
8606	16.431	6.	0.	0.68043
8607	16.246	6.	0.	-0.32638
8608	16.062	6.	0.	-0.58214
8609	15.877	6.	0.	-0.90604
8610	15.692	6.	0.	-1.0728
8611	15.508	6.	0.	-1.1524
8612	15.323	6.	0.	-1.155
8613	15.138	6.	0.	-1.1069
8614	14.954	6.	0.	-1.0275
8615	14.769	6.	0.	-0.93237
8616	14.585	6.	0.	-0.83243
8617	14.4	6.	0.	-0.73472
8618	14.215	6.	0.	-0.64329
8619	14.031	6.	0.	-0.56013
8620	13.846	6.	0.	-0.48589
8621	13.662	6.	0.	-0.42047
8622	13.477	6.	0.	-0.36325
8623	13.292	6.	0.	-0.31348
8624	13.108	6.	0.	-0.27023
8625	12.923	6.	0.	-0.23264
8626	12.738	6.	0.	-0.19993
8627	12.554	6.	0.	-0.1713
8628	12.369	6.	0.	-0.14612
8629	12.185	6.	0.	-0.12377
8630	12.	6.	0.	-0.10375
8631	11.815	6.	0.	-8.5641e-002
8632	11.631	6.	0.	-6.9045e-002
8633	11.446	6.	0.	-5.3609e-002
8634	11.262	6.	0.	-3.9078e-002
8635	11.077	6.	0.	-2.5174e-002
8636	10.892	6.	0.	-1.1732e-002
8637	10.708	6.	0.	1.5015e-003
8638	10.523	6.	0.	1.4701e-002
8639	10.338	6.	0.	2.7954e-002
8640	10.154	6.	0.	4.1474e-002
8641	9.9692	6.	0.	5.535e-002
8642	9.7846	6.	0.	6.9713e-002
8643	9.6	6.	0.	8.4707e-002
8644	9.4154	6.	0.	0.10045
8645	9.2308	6.	0.	0.11706
8646	9.0462	6.	0.	0.13466
8647	8.8615	6.	0.	0.15337
8648	8.6769	6.	0.	0.17332
8649	8.4923	6.	0.	0.19466
8650	8.3077	6.	0.	0.21752
8651	8.1231	6.	0.	0.24205
8652	7.9385	6.	0.	0.26842
8653	7.7538	6.	0.	0.29679
8654	7.5692	6.	0.	0.32734
8655	7.3846	6.	0.	0.36026
8656	7.2	6.	0.	0.39571
8657	7.0154	6.	0.	0.43267
8658	6.8308	6.	0.	0.13646
8659	6.6462	6.	0.	-0.21299
8660	6.4615	6.	0.	-0.56725
8661	6.2769	6.	0.	-0.92357
8662	6.0923	6.	0.	-1.2785
8663	5.9077	6.	0.	-1.6279
8664	5.7231	6.	0.	-1.9667
8665	5.5385	6.	0.	-2.2885
8666	5.3538	6.	0.	-2.586
8667	5.1692	6.	0.	-2.8502
8668	4.9846	6.	0.	-3.0703
8669	4.8	6.	0.	-3.2338
8670	4.6154	6.	0.	-3.3257
8671	4.4308	6.	0.	-3.3285
8672	4.2462	6.	0.	-3.222
8673	4.0615	6.	0.	-2.9823
8674	3.8769	6.	0.	-2.5828
8675	3.6923	6.	0.	-1.9933
8676	3.5077	6.	0.	-1.184
8677	3.3231	6.	0.	-0.13721
8678	3.1385	6.	0.	1.082
8679	2.9538	6.	0.	2.0698
8680	2.7692	6.	0.	2.5737
8681	2.5846	6.	0.	2.9129
8682	2.4	6.	0.	3.2222
8683	2.2154	6.	0.	3.538
8684	2.0308	6.	0.	3.8765
8685	1.8462	6.	0.	4.2476
8686	1.6615	6.	0.	4.6662
8687	1.4769	6.	0.	5.1327
8688	1.2923	6.	0.	5.7107
8689	1.1077	6.	0.	6.2709
8690	0.92308	6.	0.	7.3456
8691	0.73846	6.	0.	7.5128
8692	0.55385	6.	0.	10.309
8693	0.36923	6.	0.	16.516
8694	0.18462	6.	0.	-51.514
8695	16.8	6.	0.	-14.35
8696	3.937e-014	6.	0.	351.77
8697	0.18462	5.3327e-033	0.	-51.514
8698	0.36923	1.0665e-032	0.	16.516
8699	0.55385	1.5998e-032	0.	10.309
8700	0.73846	2.1331e-032	0.	7.5128
8701	0.92308	2.6663e-032	0.	7.3456
8702	1.1077	3.1996e-032	0.	6.2709
8703	1.2923	3.7329e-032	0.	5.7107
8704	1.4769	4.2661e-032	0.	5.1327
8705	1.6615	4.7994e-032	0.	4.6662
8706	1.8462	5.3327e-032	0.	4.2476
8707	2.0308	5.8659e-032	0.	3.8765
8708	2.2154	6.3992e-032	0.	3.538
8709	2.4	6.9325e-032	0.	3.2222
8710	2.5846	7.4657e-032	0.	2.9129
8711	2.7692	7.999e-032	0.	2.5737
8712	2.9538	8.5323e-032	0.	2.0698
8713	3.1385	9.0656e-032	0.	1.082
8714	3.3231	9.5988e-032	0.	-0.13721
8715	3.5077	1.0132e-031	0.	-1.184
8716	3.6923	1.0665e-031	0.	-1.9933
8717	3.8769	1.1199e-031	0.	-2.5828
8718	4.0615	1.1732e-031	0.	-2.9823
8719	4.2462	1.2265e-031	0.	-3.222
8720	4.4308	1.2798e-031	0.	-3.3285
8721	4.6154	1.3332e-031	0.	-3.3257
8722	4.8	1.3865e-031	0.	-3.2338
8723	4.9846	1.4398e-031	0.	-3.0703
8724	5.1692	1.4931e-031	0.	-2.8502
8725	5.3538	1.5465e-031	0.	-2.586
8726	5.5385	1.5998e-031	0.	-2.2885
8727	5.7231	1.6531e-031	0.	-1.9667
8728	5.9077	1.7065e-031	0.	-1.6279
8729	6.0923	1.7598e-031	0.	-1.2785
8730	6.2769	1.8131e-031	0.	-0.92357
8731	6.4615	1.8664e-031	0.	-0.56725
8732	6.6462	1.9198e-031	0.	-0.21298
8733	6.8308	1.9731e-031	0.	0.13647
8734	7.0154	2.0264e-031	0.	0.43267
8735	7.2	2.0797e-031	0.	0.39571
8736	7.3846	2.1331e-031	0.	0.36026
8737	7.5692	2.1864e-031	0.	0.32735
8738	7.7538	2.2397e-031	0.	0.29679
8739	7.9385	2.2931e-031	0.	0.26842
8740	8.1231	2.3464e-031	0.	0.24205
8741	8.3077	2.3997e-031	0.	0.21752
8742	8.4923	2.453e-031	0.	0.19466
8743	8.6769	2.5064e-031	0.	0.17332
8744	8.8615	2.5597e-031	0.	0.15337
8745	9.0462	2.613e-031	0.	0.13466
8746	9.2308	2.6663e-031	0.	0.11706
8747	9.4154	2.7197e-031	0.	0.10045
8748	9.6	2.773e-031	0.	8.4708e-002
8749	9.7846	2.8263e-031	0.	6.9713e-002
8750	9.9692	2.8796e-031	0.	5.5351e-002
8751	10.154	2.933e-031	0.	4.1474e-002
8752	10.338	2.9863e-031	0.	2.7954e-002
8753	10.523	3.0396e-031	0.	1.4701e-002
8754	10.708	3.093e-031	0.	1.5014e-003
8755	10.892	3.1463e-031	0.	-1.1732e-002
8756	11.077	3.1996e-031	0.	-2.5174e-002
8757	11.262	3.2529e-031	0.	-3.9077e-002
8758	11.446	3.3063e-031	0.	-5.361e-002
8759	11.631	3.3596e-031	0.	-6.9044e-002
8760	11.815	3.4129e-031	0.	-8.5641e-002
8761	12.	3.4662e-031	0.	-0.10375
8762	12.185	3.5196e-031	0.	-0.12377
8763	12.369	3.5729e-031	0.	-0.14612
8764	12.554	3.6262e-031	0.	-0.1713
8765	12.738	3.6795e-031	0.	-0.19993
8766	12.923	3.7329e-031	0.	-0.23264
8767	13.108	3.7862e-031	0.	-0.27023
8768	13.292	3.8395e-031	0.	-0.31348
8769	13.477	3.8929e-031	0.	-0.36325
8770	13.662	3.9462e-031	0.	-0.42047
8771	13.846	3.9995e-031	0.	-0.48589
8772	14.031	4.0528e-031	0.	-0.56013
8773	14.215	4.1062e-031	0.	-0.64329
8774	14.4	4.1595e-031	0.	-0.73472
8775	14.585	4.2128e-031	0.	-0.83243
8776	14.769	4.2661e-031	0.	-0.93237
8777	14.954	4.3195e-031	0.	-1.0275
8778	15.138	4.3728e-031	0.	-1.1069
8779	15.323	4.4261e-031	0.	-1.155
8780	15.508	4.4794e-031	0.	-1.1524
8781	15.692	4.5328e-031	0.	-1.0728
8782	15.877	4.5861e-031	0.	-0.90604
8783	16.062	4.6394e-031	0.	-0.58214
8784	16.246	4.6928e-031	0.	-0.32638
8785	16.431	4.7461e-031	0.	0.68043
8786	16.615	4.7994e-031	0.	-1.9342
8787	16.8	0.	0.	-14.35
8788	0.	0.	0.	351.77
8789	17.147	0.	0.	-1.0688
8790	17.327	0.	0.	1.2274
8791	17.508	0.	0.	0.46911
8792	17.688	0.	0.	0.26907
8793	17.868	0.	0.	2.1419e-002
8794	18.049	0.	0.	-0.11343
8795	18.229	0.	0.	-0.18908
8796	18.409	0.	0.	-0.2146
8797	18.59	0.	0.	-0.20923
8798	18.77	0.	0.	-0.18579
8799	18.95	0.	0.	-0.15404
8800	19.131	0.	0.	-0.12037
8801	19.311	0.	0.	-8.8768e-002
8802	19.491	0.	0.	-6.1453e-002
8803	19.672	0.	0.	-3.9521e-002
8804	19.852	0.	0.	-2.3292e-002
8805	20.032	0.	0.	-1.2639e-002
8806	20.213	0.	0.	-7.2064e-003
8807	20.393	0.	0.	-6.489e-003
8808	20.574	0.	0.	-9.9608e-003
8809	20.754	0.	0.	-1.713e-002
8810	20.934	0.	0.	-2.7561e-002
8811	21.115	0.	0.	-4.0896e-002
8812	21.295	0.	0.	-5.6822e-002
8813	21.475	0.	0.	-7.5123e-002
8814	21.656	0.	0.	-9.5664e-002
8815	21.836	0.	0.	-0.11841
8816	22.016	0.	0.	-0.14341
8817	22.197	0.	0.	-0.17084
8818	22.377	0.	0.	-0.20101
8819	22.557	0.	0.	-0.23437
8820	22.738	0.	0.	-0.27174
8821	22.918	0.	0.	-0.31395
8822	23.098	0.	0.	-0.36372
8823	23.279	0.	0.	-0.41954
8824	23.459	0.	0.	-0.50512
8825	23.639	0.	0.	-0.57113
8826	23.82	0.	0.	-0.93434
8827	16.967	0.	0.	-11.221
8828	24.	0.	0.	1.1165
8829	5.0862e-014	5.8182	0.	-1194.5
8830	4.9273e-014	5.6364	0.	-2308.3
8831	4.7683e-014	5.4545	0.	-2825.1
8832	4.6094e-014	5.2727	0.	-3134.4
8833	4.4504e-014	5.0909	0.	-3341.7
8834	4.2915e-014	4.9091	0.	-3490.4
8835	4.1325e-014	4.7273	0.	-3600.7
8836	3.9736e-014	4.5455	0.	-3684.5
8837	3.8147e-014	4.3636	0.	-3749.1
8838	3.6557e-014	4.1818	0.	-3799.2
8839	3.4968e-014	4.	0.	-3838.1
8840	3.3378e-014	3.8182	0.	-3867.9
8841	3.1789e-014	3.6364	0.	-3890.1
8842	3.0199e-014	3.4545	0.	-3906.
8843	2.861e-014	3.2727	0.	-3916.1
8844	2.702e-014	3.0909	0.	-3921.
8845	2.5431e-014	2.9091	0.	-3921.
8846	2.3842e-014	2.7273	0.	-3916.1
8847	2.2252e-014	2.5455	0.	-3906.
8848	2.0663e-014	2.3636	0.	-3890.1
8849	1.9073e-014	2.1818	0.	-3867.9
8850	1.7484e-014	2.	0.	-3838.1
8851	1.5894e-014	1.8182	0.	-3799.2
8852	1.4305e-014	1.6364	0.	-3749.1
8853	1.2716e-014	1.4545	0.	-3684.5
8854	1.1126e-014	1.2727	0.	-3600.7
8855	9.5366e-015	1.0909	0.	-3490.4
8856	7.9472e-015	0.90909	0.	-3341.7
8857	6.3578e-015	0.72727	0.	-3134.4
8858	4.7683e-015	0.54545	0.	-2825.1
8859	3.1789e-015	0.36364	0.	-2308.3
8860	1.5894e-015	0.18182	0.	-1194.5
8861	24.	0.18182	0.	2.2686
8862	24.	0.36364	0.	2.298
8863	24.	0.54545	0.	2.4732
8864	24.	0.72727	0.	2.4965
8865	24.	0.90909	0.	2.5233
8866	24.	1.0909	0.	2.5366
8867	24.	1.2727	0.	2.5462
8868	24.	1.4545	0.	2.5522
8869	24.	1.6364	0.	2.556
8870	24.	1.8182	0.	2.5584
8871	24.	2.	0.	2.5597
8872	24.	2.1818	0.	2.5604
8873	24.	2.3636	0.	2.5607
8874	24.	2.5455	0.	2.5607
8875	24.	2.7273	0.	2.5607
8876	24.	2.9091	0.	2.5607
8877	24.	3.0909	0.	2.5607
8878	24.	3.2727	0.	2.5607
8879	24.	3.4545	0.	2.5608
8880	24.	3.6364	0.	2.5607
8881	24.	3.8182	0.	2.5604
8882	24.	4.	0.	2.5597
8883	24.	4.1818	0.	2.5584
8884	24.	4.3636	0.	2.556
8885	24.	4.5455	0.	2.5522
8886	24.	4.7273	0.	2.5462
8887	24.	4.9091	0.	2.5366
8888	24.	5.0909	0.	2.5233
8889	24.	5.2727	0.	2.4965
8890	24.	5.4545	0.	2.4732
8891	24.	5.6364	0.	2.298
8892	24.	5.8182	0.	2.2686
8893	24.	6.	0.	1.1165
8894	23.82	6.	0.	-0.93434
8895	23.639	6.	0.	-0.57113
8896	23.459	6.	0.	-0.50512
8897	23.279	6.	0.	-0.41954
8898	23.098	6.	0.	-0.36372
8899	22.918	6.	0.	-0.31395
8900	22.738	6.	0.	-0.27173
8901	22.557	6.	0.	-0.23437
8902	22.377	6.	0.	-0.20101
8903	22.197	6.	0.	-0.17084
8904	22.016	6.	0.	-0.14341
8905	21.836	6.	0.	-0.11841
8906	21.656	6.	0.	-9.5666e-002
8907	21.475	6.	0.	-7.5123e-002
8908	21.295	6.	0.	-5.6821e-002
8909	21.115	6.	0.	-4.0895e-002
8910	20.934	6.	0.	-2.756e-002
8911	20.754	6.	0.	-1.7128e-002
8912	20.574	6.	0.	-9.9587e-003
8913	20.393	6.	0.	-6.4884e-003
8914	20.213	6.	0.	-7.2071e-003
8915	20.032	6.	0.	-1.2641e-002
8916	19.852	6.	0.	-2.329e-002
8917	19.672	6.	0.	-3.952e-002
8918	19.491	6.	0.	-6.1453e-002
8919	19.311	6.	0.	-8.8766e-002
8920	19.131	6.	0.	-0.12037
8921	18.95	6.	0.	-0.15404
8922	18.77	6.	0.	-0.18579
8923	18.59	6.	0.	-0.20923
8924	18.409	6.	0.	-0.21459
8925	18.229	6.	0.	-0.18908
8926	18.049	6.	0.	-0.11343
8927	17.868	6.	0.	2.142e-002
8928	17.688	6.	0.	0.26907
8929	17.508	6.	0.	0.46911
8930	17.327	6.	0.	1.2274
8931	17.147	6.	0.	-1.0688
8932	16.967	6.	0.	-11.221
8933	16.8	1.8182	0.	-7.5665
8934	16.8	1.6364	0.	48.395
8935	16.8	1.4545	0.	12.532
8936	16.8	1.2727	0.	14.842
8937	16.8	1.0909	0.	10.311
8938	16.8	0.90909	0.	9.3894
8939	16.8	0.72727	0.	8.2041
8940	16.8	0.54545	0.	7.4839
8941	16.8	0.36364	0.	7.3302
8942	16.8	0.18182	0.	5.645
8943	16.8	2.	0.	-269.86
8944	16.967	0.18182	0.	3.5396
8945	16.967	0.36364	0.	5.3099
8946	16.967	0.54545	0.	5.409
8947	16.967	0.72727	0.	6.0793
8948	16.967	0.90909	0.	7.1678
8949	16.967	1.0909	0.	8.1825
8950	16.967	1.2727	0.	12.142
8951	16.967	1.4545	0.	11.076
8952	16.967	1.6364	0.	44.153
8953	16.967	1.8182	0.	-7.4476
8954	16.967	2.	0.	-579.1
8955	16.8	4.1818	0.	-7.5664
8956	16.8	4.3636	0.	48.395
8957	16.8	4.5455	0.	12.532
8958	16.8	4.7273	0.	14.842
8959	16.8	4.9091	0.	10.311
8960	16.8	5.0909	0.	9.3894
8961	16.8	5.2727	0.	8.2041
8962	16.8	5.4545	0.	7.4839
8963	16.8	5.6364	0.	7.3302
8964	16.8	5.8182	0.	5.645
8965	16.8	4.	0.	-269.86
8966	16.967	5.8182	0.	3.5396
8967	16.967	5.6364	0.	5.3099
8968	16.967	5.4545	0.	5.409
8969	16.967	5.2727	0.	6.0793
8970	16.967	5.0909	0.	7.1678
8971	16.967	4.9091	0.	8.1825
8972	16.967	4.7273	0.	12.142
8973	16.967	4.5455	0.	11.076
8974	16.967	4.3636	0.	44.153
8975	16.967	4.1818	0.	-7.4476
8976	16.967	4.	0.	-579.1
8977	16.8	2.2727	0.	31.812
8978	16.883	2.1818	0.	49.883
8979	16.708	2.1818	0.	46.204
8980	16.8	2.1818	5.e-002	3.6855e-004
8981	16.8	2.0909	0.	-109.92
8982	16.8	2.4545	0.	-6.9241
8983	16.883	2.3636	0.	-15.32
8984	16.708	2.3636	0.	-10.578
8985	16.8	2.3636	5.e-002	2.1925e-004
8986	16.8	2.6364	0.	-0.70535
8987	16.883	2.5455	0.	0.36061
8988	16.708	2.5455	0.	1.2193
8989	16.8	2.5455	5.e-002	1.4735e-004
8990	16.8	2.8182	0.	-1.2513
8991	16.883	2.7273	0.	-1.7046
8992	16.708	2.7273	0.	-1.5224
8993	16.8	2.7273	5.e-002	1.0171e-004
8994	16.8	3.	0.	-0.88049
8995	16.883	2.9091	0.	-0.87843
8996	16.708	2.9091	0.	-0.60834
8997	16.8	2.9091	5.e-002	2.7981e-005
8998	16.8	3.1818	0.	-1.2513
8999	16.883	3.0909	0.	-0.87843
9000	16.708	3.0909	0.	-0.60834
9001	16.8	3.0909	5.e-002	-3.4918e-005
9002	16.8	3.3636	0.	-0.70535
9003	16.883	3.2727	0.	-1.7046
9004	16.708	3.2727	0.	-1.5224
9005	16.8	3.2727	5.e-002	-1.0436e-004
9006	16.8	3.5455	0.	-6.9241
9007	16.883	3.4545	0.	0.36061
9008	16.708	3.4545	0.	1.2193
9009	16.8	3.4545	5.e-002	-1.5384e-004
9010	16.8	3.7273	0.	31.812
9011	16.883	3.6364	0.	-15.32
9012	16.708	3.6364	0.	-10.578
9013	16.8	3.6364	5.e-002	-2.2633e-004
9014	16.883	3.8182	0.	49.883
9015	16.708	3.8182	0.	46.204
9016	16.8	3.8182	5.e-002	-3.6865e-004
9017	16.8	3.9091	0.	-109.92
9018	16.967	2.2727	0.	0.16978
9019	17.057	2.1818	0.	-6.7918
9020	16.967	2.1818	5.e-002	2.2669e-004
9021	16.967	2.0909	0.	-293.88
9022	16.967	2.4545	0.	-7.8563
9023	17.057	2.3636	0.	-12.211
9024	16.967	2.3636	5.e-002	2.9609e-004
9025	16.967	2.6364	0.	-0.60119
9026	17.057	2.5455	0.	1.1405
9027	16.967	2.5455	5.e-002	6.178e-005
9028	16.967	2.8182	0.	-1.2954
9029	17.057	2.7273	0.	-1.5437
9030	16.967	2.7273	5.e-002	2.7237e-005
9031	16.967	3.	0.	-0.84619
9032	17.057	2.9091	0.	-0.52715
9033	16.967	2.9091	5.e-002	-4.4441e-006
9034	16.967	3.1818	0.	-1.2954
9035	17.057	3.0909	0.	-0.52716
9036	16.967	3.0909	5.e-002	1.4015e-006
9037	16.967	3.3636	0.	-0.60118
9038	17.057	3.2727	0.	-1.5437
9039	16.967	3.2727	5.e-002	-3.6766e-005
9040	16.967	3.5455	0.	-7.8563
9041	17.057	3.4545	0.	1.1405
9042	16.967	3.4545	5.e-002	-9.4008e-005
9043	16.967	3.7273	0.	0.16975
9044	17.057	3.6364	0.	-12.211
9045	16.967	3.6364	5.e-002	-2.862e-004
9046	17.057	3.8182	0.	-6.7919
9047	16.967	3.8182	5.e-002	-2.7859e-004
9048	16.967	3.9091	0.	-293.88
9049	16.615	5.7273	0.	-4.8469
9050	16.523	5.8182	0.	-4.2553
9051	16.615	5.8182	5.e-002	6.7698e-006
9052	16.615	5.9091	0.	-4.9452
9053	16.708	5.8182	0.	1.0867
9054	16.615	5.5455	0.	-2.8465
9055	16.523	5.6364	0.	-1.8671
9056	16.615	5.6364	5.e-002	4.6444e-006
9057	16.708	5.6364	0.	1.296
9058	16.615	5.3636	0.	-2.4553
9059	16.523	5.4545	0.	-1.2375
9060	16.615	5.4545	5.e-002	3.2025e-006
9061	16.708	5.4545	0.	0.84072
9062	16.615	5.1818	0.	-2.333
9063	16.523	5.2727	0.	-0.94812
9064	16.615	5.2727	5.e-002	-4.9453e-006
9065	16.708	5.2727	0.	0.81809
9066	16.615	5.	0.	-2.6893
9067	16.523	5.0909	0.	-0.85592
9068	16.615	5.0909	5.e-002	-6.8164e-006
9069	16.708	5.0909	0.	0.97372
9070	16.615	4.8182	0.	-2.532
9071	16.523	4.9091	0.	-1.1192
9072	16.615	4.9091	5.e-002	-3.37e-005
9073	16.708	4.9091	0.	0.27988
9074	16.615	4.6364	0.	-5.6742
9075	16.523	4.7273	0.	-0.59027
9076	16.615	4.7273	5.e-002	-4.35e-005
9077	16.708	4.7273	0.	2.7501
9078	16.615	4.4545	0.	-0.13612
9079	16.523	4.5455	0.	-4.3064
9080	16.615	4.5455	5.e-002	-7.9801e-005
9081	16.708	4.5455	0.	-7.5434
9082	16.615	4.2727	0.	-21.542
9083	16.523	4.3636	0.	6.1717
9084	16.615	4.3636	5.e-002	-1.4588e-004
9085	16.708	4.3636	0.	30.107
9086	16.615	4.0909	0.	-143.97
9087	16.523	4.1818	0.	-22.39
9088	16.615	4.1818	5.e-002	-3.4181e-004
9089	16.708	4.1818	0.	-134.35
9090	16.615	3.9091	0.	-102.98
9091	16.523	4.	0.	-101.32
9092	16.615	4.	5.e-002	-2.4909e-004
9093	16.708	4.	0.	-138.95
9094	16.615	3.7273	0.	2.4474
9095	16.523	3.8182	0.	13.86
9096	16.615	3.8182	5.e-002	-1.1295e-004
9097	16.615	3.5455	0.	-2.3994
9098	16.523	3.6364	0.	-4.5692
9099	16.615	3.6364	5.e-002	-1.2505e-004
9100	16.615	3.3636	0.	0.42902
9101	16.523	3.4545	0.	1.3983
9102	16.615	3.4545	5.e-002	-8.5322e-005
9103	16.615	3.1818	0.	-0.85618
9104	16.523	3.2727	0.	-0.74196
9105	16.615	3.2727	5.e-002	-5.0582e-005
9106	16.615	3.	0.	-0.31451
9107	16.523	3.0909	0.	-0.21723
9108	16.615	3.0909	5.e-002	-1.6088e-005
9109	16.615	2.8182	0.	-0.85618
9110	16.523	2.9091	0.	-0.21723
9111	16.615	2.9091	5.e-002	1.1939e-005
9112	16.615	2.6364	0.	0.42903
9113	16.523	2.7273	0.	-0.74196
9114	16.615	2.7273	5.e-002	4.6218e-005
9115	16.615	2.4545	0.	-2.3994
9116	16.523	2.5455	0.	1.3983
9117	16.615	2.5455	5.e-002	7.6561e-005
9118	16.615	2.2727	0.	2.4474
9119	16.523	2.3636	0.	-4.5692
9120	16.615	2.3636	5.e-002	1.3542e-004
9121	16.615	2.0909	0.	-102.98
9122	16.523	2.1818	0.	13.86
9123	16.615	2.1818	5.e-002	1.0078e-004
9124	16.615	1.9091	0.	-143.97
9125	16.523	2.	0.	-101.32
9126	16.615	2.	5.e-002	2.0021e-004
9127	16.708	2.	0.	-138.95
9128	16.615	1.7273	0.	-21.542
9129	16.523	1.8182	0.	-22.39
9130	16.615	1.8182	5.e-002	3.311e-004
9131	16.708	1.8182	0.	-134.35
9132	16.615	1.5455	0.	-0.13612
9133	16.523	1.6364	0.	6.1717
9134	16.615	1.6364	5.e-002	1.4786e-004
9135	16.708	1.6364	0.	30.107
9136	16.615	1.3636	0.	-5.6742
9137	16.523	1.4545	0.	-4.3064
9138	16.615	1.4545	5.e-002	8.3616e-005
9139	16.708	1.4545	0.	-7.5434
9140	16.615	1.1818	0.	-2.532
9141	16.523	1.2727	0.	-0.59027
9142	16.615	1.2727	5.e-002	6.1475e-005
9143	16.708	1.2727	0.	2.7501
9144	16.615	1.	0.	-2.6893
9145	16.523	1.0909	0.	-1.1192
9146	16.615	1.0909	5.e-002	4.115e-005
9147	16.708	1.0909	0.	0.27989
9148	16.615	0.81818	0.	-2.333
9149	16.523	0.90909	0.	-0.85592
9150	16.615	0.90909	5.e-002	1.2592e-005
9151	16.708	0.90909	0.	0.97372
9152	16.615	0.63636	0.	-2.4553
9153	16.523	0.72727	0.	-0.94812
9154	16.615	0.72727	5.e-002	8.0419e-006
9155	16.708	0.72727	0.	0.81809
9156	16.615	0.45455	0.	-2.8465
9157	16.523	0.54545	0.	-1.2375
9158	16.615	0.54545	5.e-002	4.6153e-006
9159	16.708	0.54545	0.	0.84072
9160	16.615	0.27273	0.	-4.8469
9161	16.523	0.36364	0.	-1.8671
9162	16.615	0.36364	5.e-002	1.0007e-006
9163	16.708	0.36364	0.	1.296
9164	16.523	0.18182	0.	-4.2553
9165	16.615	0.18182	5.e-002	1.3517e-006
9166	16.615	9.0909e-002	0.	-4.9452
9167	16.708	0.18182	0.	1.0867
9168	16.431	5.7273	0.	-0.31039
9169	16.338	5.8182	0.	-0.2219
9170	16.431	5.8182	5.e-002	3.3955e-006
9171	16.431	5.9091	0.	6.5435e-002
9172	16.431	5.5455	0.	0.16732
9173	16.338	5.6364	0.	-6.6596e-002
9174	16.431	5.6364	5.e-002	8.1639e-007
9175	16.431	5.3636	0.	0.40906
9176	16.338	5.4545	0.	7.0934e-002
9177	16.431	5.4545	5.e-002	-1.771e-006
9178	16.431	5.1818	0.	0.56636
9179	16.338	5.2727	0.	0.16052
9180	16.431	5.2727	5.e-002	-1.1343e-005
9181	16.431	5.	0.	0.69424
9182	16.338	5.0909	0.	0.18069
9183	16.431	5.0909	5.e-002	-2.0917e-005
9184	16.431	4.8182	0.	0.73532
9185	16.338	4.9091	0.	0.16941
9186	16.431	4.9091	5.e-002	-3.5306e-005
9187	16.431	4.6364	0.	0.65477
9188	16.338	4.7273	0.	7.56e-002
9189	16.431	4.7273	5.e-002	-5.4757e-005
9190	16.431	4.4545	0.	1.7339
9191	16.338	4.5455	0.	3.8239e-002
9192	16.431	4.5455	5.e-002	-8.6962e-005
9193	16.431	4.2727	0.	5.2826
9194	16.338	4.3636	0.	-0.41564
9195	16.431	4.3636	5.e-002	-1.8998e-004
9196	16.431	4.0909	0.	17.654
9197	16.338	4.1818	0.	2.9118
9198	16.431	4.1818	5.e-002	-2.796e-004
9199	16.431	3.9091	0.	21.089
9200	16.338	4.	0.	11.366
9201	16.431	4.	5.e-002	-1.3556e-004
9202	16.431	3.7273	0.	6.1058
9203	16.338	3.8182	0.	5.2373
9204	16.431	3.8182	5.e-002	-7.4305e-005
9205	16.431	3.5455	0.	-0.84382
9206	16.338	3.6364	0.	-1.2211e-003
9207	16.431	3.6364	5.e-002	-5.8642e-005
9208	16.431	3.3636	0.	0.22299
9209	16.338	3.4545	0.	0.41352
9210	16.431	3.4545	5.e-002	-4.2169e-005
9211	16.431	3.1818	0.	-9.4616e-002
9212	16.338	3.2727	0.	0.10364
9213	16.431	3.2727	5.e-002	-2.8228e-005
9214	16.431	3.	0.	-0.10952
9215	16.338	3.0909	0.	2.9924e-002
9216	16.431	3.0909	5.e-002	-7.2478e-006
9217	16.431	2.8182	0.	-9.4615e-002
9218	16.338	2.9091	0.	2.9924e-002
9219	16.431	2.9091	5.e-002	7.2741e-006
9220	16.431	2.6364	0.	0.22299
9221	16.338	2.7273	0.	0.10364
9222	16.431	2.7273	5.e-002	2.3805e-005
9223	16.431	2.4545	0.	-0.84382
9224	16.338	2.5455	0.	0.41352
9225	16.431	2.5455	5.e-002	4.2329e-005
9226	16.431	2.2727	0.	6.1058
9227	16.338	2.3636	0.	-1.2204e-003
9228	16.431	2.3636	5.e-002	5.9106e-005
9229	16.431	2.0909	0.	21.089
9230	16.338	2.1818	0.	5.2373
9231	16.431	2.1818	5.e-002	7.2343e-005
9232	16.431	1.9091	0.	17.654
9233	16.338	2.	0.	11.366
9234	16.431	2.	5.e-002	1.3556e-004
9235	16.431	1.7273	0.	5.2826
9236	16.338	1.8182	0.	2.9118
9237	16.431	1.8182	5.e-002	2.6555e-004
9238	16.431	1.5455	0.	1.7339
9239	16.338	1.6364	0.	-0.41564
9240	16.431	1.6364	5.e-002	1.6923e-004
9241	16.431	1.3636	0.	0.65477
9242	16.338	1.4545	0.	3.824e-002
9243	16.431	1.4545	5.e-002	9.0745e-005
9244	16.431	1.1818	0.	0.73532
9245	16.338	1.2727	0.	7.5599e-002
9246	16.431	1.2727	5.e-002	5.4534e-005
9247	16.431	1.	0.	0.69424
9248	16.338	1.0909	0.	0.16941
9249	16.431	1.0909	5.e-002	3.8167e-005
9250	16.431	0.81818	0.	0.56636
9251	16.338	0.90909	0.	0.18069
9252	16.431	0.90909	5.e-002	2.5924e-005
9253	16.431	0.63636	0.	0.40907
9254	16.338	0.72727	0.	0.16052
9255	16.431	0.72727	5.e-002	1.65e-005
9256	16.431	0.45455	0.	0.16732
9257	16.338	0.54545	0.	7.0935e-002
9258	16.431	0.54545	5.e-002	1.013e-005
9259	16.431	0.27273	0.	-0.31039
9260	16.338	0.36364	0.	-6.6597e-002
9261	16.431	0.36364	5.e-002	7.3753e-006
9262	16.338	0.18182	0.	-0.2219
9263	16.431	0.18182	5.e-002	3.7496e-006
9264	16.431	9.0909e-002	0.	6.5436e-002
9265	16.246	5.7273	0.	-9.4698e-002
9266	16.154	5.8182	0.	0.27359
9267	16.246	5.8182	5.e-002	2.5302e-006
9268	16.246	5.9091	0.	-8.7751e-002
9269	16.246	5.5455	0.	-0.16689
9270	16.154	5.6364	0.	-2.1191e-002
9271	16.246	5.6364	5.e-002	-6.5202e-007
9272	16.246	5.3636	0.	-0.17937
9273	16.154	5.4545	0.	-3.2459e-002
9274	16.246	5.4545	5.e-002	-4.9228e-006
9275	16.246	5.1818	0.	-0.23088
9276	16.154	5.2727	0.	-0.10386
9277	16.246	5.2727	5.e-002	-1.4867e-005
9278	16.246	5.	0.	-0.35193
9279	16.154	5.0909	0.	-0.16985
9280	16.246	5.0909	5.e-002	-2.3452e-005
9281	16.246	4.8182	0.	-0.49526
9282	16.154	4.9091	0.	-0.29838
9283	16.246	4.9091	5.e-002	-3.7141e-005
9284	16.246	4.6364	0.	-0.53697
9285	16.154	4.7273	0.	-0.42052
9286	16.246	4.7273	5.e-002	-6.0006e-005
9287	16.246	4.4545	0.	-2.1254
9288	16.154	4.5455	0.	-0.48266
9289	16.246	4.5455	5.e-002	-9.532e-005
9290	16.246	4.2727	0.	-2.7641
9291	16.154	4.3636	0.	-1.7214
9292	16.246	4.3636	5.e-002	-1.509e-004
9293	16.246	4.0909	0.	-3.4284
9294	16.154	4.1818	0.	-0.97588
9295	16.246	4.1818	5.e-002	-2.2471e-004
9296	16.246	3.9091	0.	-4.3909
9297	16.154	4.	0.	-2.1189
9298	16.246	4.	5.e-002	-1.3403e-004
9299	16.246	3.7273	0.	-0.72809
9300	16.154	3.8182	0.	-1.1428
9301	16.246	3.8182	5.e-002	-8.7587e-005
9302	16.246	3.5455	0.	1.2253
9303	16.154	3.6364	0.	1.1743
9304	16.246	3.6364	5.e-002	-4.7097e-005
9305	16.246	3.3636	0.	0.27552
9306	16.154	3.4545	0.	0.32008
9307	16.246	3.4545	5.e-002	-2.1968e-005
9308	16.246	3.1818	0.	0.2263
9309	16.154	3.2727	0.	0.30298
9310	16.246	3.2727	5.e-002	-1.8396e-005
9311	16.246	3.	0.	0.17149
9312	16.154	3.0909	0.	0.21801
9313	16.246	3.0909	5.e-002	-4.8507e-006
9314	16.246	2.8182	0.	0.2263
9315	16.154	2.9091	0.	0.21801
9316	16.246	2.9091	5.e-002	1.0416e-006
9317	16.246	2.6364	0.	0.27552
9318	16.154	2.7273	0.	0.30298
9319	16.246	2.7273	5.e-002	1.0882e-005
9320	16.246	2.4545	0.	1.2253
9321	16.154	2.5455	0.	0.32008
9322	16.246	2.5455	5.e-002	2.572e-005
9323	16.246	2.2727	0.	-0.72809
9324	16.154	2.3636	0.	1.1743
9325	16.246	2.3636	5.e-002	3.4813e-005
9326	16.246	2.0909	0.	-4.3909
9327	16.154	2.1818	0.	-1.1428
9328	16.246	2.1818	5.e-002	8.7587e-005
9329	16.246	1.9091	0.	-3.4284
9330	16.154	2.	0.	-2.1189
9331	16.246	2.	5.e-002	1.395e-004
9332	16.246	1.7273	0.	-2.7641
9333	16.154	1.8182	0.	-0.97587
9334	16.246	1.8182	5.e-002	2.2453e-004
9335	16.246	1.5455	0.	-2.1254
9336	16.154	1.6364	0.	-1.7214
9337	16.246	1.6364	5.e-002	1.4073e-004
9338	16.246	1.3636	0.	-0.53697
9339	16.154	1.4545	0.	-0.48266
9340	16.246	1.4545	5.e-002	9.1702e-005
9341	16.246	1.1818	0.	-0.49525
9342	16.154	1.2727	0.	-0.42052
9343	16.246	1.2727	5.e-002	6.179e-005
9344	16.246	1.	0.	-0.35193
9345	16.154	1.0909	0.	-0.29838
9346	16.246	1.0909	5.e-002	3.9048e-005
9347	16.246	0.81818	0.	-0.23088
9348	16.154	0.90909	0.	-0.16985
9349	16.246	0.90909	5.e-002	2.9222e-005
9350	16.246	0.63636	0.	-0.17937
9351	16.154	0.72727	0.	-0.10386
9352	16.246	0.72727	5.e-002	1.7728e-005
9353	16.246	0.45455	0.	-0.1669
9354	16.154	0.54545	0.	-3.2458e-002
9355	16.246	0.54545	5.e-002	1.0168e-005
9356	16.246	0.27273	0.	-9.4699e-002
9357	16.154	0.36364	0.	-2.1192e-002
9358	16.246	0.36364	5.e-002	4.4349e-006
9359	16.154	0.18182	0.	0.27359
9360	16.246	0.18182	5.e-002	2.7147e-006
9361	16.246	9.0909e-002	0.	-8.7751e-002
9362	16.062	5.7273	0.	0.26011
9363	15.969	5.8182	0.	0.42449
9364	16.062	5.8182	5.e-002	3.3277e-006
9365	16.062	5.9091	0.	0.11251
9366	16.062	5.5455	0.	7.8972e-002
9367	15.969	5.6364	0.	7.051e-002
9368	16.062	5.6364	5.e-002	-9.1614e-007
9369	16.062	5.3636	0.	2.9122e-002
9370	15.969	5.4545	0.	7.1253e-002
9371	16.062	5.4545	5.e-002	-5.0849e-006
9372	16.062	5.1818	0.	-4.8925e-002
9373	15.969	5.2727	0.	-2.0854e-002
9374	16.062	5.2727	5.e-002	-1.5267e-005
9375	16.062	5.	0.	-0.11855
9376	15.969	5.0909	0.	-9.038e-002
9377	16.062	5.0909	5.e-002	-2.4574e-005
9378	16.062	4.8182	0.	-0.22455
9379	15.969	4.9091	0.	-0.15921
9380	16.062	4.9091	5.e-002	-3.7933e-005
9381	16.062	4.6364	0.	-0.36819
9382	15.969	4.7273	0.	-0.25289
9383	16.062	4.7273	5.e-002	-5.6284e-005
9384	16.062	4.4545	0.	-7.9217e-002
9385	15.969	4.5455	0.	-0.35459
9386	16.062	4.5455	5.e-002	-9.2414e-005
9387	16.062	4.2727	0.	5.1528e-002
9388	15.969	4.3636	0.	-7.1868e-002
9389	16.062	4.3636	5.e-002	-1.6422e-004
9390	16.062	4.0909	0.	0.34557
9391	15.969	4.1818	0.	-0.24202
9392	16.062	4.1818	5.e-002	-2.6202e-004
9393	16.062	3.9091	0.	1.1595
9394	15.969	4.	0.	0.2292
9395	16.062	4.	5.e-002	-1.5028e-004
9396	16.062	3.7273	0.	0.82112
9397	15.969	3.8182	0.	0.5416
9398	16.062	3.8182	5.e-002	-9.6952e-005
9399	16.062	3.5455	0.	0.28129
9400	15.969	3.6364	0.	0.13914
9401	16.062	3.6364	5.e-002	-5.8187e-005
9402	16.062	3.3636	0.	0.34397
9403	15.969	3.4545	0.	0.29587
9404	16.062	3.4545	5.e-002	-2.294e-005
9405	16.062	3.1818	0.	0.29293
9406	15.969	3.2727	0.	0.28091
9407	16.062	3.2727	5.e-002	-1.334e-005
9408	16.062	3.	0.	0.26475
9409	15.969	3.0909	0.	0.25952
9410	16.062	3.0909	5.e-002	-6.1572e-006
9411	16.062	2.8182	0.	0.29293
9412	15.969	2.9091	0.	0.25953
9413	16.062	2.9091	5.e-002	2.3148e-006
9414	16.062	2.6364	0.	0.34397
9415	15.969	2.7273	0.	0.28091
9416	16.062	2.7273	5.e-002	1.2918e-005
9417	16.062	2.4545	0.	0.28129
9418	15.969	2.5455	0.	0.29587
9419	16.062	2.5455	5.e-002	2.6575e-005
9420	16.062	2.2727	0.	0.82112
9421	15.969	2.3636	0.	0.13914
9422	16.062	2.3636	5.e-002	5.6389e-005
9423	16.062	2.0909	0.	1.1595
9424	15.969	2.1818	0.	0.5416
9425	16.062	2.1818	5.e-002	1.0652e-004
9426	16.062	1.9091	0.	0.34557
9427	15.969	2.	0.	0.2292
9428	16.062	2.	5.e-002	1.5802e-004
9429	16.062	1.7273	0.	5.1529e-002
9430	15.969	1.8182	0.	-0.24202
9431	16.062	1.8182	5.e-002	2.068e-004
9432	16.062	1.5455	0.	-7.9216e-002
9433	15.969	1.6364	0.	-7.1867e-002
9434	16.062	1.6364	5.e-002	1.2603e-004
9435	16.062	1.3636	0.	-0.36819
9436	15.969	1.4545	0.	-0.35459
9437	16.062	1.4545	5.e-002	8.0595e-005
9438	16.062	1.1818	0.	-0.22455
9439	15.969	1.2727	0.	-0.25289
9440	16.062	1.2727	5.e-002	5.8133e-005
9441	16.062	1.	0.	-0.11855
9442	15.969	1.0909	0.	-0.15921
9443	16.062	1.0909	5.e-002	3.7933e-005
9444	16.062	0.81818	0.	-4.8923e-002
9445	15.969	0.90909	0.	-9.0378e-002
9446	16.062	0.90909	5.e-002	2.648e-005
9447	16.062	0.63636	0.	2.9124e-002
9448	15.969	0.72727	0.	-2.0852e-002
9449	16.062	0.72727	5.e-002	1.7173e-005
9450	16.062	0.45455	0.	7.8972e-002
9451	15.969	0.54545	0.	7.1254e-002
9452	16.062	0.54545	5.e-002	9.0261e-006
9453	16.062	0.27273	0.	0.26011
9454	15.969	0.36364	0.	7.0509e-002
9455	16.062	0.36364	5.e-002	2.5604e-006
9456	15.969	0.18182	0.	0.42449
9457	16.062	0.18182	5.e-002	8.8463e-007
9458	16.062	9.0909e-002	0.	0.11251
9459	15.877	5.7273	0.	0.20345
9460	15.785	5.8182	0.	0.30499
9461	15.877	5.8182	5.e-002	4.3105e-006
9462	15.877	5.9091	0.	6.1197e-002
9463	15.877	5.5455	0.	4.6855e-002
9464	15.785	5.6364	0.	1.393e-002
9465	15.877	5.6364	5.e-002	1.5742e-006
9466	15.877	5.3636	0.	1.2691e-002
9467	15.785	5.4545	0.	6.3473e-002
9468	15.877	5.4545	5.e-002	-2.5008e-006
9469	15.877	5.1818	0.	-6.6519e-002
9470	15.785	5.2727	0.	-2.1788e-002
9471	15.877	5.2727	5.e-002	-1.2072e-005
9472	15.877	5.	0.	-0.13327
9473	15.785	5.0909	0.	-7.6747e-002
9474	15.877	5.0909	5.e-002	-2.0281e-005
9475	15.877	4.8182	0.	-0.18945
9476	15.785	4.9091	0.	-0.13242
9477	15.877	4.9091	5.e-002	-3.4283e-005
9478	15.877	4.6364	0.	-0.24198
9479	15.785	4.7273	0.	-0.17206
9480	15.877	4.7273	5.e-002	-5.405e-005
9481	15.877	4.4545	0.	-0.35023
9482	15.785	4.5455	0.	-0.20976
9483	15.877	4.5455	5.e-002	-9.3887e-005
9484	15.877	4.2727	0.	-0.36434
9485	15.785	4.3636	0.	-0.28356
9486	15.877	4.3636	5.e-002	-1.5001e-004
9487	15.877	4.0909	0.	-0.35187
9488	15.785	4.1818	0.	-0.23195
9489	15.877	4.1818	5.e-002	-1.4227e-004
9490	15.877	3.9091	0.	-0.37717
9491	15.785	4.	0.	-0.25664
9492	15.877	4.	5.e-002	-1.7835e-004
9493	15.877	3.7273	0.	-0.12223
9494	15.785	3.8182	0.	-0.19355
9495	15.877	3.8182	5.e-002	-8.0179e-005
9496	15.877	3.5455	0.	0.17076
9497	15.785	3.6364	0.	5.2797e-002
9498	15.877	3.6364	5.e-002	-5.5022e-005
9499	15.877	3.3636	0.	0.23933
9500	15.785	3.4545	0.	0.16174
9501	15.877	3.4545	5.e-002	-2.8223e-005
9502	15.877	3.1818	0.	0.25058
9503	15.785	3.2727	0.	0.20645
9504	15.877	3.2727	5.e-002	-1.5341e-005
9505	15.877	3.	0.	0.25725
9506	15.785	3.0909	0.	0.22798
9507	15.877	3.0909	5.e-002	-5.8478e-006
9508	15.877	2.8182	0.	0.25059
9509	15.785	2.9091	0.	0.22798
9510	15.877	2.9091	5.e-002	5.7594e-006
9511	15.877	2.6364	0.	0.23933
9512	15.785	2.7273	0.	0.20645
9513	15.877	2.7273	5.e-002	1.6837e-005
9514	15.877	2.4545	0.	0.17076
9515	15.785	2.5455	0.	0.16174
9516	15.877	2.5455	5.e-002	3.4079e-005
9517	15.877	2.2727	0.	-0.12223
9518	15.785	2.3636	0.	5.2797e-002
9519	15.877	2.3636	5.e-002	4.9463e-005
9520	15.877	2.0909	0.	-0.37717
9521	15.785	2.1818	0.	-0.19355
9522	15.877	2.1818	5.e-002	8.6805e-005
9523	15.877	1.9091	0.	-0.35187
9524	15.785	2.	0.	-0.25664
9525	15.877	2.	5.e-002	1.8496e-004
9526	15.877	1.7273	0.	-0.36434
9527	15.785	1.8182	0.	-0.23195
9528	15.877	1.8182	5.e-002	1.3881e-004
9529	15.877	1.5455	0.	-0.35023
9530	15.785	1.6364	0.	-0.28356
9531	15.877	1.6364	5.e-002	1.3136e-004
9532	15.877	1.3636	0.	-0.24197
9533	15.785	1.4545	0.	-0.20976
9534	15.877	1.4545	5.e-002	7.8161e-005
9535	15.877	1.1818	0.	-0.18945
9536	15.785	1.2727	0.	-0.17206
9537	15.877	1.2727	5.e-002	4.8468e-005
9538	15.877	1.	0.	-0.13327
9539	15.785	1.0909	0.	-0.13242
9540	15.877	1.0909	5.e-002	3.5146e-005
9541	15.877	0.81818	0.	-6.6517e-002
9542	15.785	0.90909	0.	-7.6745e-002
9543	15.877	0.90909	5.e-002	2.1734e-005
9544	15.877	0.63636	0.	1.2692e-002
9545	15.785	0.72727	0.	-2.1786e-002
9546	15.877	0.72727	5.e-002	1.5886e-005
9547	15.877	0.45455	0.	4.6855e-002
9548	15.785	0.54545	0.	6.3473e-002
9549	15.877	0.54545	5.e-002	6.4161e-006
9550	15.877	0.27273	0.	0.20345
9551	15.785	0.36364	0.	1.393e-002
9552	15.877	0.36364	5.e-002	1.9824e-006
9553	15.785	0.18182	0.	0.30499
9554	15.877	0.18182	5.e-002	2.1659e-006
9555	15.877	9.0909e-002	0.	6.1196e-002
9556	15.692	5.7273	0.	0.12822
9557	15.6	5.8182	0.	0.16396
9558	15.692	5.8182	5.e-002	4.4761e-006
9559	15.692	5.9091	0.	4.2556e-002
9560	15.692	5.5455	0.	2.8773e-002
9561	15.6	5.6364	0.	-3.4908e-002
9562	15.692	5.6364	5.e-002	3.3473e-006
9563	15.692	5.3636	0.	2.6489e-002
9564	15.6	5.4545	0.	5.8855e-002
9565	15.692	5.4545	5.e-002	-1.1868e-006
9566	15.692	5.1818	0.	-3.386e-002
9567	15.6	5.2727	0.	-7.5335e-003
9568	15.692	5.2727	5.e-002	-8.7695e-006
9569	15.692	5.	0.	-7.7393e-002
9570	15.6	5.0909	0.	-4.3025e-002
9571	15.692	5.0909	5.e-002	-1.6206e-005
9572	15.692	4.8182	0.	-0.11665
9573	15.6	4.9091	0.	-7.9328e-002
9574	15.692	4.9091	5.e-002	-3.1634e-005
9575	15.692	4.6364	0.	-0.14151
9576	15.6	4.7273	0.	-0.10822
9577	15.692	4.7273	5.e-002	-5.0123e-005
9578	15.692	4.4545	0.	-0.14359
9579	15.6	4.5455	0.	-0.1266
9580	15.692	4.5455	5.e-002	-8.1762e-005
9581	15.692	4.2727	0.	-0.14903
9582	15.6	4.3636	0.	-0.13331
9583	15.692	4.3636	5.e-002	-1.3063e-004
9584	15.692	4.0909	0.	-0.13251
9585	15.6	4.1818	0.	-0.15067
9586	15.692	4.1818	5.e-002	-1.6511e-004
9587	15.692	3.9091	0.	-6.7548e-002
9588	15.6	4.	0.	-0.12665
9589	15.692	4.	5.e-002	-1.1538e-004
9590	15.692	3.7273	0.	-9.8422e-003
9591	15.6	3.8182	0.	-7.3551e-002
9592	15.692	3.8182	5.e-002	-1.3158e-004
9593	15.692	3.5455	0.	5.4752e-002
9594	15.6	3.6364	0.	-1.5047e-002
9595	15.692	3.6364	5.e-002	-7.3723e-005
9596	15.692	3.3636	0.	0.13799
9597	15.6	3.4545	0.	7.0741e-002
9598	15.692	3.4545	5.e-002	-3.8843e-005
9599	15.692	3.1818	0.	0.19081
9600	15.6	3.2727	0.	0.14185
9601	15.692	3.2727	5.e-002	-1.6426e-005
9602	15.692	3.	0.	0.20508
9603	15.6	3.0909	0.	0.17426
9604	15.692	3.0909	5.e-002	-4.0288e-006
9605	15.692	2.8182	0.	0.19081
9606	15.6	2.9091	0.	0.17426
9607	15.692	2.9091	5.e-002	1.1462e-005
9608	15.692	2.6364	0.	0.13799
9609	15.6	2.7273	0.	0.14185
9610	15.692	2.7273	5.e-002	1.7192e-005
9611	15.692	2.4545	0.	5.4752e-002
9612	15.6	2.5455	0.	7.0741e-002
9613	15.692	2.5455	5.e-002	3.9616e-005
9614	15.692	2.2727	0.	-9.8417e-003
9615	15.6	2.3636	0.	-1.5047e-002
9616	15.692	2.3636	5.e-002	6.7726e-005
9617	15.692	2.0909	0.	-6.7548e-002
9618	15.6	2.1818	0.	-7.355e-002
9619	15.692	2.1818	5.e-002	1.1368e-004
9620	15.692	1.9091	0.	-0.13251
9621	15.6	2.	0.	-0.12665
9622	15.692	2.	5.e-002	1.1661e-004
9623	15.692	1.7273	0.	-0.14903
9624	15.6	1.8182	0.	-0.15067
9625	15.692	1.8182	5.e-002	1.6078e-004
9626	15.692	1.5455	0.	-0.14359
9627	15.6	1.6364	0.	-0.13331
9628	15.692	1.6364	5.e-002	1.0591e-004
9629	15.692	1.3636	0.	-0.14151
9630	15.6	1.4545	0.	-0.12659
9631	15.692	1.4545	5.e-002	7.3135e-005
9632	15.692	1.1818	0.	-0.11665
9633	15.6	1.2727	0.	-0.10822
9634	15.692	1.2727	5.e-002	4.3931e-005
9635	15.692	1.	0.	-7.7391e-002
9636	15.6	1.0909	0.	-7.9327e-002
9637	15.692	1.0909	5.e-002	2.8487e-005
9638	15.692	0.81818	0.	-3.3858e-002
9639	15.6	0.90909	0.	-4.3023e-002
9640	15.692	0.90909	5.e-002	1.9787e-005
9641	15.692	0.63636	0.	2.649e-002
9642	15.6	0.72727	0.	-7.5316e-003
9643	15.692	0.72727	5.e-002	1.36e-005
9644	15.692	0.45455	0.	2.8774e-002
9645	15.6	0.54545	0.	5.8854e-002
9646	15.692	0.54545	5.e-002	6.64e-006
9647	15.692	0.27273	0.	0.12822
9648	15.6	0.36364	0.	-3.4907e-002
9649	15.692	0.36364	5.e-002	3.6114e-006
9650	15.6	0.18182	0.	0.16396
9651	15.692	0.18182	5.e-002	1.8258e-006
9652	15.692	9.0909e-002	0.	4.2556e-002
9653	15.508	5.7273	0.	4.6368e-002
9654	15.415	5.8182	0.	4.1494e-002
9655	15.508	5.8182	5.e-002	4.1986e-006
9656	15.508	5.9091	0.	1.8551e-002
9657	15.508	5.5455	0.	1.0755e-003
9658	15.415	5.6364	0.	-7.4271e-002
9659	15.508	5.6364	5.e-002	3.7538e-006
9660	15.508	5.3636	0.	2.6017e-002
9661	15.415	5.4545	0.	4.875e-002
9662	15.508	5.4545	5.e-002	2.2212e-006
9663	15.508	5.1818	0.	-1.6768e-002
9664	15.415	5.2727	0.	1.0784e-003
9665	15.508	5.2727	5.e-002	-4.1379e-006
9666	15.508	5.	0.	-4.5509e-002
9667	15.415	5.0909	0.	-2.0178e-002
9668	15.508	5.0909	5.e-002	-1.2106e-005
9669	15.508	4.8182	0.	-7.1663e-002
9670	15.415	4.9091	0.	-4.5207e-002
9671	15.508	4.9091	5.e-002	-2.3186e-005
9672	15.508	4.6364	0.	-9.3849e-002
9673	15.415	4.7273	0.	-6.5297e-002
9674	15.508	4.7273	5.e-002	-3.9037e-005
9675	15.508	4.4545	0.	-0.11596
9676	15.415	4.5455	0.	-8.4778e-002
9677	15.508	4.5455	5.e-002	-6.2525e-005
9678	15.508	4.2727	0.	-0.13334
9679	15.415	4.3636	0.	-0.10457
9680	15.508	4.3636	5.e-002	-9.4834e-005
9681	15.508	4.0909	0.	-0.14246
9682	15.415	4.1818	0.	-0.11789
9683	15.508	4.1818	5.e-002	-1.5085e-004
9684	15.508	3.9091	0.	-0.12992
9685	15.415	4.	0.	-0.12125
9686	15.508	4.	5.e-002	-1.5409e-004
9687	15.508	3.7273	0.	-7.4515e-002
9688	15.415	3.8182	0.	-9.6254e-002
9689	15.508	3.8182	5.e-002	-1.0611e-004
9690	15.508	3.5455	0.	7.5989e-003
9691	15.415	3.6364	0.	-3.6947e-002
9692	15.508	3.6364	5.e-002	-8.0419e-005
9693	15.508	3.3636	0.	8.2702e-002
9694	15.415	3.4545	0.	3.2891e-002
9695	15.508	3.4545	5.e-002	-5.3388e-005
9696	15.508	3.1818	0.	0.13358
9697	15.415	3.2727	0.	9.2107e-002
9698	15.508	3.2727	5.e-002	-2.175e-005
9699	15.508	3.	0.	0.15164
9700	15.415	3.0909	0.	0.12588
9701	15.508	3.0909	5.e-002	-3.0441e-006
9702	15.508	2.8182	0.	0.13358
9703	15.415	2.9091	0.	0.12588
9704	15.508	2.9091	5.e-002	1.0739e-005
9705	15.508	2.6364	0.	8.2703e-002
9706	15.415	2.7273	0.	9.2108e-002
9707	15.508	2.7273	5.e-002	2.8614e-005
9708	15.508	2.4545	0.	7.5984e-003
9709	15.415	2.5455	0.	3.2891e-002
9710	15.508	2.5455	5.e-002	4.1972e-005
9711	15.508	2.2727	0.	-7.4515e-002
9712	15.415	2.3636	0.	-3.6948e-002
9713	15.508	2.3636	5.e-002	8.8071e-005
9714	15.508	2.0909	0.	-0.12992
9715	15.415	2.1818	0.	-9.6253e-002
9716	15.508	2.1818	5.e-002	1.0879e-004
9717	15.508	1.9091	0.	-0.14246
9718	15.415	2.	0.	-0.12125
9719	15.508	2.	5.e-002	1.2306e-004
9720	15.508	1.7273	0.	-0.13334
9721	15.415	1.8182	0.	-0.11789
9722	15.508	1.8182	5.e-002	9.522e-005
9723	15.508	1.5455	0.	-0.11596
9724	15.415	1.6364	0.	-0.10457
9725	15.508	1.6364	5.e-002	8.2113e-005
9726	15.508	1.3636	0.	-9.3848e-002
9727	15.415	1.4545	0.	-8.4778e-002
9728	15.508	1.4545	5.e-002	6.3429e-005
9729	15.508	1.1818	0.	-7.1662e-002
9730	15.415	1.2727	0.	-6.5296e-002
9731	15.508	1.2727	5.e-002	3.7853e-005
9732	15.508	1.	0.	-4.5508e-002
9733	15.415	1.0909	0.	-4.5206e-002
9734	15.508	1.0909	5.e-002	2.5601e-005
9735	15.508	0.81818	0.	-1.6766e-002
9736	15.415	0.90909	0.	-2.0177e-002
9737	15.508	0.90909	5.e-002	1.3636e-005
9738	15.508	0.63636	0.	2.6017e-002
9739	15.415	0.72727	0.	1.0807e-003
9740	15.508	0.72727	5.e-002	8.7649e-006
9741	15.508	0.45455	0.	1.0751e-003
9742	15.415	0.54545	0.	4.875e-002
9743	15.508	0.54545	5.e-002	5.0343e-006
9744	15.508	0.27273	0.	4.6369e-002
9745	15.415	0.36364	0.	-7.4271e-002
9746	15.508	0.36364	5.e-002	2.1665e-006
9747	15.415	0.18182	0.	4.1495e-002
9748	15.508	0.18182	5.e-002	5.9371e-007
9749	15.508	9.0909e-002	0.	1.8552e-002
9750	15.323	5.7273	0.	-1.3152e-002
9751	15.231	5.8182	0.	-4.2539e-002
9752	15.323	5.8182	5.e-002	5.9145e-006
9753	15.323	5.9091	0.	4.4575e-003
9754	15.323	5.5455	0.	-1.6905e-002
9755	15.231	5.6364	0.	-9.7386e-002
9756	15.323	5.6364	5.e-002	8.1351e-006
9757	15.323	5.3636	0.	2.6897e-002
9758	15.231	5.4545	0.	4.0763e-002
9759	15.323	5.4545	5.e-002	6.6865e-006
9760	15.323	5.1818	0.	-1.2922e-003
9761	15.231	5.2727	0.	8.2743e-003
9762	15.323	5.2727	5.e-002	-1.2578e-007
9763	15.323	5.	0.	-1.966e-002
9764	15.231	5.0909	0.	-2.6363e-003
9765	15.323	5.0909	5.e-002	-6.1445e-006
9766	15.323	4.8182	0.	-3.8931e-002
9767	15.231	4.9091	0.	-2.0435e-002
9768	15.323	4.9091	5.e-002	-1.4655e-005
9769	15.323	4.6364	0.	-5.6206e-002
9770	15.231	4.7273	0.	-3.6208e-002
9771	15.323	4.7273	5.e-002	-3.294e-005
9772	15.323	4.4545	0.	-7.2906e-002
9773	15.231	4.5455	0.	-5.2454e-002
9774	15.323	4.5455	5.e-002	-5.4037e-005
9775	15.323	4.2727	0.	-8.8119e-002
9776	15.231	4.3636	0.	-6.8514e-002
9777	15.323	4.3636	5.e-002	-7.3265e-005
9778	15.323	4.0909	0.	-9.5465e-002
9779	15.231	4.1818	0.	-8.1895e-002
9780	15.323	4.1818	5.e-002	-1.078e-004
9781	15.323	3.9091	0.	-8.6273e-002
9782	15.231	4.	0.	-8.4299e-002
9783	15.323	4.	5.e-002	-1.2019e-004
9784	15.323	3.7273	0.	-5.6596e-002
9785	15.231	3.8182	0.	-6.9227e-002
9786	15.323	3.8182	5.e-002	-9.0691e-005
9787	15.323	3.5455	0.	-7.6886e-003
9788	15.231	3.6364	0.	-3.4749e-002
9789	15.323	3.6364	5.e-002	-8.0259e-005
9790	15.323	3.3636	0.	4.8482e-002
9791	15.231	3.4545	0.	1.38e-002
9792	15.323	3.4545	5.e-002	-6.0539e-005
9793	15.323	3.1818	0.	9.2155e-002
9794	15.231	3.2727	0.	6.0653e-002
9795	15.323	3.2727	5.e-002	-3.4097e-005
9796	15.323	3.	0.	0.10839
9797	15.231	3.0909	0.	8.8986e-002
9798	15.323	3.0909	5.e-002	-5.8476e-006
9799	15.323	2.8182	0.	9.2155e-002
9800	15.231	2.9091	0.	8.8987e-002
9801	15.323	2.9091	5.e-002	1.2878e-005
9802	15.323	2.6364	0.	4.8483e-002
9803	15.231	2.7273	0.	6.0653e-002
9804	15.323	2.7273	5.e-002	2.9737e-005
9805	15.323	2.4545	0.	-7.6885e-003
9806	15.231	2.5455	0.	1.38e-002
9807	15.323	2.5455	5.e-002	5.3684e-005
9808	15.323	2.2727	0.	-5.6596e-002
9809	15.231	2.3636	0.	-3.4748e-002
9810	15.323	2.3636	5.e-002	8.5956e-005
9811	15.323	2.0909	0.	-8.6273e-002
9812	15.231	2.1818	0.	-6.9226e-002
9813	15.323	2.1818	5.e-002	9.15e-005
9814	15.323	1.9091	0.	-9.5464e-002
9815	15.231	2.	0.	-8.4299e-002
9816	15.323	2.	5.e-002	6.0655e-005
9817	15.323	1.7273	0.	-8.8118e-002
9818	15.231	1.8182	0.	-8.1896e-002
9819	15.323	1.8182	5.e-002	1.0318e-004
9820	15.323	1.5455	0.	-7.2905e-002
9821	15.231	1.6364	0.	-6.8513e-002
9822	15.323	1.6364	5.e-002	6.0739e-005
9823	15.323	1.3636	0.	-5.6206e-002
9824	15.231	1.4545	0.	-5.2453e-002
9825	15.323	1.4545	5.e-002	4.9171e-005
9826	15.323	1.1818	0.	-3.893e-002
9827	15.231	1.2727	0.	-3.6208e-002
9828	15.323	1.2727	5.e-002	3.065e-005
9829	15.323	1.	0.	-1.9659e-002
9830	15.231	1.0909	0.	-2.0434e-002
9831	15.323	1.0909	5.e-002	1.4393e-005
9832	15.323	0.81818	0.	-1.2909e-003
9833	15.231	0.90909	0.	-2.6366e-003
9834	15.323	0.90909	5.e-002	7.6612e-006
9835	15.323	0.63636	0.	2.69e-002
9836	15.231	0.72727	0.	8.277e-003
9837	15.323	0.72727	5.e-002	6.6808e-006
9838	15.323	0.45455	0.	-1.6904e-002
9839	15.231	0.54545	0.	4.0764e-002
9840	15.323	0.54545	5.e-002	2.0854e-006
9841	15.323	0.27273	0.	-1.3151e-002
9842	15.231	0.36364	0.	-9.7386e-002
9843	15.323	0.36364	5.e-002	-1.4362e-006
9844	15.231	0.18182	0.	-4.2538e-002
9845	15.323	0.18182	5.e-002	6.09e-007
9846	15.323	9.0909e-002	0.	4.4565e-003
9847	15.138	5.7273	0.	-5.2227e-002
9848	15.046	5.8182	0.	-9.1489e-002
9849	15.138	5.8182	5.e-002	5.0832e-006
9850	15.138	5.9091	0.	-4.2721e-003
9851	15.138	5.5455	0.	-2.8473e-002
9852	15.046	5.6364	0.	-0.10834
9853	15.138	5.6364	5.e-002	7.9364e-006
9854	15.138	5.3636	0.	2.6065e-002
9855	15.046	5.4545	0.	3.3777e-002
9856	15.138	5.4545	5.e-002	8.0898e-006
9857	15.138	5.1818	0.	8.557e-003
9858	15.046	5.2727	0.	1.2669e-002
9859	15.138	5.2727	5.e-002	2.235e-006
9860	15.138	5.	0.	-2.7225e-003
9861	15.046	5.0909	0.	8.6771e-003
9862	15.138	5.0909	5.e-002	-3.4951e-006
9863	15.138	4.8182	0.	-1.741e-002
9864	15.046	4.9091	0.	-4.0307e-003
9865	15.138	4.9091	5.e-002	-1.0741e-005
9866	15.138	4.6364	0.	-3.2207e-002
9867	15.046	4.7273	0.	-1.6635e-002
9868	15.138	4.7273	5.e-002	-2.2244e-005
9869	15.138	4.4545	0.	-4.7676e-002
9870	15.046	4.5455	0.	-3.0676e-002
9871	15.138	4.5455	5.e-002	-3.6715e-005
9872	15.138	4.2727	0.	-6.1765e-002
9873	15.046	4.3636	0.	-4.485e-002
9874	15.138	4.3636	5.e-002	-5.9965e-005
9875	15.138	4.0909	0.	-7.0211e-002
9876	15.046	4.1818	0.	-5.6308e-002
9877	15.138	4.1818	5.e-002	-8.2367e-005
9878	15.138	3.9091	0.	-6.6756e-002
9879	15.046	4.	0.	-6.0289e-002
9880	15.138	4.	5.e-002	-7.7177e-005
9881	15.138	3.7273	0.	-4.6439e-002
9882	15.046	3.8182	0.	-5.1339e-002
9883	15.138	3.8182	5.e-002	-8.7047e-005
9884	15.138	3.5455	0.	-1.0953e-002
9885	15.046	3.6364	0.	-2.7392e-002
9886	15.138	3.6364	5.e-002	-1.2319e-004
9887	15.138	3.3636	0.	3.0396e-002
9888	15.046	3.4545	0.	6.9423e-003
9889	15.138	3.4545	5.e-002	-8.614e-005
9890	15.138	3.1818	0.	6.3878e-002
9891	15.046	3.2727	0.	4.1298e-002
9892	15.138	3.2727	5.e-002	-4.541e-005
9893	15.138	3.	0.	7.6777e-002
9894	15.046	3.0909	0.	6.2937e-002
9895	15.138	3.0909	5.e-002	-9.8181e-006
9896	15.138	2.8182	0.	6.3878e-002
9897	15.046	2.9091	0.	6.2938e-002
9898	15.138	2.9091	5.e-002	1.5992e-005
9899	15.138	2.6364	0.	3.0396e-002
9900	15.046	2.7273	0.	4.1299e-002
9901	15.138	2.7273	5.e-002	4.0076e-005
9902	15.138	2.4545	0.	-1.0951e-002
9903	15.046	2.5455	0.	6.9424e-003
9904	15.138	2.5455	5.e-002	8.9712e-005
9905	15.138	2.2727	0.	-4.6438e-002
9906	15.046	2.3636	0.	-2.7391e-002
9907	15.138	2.3636	5.e-002	1.2406e-004
9908	15.138	2.0909	0.	-6.6756e-002
9909	15.046	2.1818	0.	-5.1338e-002
9910	15.138	2.1818	5.e-002	5.6281e-005
9911	15.138	1.9091	0.	-7.0212e-002
9912	15.046	2.	0.	-6.0289e-002
9913	15.138	2.	5.e-002	2.4091e-005
9914	15.138	1.7273	0.	-6.1766e-002
9915	15.046	1.8182	0.	-5.6308e-002
9916	15.138	1.8182	5.e-002	6.1839e-005
9917	15.138	1.5455	0.	-4.7675e-002
9918	15.046	1.6364	0.	-4.4849e-002
9919	15.138	1.6364	5.e-002	4.5523e-005
9920	15.138	1.3636	0.	-3.2206e-002
9921	15.046	1.4545	0.	-3.0675e-002
9922	15.138	1.4545	5.e-002	3.3657e-005
9923	15.138	1.1818	0.	-1.7409e-002
9924	15.046	1.2727	0.	-1.6635e-002
9925	15.138	1.2727	5.e-002	2.e-005
9926	15.138	1.	0.	-2.7224e-003
9927	15.046	1.0909	0.	-4.0295e-003
9928	15.138	1.0909	5.e-002	1.094e-005
9929	15.138	0.81818	0.	8.5582e-003
9930	15.046	0.90909	0.	8.6784e-003
9931	15.138	0.90909	5.e-002	6.5666e-006
9932	15.138	0.63636	0.	2.6066e-002
9933	15.046	0.72727	0.	1.2671e-002
9934	15.138	0.72727	5.e-002	1.4907e-006
9935	15.138	0.45455	0.	-2.8473e-002
9936	15.046	0.54545	0.	3.3776e-002
9937	15.138	0.54545	5.e-002	-9.3657e-007
9938	15.138	0.27273	0.	-5.2226e-002
9939	15.046	0.36364	0.	-0.10834
9940	15.138	0.36364	5.e-002	-8.6524e-007
9941	15.046	0.18182	0.	-9.1488e-002
9942	15.138	0.18182	5.e-002	1.6902e-006
9943	15.138	9.0909e-002	0.	-4.2715e-003
9944	14.954	5.7273	0.	-7.4081e-002
9945	14.862	5.8182	0.	-0.11322
9946	14.954	5.8182	5.e-002	4.6979e-006
9947	14.954	5.9091	0.	-8.612e-003
9948	14.954	5.5455	0.	-3.461e-002
9949	14.862	5.6364	0.	-0.11061
9950	14.954	5.6364	5.e-002	8.606e-006
9951	14.954	5.3636	0.	2.4537e-002
9952	14.862	5.4545	0.	2.7821e-002
9953	14.954	5.4545	5.e-002	1.0027e-005
9954	14.954	5.1818	0.	1.4651e-002
9955	14.862	5.2727	0.	1.497e-002
9956	14.954	5.2727	5.e-002	5.6896e-006
9957	14.954	5.	0.	8.2853e-003
9958	14.862	5.0909	0.	1.5549e-002
9959	14.954	5.0909	5.e-002	1.5294e-006
9960	14.954	4.8182	0.	-2.772e-003
9961	14.862	4.9091	0.	6.6193e-003
9962	14.954	4.9091	5.e-002	-7.1529e-006
9963	14.954	4.6364	0.	-1.4791e-002
9964	14.862	4.7273	0.	-3.2051e-003
9965	14.954	4.7273	5.e-002	-1.4741e-005
9966	14.954	4.4545	0.	-2.7585e-002
9967	14.862	4.5455	0.	-1.4716e-002
9968	14.954	4.5455	5.e-002	-2.3829e-005
9969	14.954	4.2727	0.	-3.9173e-002
9970	14.862	4.3636	0.	-2.6267e-002
9971	14.954	4.3636	5.e-002	-3.3106e-005
9972	14.954	4.0909	0.	-4.6273e-002
9973	14.862	4.1818	0.	-3.5617e-002
9974	14.954	4.1818	5.e-002	-4.2487e-005
9975	14.954	3.9091	0.	-4.4831e-002
9976	14.862	4.	0.	-3.927e-002
9977	14.954	4.	5.e-002	-5.4297e-005
9978	14.954	3.7273	0.	-3.1977e-002
9979	14.862	3.8182	0.	-3.3927e-002
9980	14.954	3.8182	5.e-002	-6.4837e-005
9981	14.954	3.5455	0.	-8.1855e-003
9982	14.862	3.6364	0.	-1.8236e-002
9983	14.954	3.6364	5.e-002	-4.9438e-005
9984	14.954	3.3636	0.	2.091e-002
9985	14.862	3.4545	0.	5.3026e-003
9986	14.954	3.4545	5.e-002	-9.2221e-005
9987	14.954	3.1818	0.	4.5259e-002
9988	14.862	3.2727	0.	2.9587e-002
9989	14.954	3.2727	5.e-002	-4.3728e-005
9990	14.954	3.	0.	5.4802e-002
9991	14.862	3.0909	0.	4.5185e-002
9992	14.954	3.0909	5.e-002	-2.7104e-005
9993	14.954	2.8182	0.	4.526e-002
9994	14.862	2.9091	0.	4.5185e-002
9995	14.954	2.9091	5.e-002	2.679e-005
9996	14.954	2.6364	0.	2.091e-002
9997	14.862	2.7273	0.	2.9588e-002
9998	14.954	2.7273	5.e-002	2.0714e-005
9999	14.954	2.4545	0.	-8.1859e-003
10000	14.862	2.5455	0.	5.3022e-003
10001	14.954	2.5455	5.e-002	9.2285e-005
10002	14.954	2.2727	0.	-3.1976e-002
10003	14.862	2.3636	0.	-1.8237e-002
10004	14.954	2.3636	5.e-002	4.8284e-005
10005	14.954	2.0909	0.	-4.483e-002
10006	14.862	2.1818	0.	-3.3926e-002
10007	14.954	2.1818	5.e-002	6.3326e-005
10008	14.954	1.9091	0.	-4.6272e-002
10009	14.862	2.	0.	-3.9271e-002
10010	14.954	2.	5.e-002	5.2072e-005
10011	14.954	1.7273	0.	-3.9173e-002
10012	14.862	1.8182	0.	-3.5616e-002
10013	14.954	1.8182	5.e-002	4.1499e-005
10014	14.954	1.5455	0.	-2.7585e-002
10015	14.862	1.6364	0.	-2.6267e-002
10016	14.954	1.6364	5.e-002	1.8318e-005
10017	14.954	1.3636	0.	-1.4791e-002
10018	14.862	1.4545	0.	-1.4715e-002
10019	14.954	1.4545	5.e-002	2.8277e-005
10020	14.954	1.1818	0.	-2.7716e-003
10021	14.862	1.2727	0.	-3.2049e-003
10022	14.954	1.2727	5.e-002	1.3928e-005
10023	14.954	1.	0.	8.2877e-003
10024	14.862	1.0909	0.	6.6204e-003
10025	14.954	1.0909	5.e-002	7.5182e-006
10026	14.954	0.81818	0.	1.4653e-002
10027	14.862	0.90909	0.	1.5551e-002
10028	14.954	0.90909	5.e-002	4.3641e-006
10029	14.954	0.63636	0.	2.4536e-002
10030	14.862	0.72727	0.	1.4971e-002
10031	14.954	0.72727	5.e-002	9.8299e-007
10032	14.954	0.45455	0.	-3.4611e-002
10033	14.862	0.54545	0.	2.7821e-002
10034	14.954	0.54545	5.e-002	-2.1178e-006
10035	14.954	0.27273	0.	-7.408e-002
10036	14.862	0.36364	0.	-0.11061
10037	14.954	0.36364	5.e-002	-2.4022e-006
10038	14.862	0.18182	0.	-0.11322
10039	14.954	0.18182	5.e-002	2.2809e-006
10040	14.954	9.0909e-002	0.	-8.6109e-003
10041	14.769	5.7273	0.	-8.369e-002
10042	14.677	5.8182	0.	-0.1166
10043	14.769	5.8182	5.e-002	3.2028e-006
10044	14.769	5.9091	0.	-1.0328e-002
10045	14.769	5.5455	0.	-3.7236e-002
10046	14.677	5.6364	0.	-0.1074
10047	14.769	5.6364	5.e-002	8.2247e-006
10048	14.769	5.3636	0.	2.23e-002
10049	14.677	5.4545	0.	2.2617e-002
10050	14.769	5.4545	5.e-002	1.0826e-005
10051	14.769	5.1818	0.	1.7749e-002
10052	14.677	5.2727	0.	1.5621e-002
10053	14.769	5.2727	5.e-002	8.1336e-006
10054	14.769	5.	0.	1.4864e-002
10055	14.677	5.0909	0.	1.9167e-002
10056	14.769	5.0909	5.e-002	5.0376e-006
10057	14.769	4.8182	0.	6.7249e-003
10058	14.677	4.9091	0.	1.3157e-002
10059	14.769	4.9091	5.e-002	8.087e-007
10060	14.769	4.6364	0.	-2.8218e-003
10061	14.677	4.7273	0.	5.7138e-003
10062	14.769	4.7273	5.e-002	-3.9152e-006
10063	14.769	4.4545	0.	-1.323e-002
10064	14.677	4.5455	0.	-3.4741e-003
10065	14.769	4.5455	5.e-002	-1.1987e-005
10066	14.769	4.2727	0.	-2.267e-002
10067	14.677	4.3636	0.	-1.2742e-002
10068	14.769	4.3636	5.e-002	-1.8881e-005
10069	14.769	4.0909	0.	-2.8717e-002
10070	14.677	4.1818	0.	-2.0273e-002
10071	14.769	4.1818	5.e-002	-7.3614e-006
10072	14.769	3.9091	0.	-2.8555e-002
10073	14.677	4.	0.	-2.3627e-002
10074	14.769	4.	5.e-002	-3.1424e-005
10075	14.769	3.7273	0.	-2.0191e-002
10076	14.677	3.8182	0.	-2.0549e-002
10077	14.769	3.8182	5.e-002	-3.5826e-005
10078	14.769	3.5455	0.	-4.018e-003
10079	14.677	3.6364	0.	-1.0156e-002
10080	14.769	3.6364	5.e-002	-3.935e-005
10081	14.769	3.3636	0.	1.6069e-002
10082	14.677	3.4545	0.	5.7863e-003
10083	14.769	3.4545	5.e-002	-2.1397e-005
10084	14.769	3.1818	0.	3.3091e-002
10085	14.677	3.2727	0.	2.2442e-002
10086	14.769	3.2727	5.e-002	2.4088e-005
10087	14.769	3.	0.	3.9816e-002
10088	14.677	3.0909	0.	3.3235e-002
10089	14.769	3.0909	5.e-002	2.9404e-005
10090	14.769	2.8182	0.	3.3092e-002
10091	14.677	2.9091	0.	3.3235e-002
10092	14.769	2.9091	5.e-002	-2.3099e-005
10093	14.769	2.6364	0.	1.6069e-002
10094	14.677	2.7273	0.	2.2442e-002
10095	14.769	2.7273	5.e-002	-2.2902e-005
10096	14.769	2.4545	0.	-4.0182e-003
10097	14.677	2.5455	0.	5.7861e-003
10098	14.769	2.5455	5.e-002	1.0429e-006
10099	14.769	2.2727	0.	-2.0191e-002
10100	14.677	2.3636	0.	-1.0156e-002
10101	14.769	2.3636	5.e-002	2.1439e-005
10102	14.769	2.0909	0.	-2.8555e-002
10103	14.677	2.1818	0.	-2.0548e-002
10104	14.769	2.1818	5.e-002	3.5425e-005
10105	14.769	1.9091	0.	-2.8718e-002
10106	14.677	2.	0.	-2.3627e-002
10107	14.769	2.	5.e-002	3.1029e-005
10108	14.769	1.7273	0.	-2.267e-002
10109	14.677	1.8182	0.	-2.0274e-002
10110	14.769	1.8182	5.e-002	8.0844e-006
10111	14.769	1.5455	0.	-1.3229e-002
10112	14.677	1.6364	0.	-1.2741e-002
10113	14.769	1.6364	5.e-002	1.5257e-005
10114	14.769	1.3636	0.	-2.8211e-003
10115	14.677	1.4545	0.	-3.4738e-003
10116	14.769	1.4545	5.e-002	1.5091e-005
10117	14.769	1.1818	0.	6.7257e-003
10118	14.677	1.2727	0.	5.7144e-003
10119	14.769	1.2727	5.e-002	7.3577e-006
10120	14.769	1.	0.	1.4864e-002
10121	14.677	1.0909	0.	1.3158e-002
10122	14.769	1.0909	5.e-002	4.5499e-006
10123	14.769	0.81818	0.	1.7749e-002
10124	14.677	0.90909	0.	1.9169e-002
10125	14.769	0.90909	5.e-002	2.1293e-006
10126	14.769	0.63636	0.	2.2301e-002
10127	14.677	0.72727	0.	1.5622e-002
10128	14.769	0.72727	5.e-002	1.4543e-006
10129	14.769	0.45455	0.	-3.7234e-002
10130	14.677	0.54545	0.	2.2618e-002
10131	14.769	0.54545	5.e-002	-1.9857e-006
10132	14.769	0.27273	0.	-8.369e-002
10133	14.677	0.36364	0.	-0.1074
10134	14.769	0.36364	5.e-002	-6.8614e-007
10135	14.677	0.18182	0.	-0.1166
10136	14.769	0.18182	5.e-002	3.6518e-006
10137	14.769	9.0909e-002	0.	-1.0327e-002
10138	14.585	5.7273	0.	-8.5133e-002
10139	14.492	5.8182	0.	-0.10898
10140	14.585	5.8182	5.e-002	3.2101e-007
10141	14.585	5.9091	0.	-1.0489e-002
10142	14.585	5.5455	0.	-3.7574e-002
10143	14.492	5.6364	0.	-0.10101
10144	14.585	5.6364	5.e-002	8.2868e-006
10145	14.585	5.3636	0.	1.9693e-002
10146	14.492	5.4545	0.	1.8075e-002
10147	14.585	5.4545	5.e-002	1.0004e-005
10148	14.585	5.1818	0.	1.882e-002
10149	14.492	5.2727	0.	1.5166e-002
10150	14.585	5.2727	5.e-002	7.5658e-006
10151	14.585	5.	0.	1.8412e-002
10152	14.492	5.0909	0.	2.0576e-002
10153	14.585	5.0909	5.e-002	4.7563e-006
10154	14.585	4.8182	0.	1.2672e-002
10155	14.492	4.9091	0.	1.684e-002
10156	14.585	4.9091	5.e-002	3.3281e-006
10157	14.585	4.6364	0.	5.3384e-003
10158	14.492	4.7273	0.	1.1421e-002
10159	14.585	4.7273	5.e-002	-9.6506e-007
10160	14.585	4.4545	0.	-2.8839e-003
10161	14.492	4.5455	0.	4.2849e-003
10162	14.585	4.5455	5.e-002	1.9144e-006
10163	14.585	4.2727	0.	-1.0398e-002
10164	14.492	4.3636	0.	-3.0058e-003
10165	14.585	4.3636	5.e-002	-1.3456e-005
10166	14.585	4.0909	0.	-1.5382e-002
10167	14.492	4.1818	0.	-9.0107e-003
10168	14.585	4.1818	5.e-002	-1.8969e-005
10169	14.585	3.9091	0.	-1.59e-002
10170	14.492	4.	0.	-1.1969e-002
10171	14.585	4.	5.e-002	-5.8032e-006
10172	14.585	3.7273	0.	-1.0659e-002
10173	14.492	3.8182	0.	-1.0383e-002
10174	14.585	3.8182	5.e-002	6.4034e-006
10175	14.585	3.5455	0.	4.8999e-005
10176	14.492	3.6364	0.	-3.7042e-003
10177	14.585	3.6364	5.e-002	8.9093e-006
10178	14.585	3.3636	0.	1.3571e-002
10179	14.492	3.4545	0.	6.8449e-003
10180	14.585	3.4545	5.e-002	1.4221e-005
10181	14.585	3.1818	0.	2.511e-002
10182	14.492	3.2727	0.	1.797e-002
10183	14.585	3.2727	5.e-002	1.7705e-005
10184	14.585	3.	0.	2.968e-002
10185	14.492	3.0909	0.	2.5201e-002
10186	14.585	3.0909	5.e-002	1.2568e-005
10187	14.585	2.8182	0.	2.511e-002
10188	14.492	2.9091	0.	2.5201e-002
10189	14.585	2.9091	5.e-002	-5.4733e-006
10190	14.585	2.6364	0.	1.357e-002
10191	14.492	2.7273	0.	1.7969e-002
10192	14.585	2.7273	5.e-002	-1.7402e-005
10193	14.585	2.4545	0.	4.8842e-005
10194	14.492	2.5455	0.	6.8453e-003
10195	14.585	2.5455	5.e-002	-2.0056e-005
10196	14.585	2.2727	0.	-1.0659e-002
10197	14.492	2.3636	0.	-3.7051e-003
10198	14.585	2.3636	5.e-002	-7.9921e-006
10199	14.585	2.0909	0.	-1.59e-002
10200	14.492	2.1818	0.	-1.0382e-002
10201	14.585	2.1818	5.e-002	-1.3263e-005
10202	14.585	1.9091	0.	-1.5382e-002
10203	14.492	2.	0.	-1.1969e-002
10204	14.585	2.	5.e-002	-8.1696e-007
10205	14.585	1.7273	0.	-1.0398e-002
10206	14.492	1.8182	0.	-9.0102e-003
10207	14.585	1.8182	5.e-002	2.0072e-005
10208	14.585	1.5455	0.	-2.8838e-003
10209	14.492	1.6364	0.	-3.005e-003
10210	14.585	1.6364	5.e-002	1.5019e-005
10211	14.585	1.3636	0.	5.3386e-003
10212	14.492	1.4545	0.	4.2853e-003
10213	14.585	1.4545	5.e-002	2.8812e-006
10214	14.585	1.1818	0.	1.2673e-002
10215	14.492	1.2727	0.	1.1421e-002
10216	14.585	1.2727	5.e-002	4.7304e-006
10217	14.585	1.	0.	1.8413e-002
10218	14.492	1.0909	0.	1.6841e-002
10219	14.585	1.0909	5.e-002	1.2235e-006
10220	14.585	0.81818	0.	1.8822e-002
10221	14.492	0.90909	0.	2.0577e-002
10222	14.585	0.90909	5.e-002	-4.5703e-007
10223	14.585	0.63636	0.	1.9694e-002
10224	14.492	0.72727	0.	1.5167e-002
10225	14.585	0.72727	5.e-002	-7.3426e-007
10226	14.585	0.45455	0.	-3.7575e-002
10227	14.492	0.54545	0.	1.8076e-002
10228	14.585	0.54545	5.e-002	-2.9519e-006
10229	14.585	0.27273	0.	-8.5134e-002
10230	14.492	0.36364	0.	-0.10101
10231	14.585	0.36364	5.e-002	-1.8794e-006
10232	14.492	0.18182	0.	-0.10898
10233	14.585	0.18182	5.e-002	3.9665e-006
10234	14.585	9.0909e-002	0.	-1.0489e-002
10235	14.4	5.7273	0.	-8.1595e-002
10236	14.308	5.8182	0.	-9.5801e-002
10237	14.4	5.8182	5.e-002	-3.8555e-006
10238	14.4	5.9091	0.	-9.8757e-003
10239	14.4	5.5455	0.	-3.6544e-002
10240	14.308	5.6364	0.	-9.3012e-002
10241	14.4	5.6364	5.e-002	7.61e-006
10242	14.4	5.3636	0.	1.693e-002
10243	14.308	5.4545	0.	1.412e-002
10244	14.4	5.4545	5.e-002	9.6552e-006
10245	14.4	5.1818	0.	1.8543e-002
10246	14.308	5.2727	0.	1.4005e-002
10247	14.4	5.2727	5.e-002	8.853e-006
10248	14.4	5.	0.	1.9879e-002
10249	14.308	5.0909	0.	2.0514e-002
10250	14.4	5.0909	5.e-002	8.6328e-006
10251	14.4	4.8182	0.	1.6071e-002
10252	14.308	4.9091	0.	1.8533e-002
10253	14.4	4.9091	5.e-002	6.2922e-006
10254	14.4	4.6364	0.	1.0607e-002
10255	14.308	4.7273	0.	1.4779e-002
10256	14.4	4.7273	5.e-002	2.3336e-006
10257	14.4	4.4545	0.	4.2238e-003
10258	14.308	4.5455	0.	9.3644e-003
10259	14.4	4.5455	5.e-002	3.9789e-006
10260	14.4	4.2727	0.	-1.7118e-003
10261	14.308	4.3636	0.	3.6925e-003
10262	14.4	4.3636	5.e-002	3.3252e-007
10263	14.4	4.0909	0.	-5.8231e-003
10264	14.308	4.1818	0.	-1.0887e-003
10265	14.4	4.1818	5.e-002	4.4928e-006
10266	14.4	3.9091	0.	-6.7436e-003
10267	14.308	4.	0.	-3.6969e-003
10268	14.4	4.	5.e-002	6.0249e-006
10269	14.4	3.7273	0.	-3.6151e-003
10270	14.308	3.8182	0.	-3.1032e-003
10271	14.4	3.8182	5.e-002	3.8383e-006
10272	14.4	3.5455	0.	3.3095e-003
10273	14.308	3.6364	0.	1.025e-003
10274	14.4	3.6364	5.e-002	1.3636e-005
10275	14.4	3.3636	0.	1.2191e-002
10276	14.308	3.4545	0.	7.8193e-003
10277	14.4	3.4545	5.e-002	2.0342e-005
10278	14.4	3.1818	0.	1.9797e-002
10279	14.308	3.2727	0.	1.5049e-002
10280	14.4	3.2727	5.e-002	1.6842e-005
10281	14.4	3.	0.	2.2812e-002
10282	14.308	3.0909	0.	1.9757e-002
10283	14.4	3.0909	5.e-002	9.8189e-006
10284	14.4	2.8182	0.	1.9797e-002
10285	14.308	2.9091	0.	1.9757e-002
10286	14.4	2.9091	5.e-002	-4.5292e-007
10287	14.4	2.6364	0.	1.2191e-002
10288	14.308	2.7273	0.	1.5049e-002
10289	14.4	2.7273	5.e-002	-8.4743e-006
10290	14.4	2.4545	0.	3.3092e-003
10291	14.308	2.5455	0.	7.8191e-003
10292	14.4	2.5455	5.e-002	-1.3141e-005
10293	14.4	2.2727	0.	-3.6154e-003
10294	14.308	2.3636	0.	1.0248e-003
10295	14.4	2.3636	5.e-002	-8.0047e-006
10296	14.4	2.0909	0.	-6.7428e-003
10297	14.308	2.1818	0.	-3.1031e-003
10298	14.4	2.1818	5.e-002	-1.0356e-006
10299	14.4	1.9091	0.	-5.8222e-003
10300	14.308	2.	0.	-3.6966e-003
10301	14.4	2.	5.e-002	-6.4932e-006
10302	14.4	1.7273	0.	-1.7107e-003
10303	14.308	1.8182	0.	-1.0885e-003
10304	14.4	1.8182	5.e-002	-1.5658e-006
10305	14.4	1.5455	0.	4.2248e-003
10306	14.308	1.6364	0.	3.6929e-003
10307	14.4	1.6364	5.e-002	5.8692e-006
10308	14.4	1.3636	0.	1.0607e-002
10309	14.308	1.4545	0.	9.3648e-003
10310	14.4	1.4545	5.e-002	3.3563e-006
10311	14.4	1.1818	0.	1.6072e-002
10312	14.308	1.2727	0.	1.4779e-002
10313	14.4	1.2727	5.e-002	2.8568e-006
10314	14.4	1.	0.	1.988e-002
10315	14.308	1.0909	0.	1.8533e-002
10316	14.4	1.0909	5.e-002	5.087e-007
10317	14.4	0.81818	0.	1.8544e-002
10318	14.308	0.90909	0.	2.0515e-002
10319	14.4	0.90909	5.e-002	-3.2119e-007
10320	14.4	0.63636	0.	1.693e-002
10321	14.308	0.72727	0.	1.4005e-002
10322	14.4	0.72727	5.e-002	-1.0116e-006
10323	14.4	0.45455	0.	-3.6544e-002
10324	14.308	0.54545	0.	1.412e-002
10325	14.4	0.54545	5.e-002	-1.755e-007
10326	14.4	0.27273	0.	-8.1595e-002
10327	14.308	0.36364	0.	-9.3013e-002
10328	14.4	0.36364	5.e-002	1.0363e-007
10329	14.308	0.18182	0.	-9.58e-002
10330	14.4	0.18182	5.e-002	3.7416e-006
10331	14.4	9.0909e-002	0.	-9.8748e-003
10332	14.215	5.7273	0.	-7.5328e-002
10333	14.123	5.8182	0.	-8.0692e-002
10334	14.215	5.8182	5.e-002	-7.1576e-007
10335	14.215	5.9091	0.	-8.9634e-003
10336	14.215	5.5455	0.	-3.4747e-002
10337	14.123	5.6364	0.	-8.4437e-002
10338	14.215	5.6364	5.e-002	6.7498e-006
10339	14.215	5.3636	0.	1.4178e-002
10340	14.123	5.4545	0.	1.0709e-002
10341	14.215	5.4545	5.e-002	8.8535e-006
10342	14.215	5.1818	0.	1.7418e-002
10343	14.123	5.2727	0.	1.2453e-002
10344	14.215	5.2727	5.e-002	7.389e-006
10345	14.215	5.	0.	1.9949e-002
10346	14.123	5.0909	0.	1.9527e-002
10347	14.215	5.0909	5.e-002	8.5615e-006
10348	14.215	4.8182	0.	1.7668e-002
10349	14.123	4.9091	0.	1.8876e-002
10350	14.215	4.9091	5.e-002	5.3909e-006
10351	14.215	4.6364	0.	1.374e-002
10352	14.123	4.7273	0.	1.6458e-002
10353	14.215	4.7273	5.e-002	3.7455e-006
10354	14.215	4.4545	0.	8.8699e-003
10355	14.123	4.5455	0.	1.2449e-002
10356	14.215	4.5455	5.e-002	3.3734e-006
10357	14.215	4.2727	0.	4.2134e-003
10358	14.123	4.3636	0.	8.0825e-003
10359	14.215	4.3636	5.e-002	2.6086e-006
10360	14.215	4.0909	0.	8.2353e-004
10361	14.123	4.1818	0.	4.2751e-003
10362	14.215	4.1818	5.e-002	1.3664e-006
10363	14.215	3.9091	0.	-3.2067e-004
10364	14.123	4.	0.	1.9802e-003
10365	14.215	4.	5.e-002	1.0218e-005
10366	14.215	3.7273	0.	1.3559e-003
10367	14.123	3.8182	0.	1.9159e-003
10368	14.215	3.8182	5.e-002	4.0341e-006
10369	14.215	3.5455	0.	5.6516e-003
10370	14.123	3.6364	0.	4.29e-003
10371	14.215	3.6364	5.e-002	1.2071e-005
10372	14.215	3.3636	0.	1.1307e-002
10373	14.123	3.4545	0.	8.4986e-003
10374	14.215	3.4545	5.e-002	1.3075e-005
10375	14.215	3.1818	0.	1.6178e-002
10376	14.123	3.2727	0.	1.3051e-002
10377	14.215	3.2727	5.e-002	1.1542e-005
10378	14.215	3.	0.	1.811e-002
10379	14.123	3.0909	0.	1.6027e-002
10380	14.215	3.0909	5.e-002	6.878e-006
10381	14.215	2.8182	0.	1.6179e-002
10382	14.123	2.9091	0.	1.6026e-002
10383	14.215	2.9091	5.e-002	1.1511e-006
10384	14.215	2.6364	0.	1.1307e-002
10385	14.123	2.7273	0.	1.3052e-002
10386	14.215	2.7273	5.e-002	-4.4359e-006
10387	14.215	2.4545	0.	5.6516e-003
10388	14.123	2.5455	0.	8.4982e-003
10389	14.215	2.5455	5.e-002	-6.739e-006
10390	14.215	2.2727	0.	1.3562e-003
10391	14.123	2.3636	0.	4.2906e-003
10392	14.215	2.3636	5.e-002	-6.6402e-006
10393	14.215	2.0909	0.	-3.2095e-004
10394	14.123	2.1818	0.	1.9157e-003
10395	14.215	2.1818	5.e-002	-8.783e-007
10396	14.215	1.9091	0.	8.2317e-004
10397	14.123	2.	0.	1.9805e-003
10398	14.215	2.	5.e-002	-4.8309e-006
10399	14.215	1.7273	0.	4.2129e-003
10400	14.123	1.8182	0.	4.2754e-003
10401	14.215	1.8182	5.e-002	-1.8896e-007
10402	14.215	1.5455	0.	8.8697e-003
10403	14.123	1.6364	0.	8.0824e-003
10404	14.215	1.6364	5.e-002	-1.3645e-006
10405	14.215	1.3636	0.	1.374e-002
10406	14.123	1.4545	0.	1.245e-002
10407	14.215	1.4545	5.e-002	-1.193e-006
10408	14.215	1.1818	0.	1.7669e-002
10409	14.123	1.2727	0.	1.6458e-002
10410	14.215	1.2727	5.e-002	4.7022e-007
10411	14.215	1.	0.	1.995e-002
10412	14.123	1.0909	0.	1.8877e-002
10413	14.215	1.0909	5.e-002	-2.3441e-006
10414	14.215	0.81818	0.	1.7418e-002
10415	14.123	0.90909	0.	1.9529e-002
10416	14.215	0.90909	5.e-002	-2.9217e-006
10417	14.215	0.63636	0.	1.4178e-002
10418	14.123	0.72727	0.	1.2453e-002
10419	14.215	0.72727	5.e-002	-3.0395e-006
10420	14.215	0.45455	0.	-3.4748e-002
10421	14.123	0.54545	0.	1.0709e-002
10422	14.215	0.54545	5.e-002	1.2531e-008
10423	14.215	0.27273	0.	-7.5327e-002
10424	14.123	0.36364	0.	-8.4436e-002
10425	14.215	0.36364	5.e-002	-1.4849e-006
10426	14.123	0.18182	0.	-8.0691e-002
10427	14.215	0.18182	5.e-002	9.6296e-006
10428	14.215	9.0909e-002	0.	-8.9624e-003
10429	14.031	5.7273	0.	-6.7814e-002
10430	13.938	5.8182	0.	-6.5826e-002
10431	14.031	5.8182	5.e-002	-5.701e-007
10432	14.031	5.9091	0.	-7.9977e-003
10433	14.031	5.5455	0.	-3.2548e-002
10434	13.938	5.6364	0.	-7.589e-002
10435	14.031	5.6364	5.e-002	6.2358e-006
10436	14.031	5.3636	0.	1.1577e-002
10437	13.938	5.4545	0.	7.8178e-003
10438	14.031	5.4545	5.e-002	8.7845e-006
10439	14.031	5.1818	0.	1.5825e-002
10440	13.938	5.2727	0.	1.0745e-002
10441	14.031	5.2727	5.e-002	8.8288e-006
10442	14.031	5.	0.	1.914e-002
10443	13.938	5.0909	0.	1.8014e-002
10444	14.031	5.0909	5.e-002	7.7525e-006
10445	14.031	4.8182	0.	1.8039e-002
10446	13.938	4.9091	0.	1.835e-002
10447	14.031	4.9091	5.e-002	6.038e-006
10448	14.031	4.6364	0.	1.534e-002
10449	13.938	4.7273	0.	1.6977e-002
10450	14.031	4.7273	5.e-002	6.769e-006
10451	14.031	4.4545	0.	1.1686e-002
10452	13.938	4.5455	0.	1.4092e-002
10453	14.031	4.5455	5.e-002	6.55e-006
10454	14.031	4.2727	0.	8.0495e-003
10455	13.938	4.3636	0.	1.0764e-002
10456	14.031	4.3636	5.e-002	7.2813e-006
10457	14.031	4.0909	0.	5.2467e-003
10458	13.938	4.1818	0.	7.7296e-003
10459	14.031	4.1818	5.e-002	4.7937e-006
10460	14.031	3.9091	0.	3.9957e-003
10461	13.938	4.	0.	5.7132e-003
10462	14.031	4.	5.e-002	1.1127e-005
10463	14.031	3.7273	0.	4.6949e-003
10464	13.938	3.8182	0.	5.2296e-003
10465	14.031	3.8182	5.e-002	9.005e-006
10466	14.031	3.5455	0.	7.1976e-003
10467	13.938	3.6364	0.	6.4226e-003
10468	14.031	3.6364	5.e-002	1.2274e-005
10469	14.031	3.3636	0.	1.0657e-002
10470	13.938	3.4545	0.	8.8827e-003
10471	14.031	3.4545	5.e-002	1.0602e-005
10472	14.031	3.1818	0.	1.3673e-002
10473	13.938	3.2727	0.	1.1634e-002
10474	14.031	3.2727	5.e-002	1.0162e-005
10475	14.031	3.	0.	1.4872e-002
10476	13.938	3.0909	0.	1.3449e-002
10477	14.031	3.0909	5.e-002	6.725e-006
10478	14.031	2.8182	0.	1.3673e-002
10479	13.938	2.9091	0.	1.3449e-002
10480	14.031	2.9091	5.e-002	3.2419e-006
10481	14.031	2.6364	0.	1.0657e-002
10482	13.938	2.7273	0.	1.1635e-002
10483	14.031	2.7273	5.e-002	-1.4237e-006
10484	14.031	2.4545	0.	7.1978e-003
10485	13.938	2.5455	0.	8.8826e-003
10486	14.031	2.5455	5.e-002	-1.7879e-006
10487	14.031	2.2727	0.	4.6951e-003
10488	13.938	2.3636	0.	6.4227e-003
10489	14.031	2.3636	5.e-002	-4.8101e-006
10490	14.031	2.0909	0.	3.9961e-003
10491	13.938	2.1818	0.	5.2296e-003
10492	14.031	2.1818	5.e-002	-3.0198e-006
10493	14.031	1.9091	0.	5.2477e-003
10494	13.938	2.	0.	5.7139e-003
10495	14.031	2.	5.e-002	-6.0266e-006
10496	14.031	1.7273	0.	8.0502e-003
10497	13.938	1.8182	0.	7.7304e-003
10498	14.031	1.8182	5.e-002	-3.7061e-007
10499	14.031	1.5455	0.	1.1687e-002
10500	13.938	1.6364	0.	1.0764e-002
10501	14.031	1.6364	5.e-002	-8.2539e-007
10502	14.031	1.3636	0.	1.5341e-002
10503	13.938	1.4545	0.	1.4092e-002
10504	14.031	1.4545	5.e-002	-8.273e-007
10505	14.031	1.1818	0.	1.804e-002
10506	13.938	1.2727	0.	1.6977e-002
10507	14.031	1.2727	5.e-002	5.1242e-007
10508	14.031	1.	0.	1.9141e-002
10509	13.938	1.0909	0.	1.8351e-002
10510	14.031	1.0909	5.e-002	-6.8461e-007
10511	14.031	0.81818	0.	1.5827e-002
10512	13.938	0.90909	0.	1.8016e-002
10513	14.031	0.90909	5.e-002	-2.1227e-007
10514	14.031	0.63636	0.	1.1578e-002
10515	13.938	0.72727	0.	1.0746e-002
10516	14.031	0.72727	5.e-002	-9.1452e-007
10517	14.031	0.45455	0.	-3.2548e-002
10518	13.938	0.54545	0.	7.8177e-003
10519	14.031	0.54545	5.e-002	5.5375e-007
10520	14.031	0.27273	0.	-6.7813e-002
10521	13.938	0.36364	0.	-7.589e-002
10522	14.031	0.36364	5.e-002	7.8629e-007
10523	13.938	0.18182	0.	-6.5826e-002
10524	14.031	0.18182	5.e-002	1.0839e-005
10525	14.031	9.0909e-002	0.	-7.9967e-003
10526	13.846	5.7273	0.	-5.9991e-002
10527	13.754	5.8182	0.	-5.2374e-002
10528	13.846	5.8182	5.e-002	-5.4687e-006
10529	13.846	5.9091	0.	-7.0944e-003
10530	13.846	5.5455	0.	-3.017e-002
10531	13.754	5.6364	0.	-6.7738e-002
10532	13.846	5.6364	5.e-002	4.921e-006
10533	13.846	5.3636	0.	9.2155e-003
10534	13.754	5.4545	0.	5.3977e-003
10535	13.846	5.4545	5.e-002	8.2067e-006
10536	13.846	5.1818	0.	1.4029e-002
10537	13.754	5.2727	0.	9.0263e-003
10538	13.846	5.2727	5.e-002	6.5287e-006
10539	13.846	5.	0.	1.7819e-002
10540	13.754	5.0909	0.	1.6237e-002
10541	13.846	5.0909	5.e-002	7.2112e-006
10542	13.846	4.8182	0.	1.761e-002
10543	13.754	4.9091	0.	1.7283e-002
10544	13.846	4.9091	5.e-002	6.0683e-006
10545	13.846	4.6364	0.	1.5876e-002
10546	13.754	4.7273	0.	1.6711e-002
10547	13.846	4.7273	5.e-002	4.5609e-006
10548	13.846	4.4545	0.	1.319e-002
10549	13.754	4.5455	0.	1.4714e-002
10550	13.846	4.5455	5.e-002	6.448e-006
10551	13.846	4.2727	0.	1.0365e-002
10552	13.754	4.3636	0.	1.2208e-002
10553	13.846	4.3636	5.e-002	4.3595e-006
10554	13.846	4.0909	0.	8.0454e-003
10555	13.754	4.1818	0.	9.792e-003
10556	13.846	4.1818	5.e-002	5.8208e-006
10557	13.846	3.9091	0.	6.7711e-003
10558	13.754	4.	0.	8.0285e-003
10559	13.846	4.	5.e-002	5.3631e-006
10560	13.846	3.7273	0.	6.8323e-003
10561	13.754	3.8182	0.	7.2988e-003
10562	13.846	3.8182	5.e-002	9.0271e-006
10563	13.846	3.5455	0.	8.1361e-003
10564	13.754	3.6364	0.	7.7183e-003
10565	13.846	3.6364	5.e-002	9.9466e-006
10566	13.846	3.3636	0.	1.0128e-002
10567	13.754	3.4545	0.	9.0232e-003
10568	13.846	3.4545	5.e-002	7.4859e-006
10569	13.846	3.1818	0.	1.1914e-002
10570	13.754	3.2727	0.	1.0588e-002
10571	13.846	3.2727	5.e-002	7.2851e-006
10572	13.846	3.	0.	1.2629e-002
10573	13.754	3.0909	0.	1.1643e-002
10574	13.846	3.0909	5.e-002	4.0073e-006
10575	13.846	2.8182	0.	1.1914e-002
10576	13.754	2.9091	0.	1.1643e-002
10577	13.846	2.9091	5.e-002	3.1251e-006
10578	13.846	2.6364	0.	1.0128e-002
10579	13.754	2.7273	0.	1.0589e-002
10580	13.846	2.7273	5.e-002	-2.6387e-007
10581	13.846	2.4545	0.	8.1358e-003
10582	13.754	2.5455	0.	9.0225e-003
10583	13.846	2.5455	5.e-002	-2.2132e-006
10584	13.846	2.2727	0.	6.8322e-003
10585	13.754	2.3636	0.	7.7185e-003
10586	13.846	2.3636	5.e-002	-3.2299e-006
10587	13.846	2.0909	0.	6.7714e-003
10588	13.754	2.1818	0.	7.2989e-003
10589	13.846	2.1818	5.e-002	-5.92e-006
10590	13.846	1.9091	0.	8.0459e-003
10591	13.754	2.	0.	8.0283e-003
10592	13.846	2.	5.e-002	-4.1497e-006
10593	13.846	1.7273	0.	1.0365e-002
10594	13.754	1.8182	0.	9.7924e-003
10595	13.846	1.8182	5.e-002	-2.8761e-006
10596	13.846	1.5455	0.	1.319e-002
10597	13.754	1.6364	0.	1.2208e-002
10598	13.846	1.6364	5.e-002	-2.3355e-006
10599	13.846	1.3636	0.	1.5876e-002
10600	13.754	1.4545	0.	1.4713e-002
10601	13.846	1.4545	5.e-002	-2.7446e-006
10602	13.846	1.1818	0.	1.761e-002
10603	13.754	1.2727	0.	1.6712e-002
10604	13.846	1.2727	5.e-002	-1.4302e-006
10605	13.846	1.	0.	1.782e-002
10606	13.754	1.0909	0.	1.7284e-002
10607	13.846	1.0909	5.e-002	-2.1182e-006
10608	13.846	0.81818	0.	1.4031e-002
10609	13.754	0.90909	0.	1.6238e-002
10610	13.846	0.90909	5.e-002	-1.9528e-006
10611	13.846	0.63636	0.	9.2166e-003
10612	13.754	0.72727	0.	9.0276e-003
10613	13.846	0.72727	5.e-002	-1.8893e-006
10614	13.846	0.45455	0.	-3.017e-002
10615	13.754	0.54545	0.	5.3975e-003
10616	13.846	0.54545	5.e-002	-2.7963e-006
10617	13.846	0.27273	0.	-5.9991e-002
10618	13.754	0.36364	0.	-6.7739e-002
10619	13.846	0.36364	5.e-002	-7.154e-008
10620	13.754	0.18182	0.	-5.2373e-002
10621	13.846	0.18182	5.e-002	1.0587e-005
10622	13.846	9.0909e-002	0.	-7.0951e-003
10623	13.662	5.7273	0.	-5.2441e-002
10624	13.569	5.8182	0.	-4.0832e-002
10625	13.662	5.8182	5.e-002	1.6516e-006
10626	13.662	5.9091	0.	-6.3209e-003
10627	13.662	5.5455	0.	-2.7776e-002
10628	13.569	5.6364	0.	-6.0169e-002
10629	13.662	5.6364	5.e-002	4.1443e-006
10630	13.662	5.3636	0.	7.1106e-003
10631	13.569	5.4545	0.	3.3999e-003
10632	13.662	5.4545	5.e-002	7.632e-006
10633	13.662	5.1818	0.	1.2178e-002
10634	13.569	5.2727	0.	7.3917e-003
10635	13.662	5.2727	5.e-002	6.858e-006
10636	13.662	5.	0.	1.6214e-002
10637	13.569	5.0909	0.	1.4372e-002
10638	13.662	5.0909	5.e-002	6.0343e-006
10639	13.662	4.8182	0.	1.6663e-002
10640	13.569	4.9091	0.	1.5914e-002
10641	13.662	4.9091	5.e-002	6.2864e-006
10642	13.662	4.6364	0.	1.5676e-002
10643	13.569	4.7273	0.	1.5943e-002
10644	13.662	4.7273	5.e-002	5.7438e-006
10645	13.662	4.4545	0.	1.3751e-002
10646	13.569	4.5455	0.	1.4637e-002
10647	13.662	4.5455	5.e-002	6.5374e-006
10648	13.662	4.2727	0.	1.1573e-002
10649	13.569	4.3636	0.	1.2782e-002
10650	13.662	4.3636	5.e-002	5.7825e-006
10651	13.662	4.0909	0.	9.6576e-003
10652	13.569	4.1818	0.	1.0867e-002
10653	13.662	4.1818	5.e-002	6.8965e-006
10654	13.662	3.9091	0.	8.4208e-003
10655	13.569	4.	0.	9.3356e-003
10656	13.662	4.	5.e-002	6.2322e-006
10657	13.662	3.7273	0.	8.0876e-003
10658	13.569	3.8182	0.	8.4876e-003
10659	13.662	3.8182	5.e-002	6.7579e-006
10660	13.662	3.5455	0.	8.615e-003
10661	13.569	3.6364	0.	8.4221e-003
10662	13.662	3.6364	5.e-002	8.2304e-006
10663	13.662	3.3636	0.	9.6523e-003
10664	13.569	3.4545	0.	8.9865e-003
10665	13.662	3.4545	5.e-002	7.7579e-006
10666	13.662	3.1818	0.	1.0638e-002
10667	13.569	3.2727	0.	9.7891e-003
10668	13.662	3.2727	5.e-002	6.2046e-006
10669	13.662	3.	0.	1.104e-002
10670	13.569	3.0909	0.	1.0356e-002
10671	13.662	3.0909	5.e-002	4.7879e-006
10672	13.662	2.8182	0.	1.0638e-002
10673	13.569	2.9091	0.	1.0356e-002
10674	13.662	2.9091	5.e-002	2.8138e-006
10675	13.662	2.6364	0.	9.6519e-003
10676	13.569	2.7273	0.	9.7888e-003
10677	13.662	2.7273	5.e-002	3.866e-007
10678	13.662	2.4545	0.	8.6147e-003
10679	13.569	2.5455	0.	8.9856e-003
10680	13.662	2.5455	5.e-002	-1.7986e-006
10681	13.662	2.2727	0.	8.0879e-003
10682	13.569	2.3636	0.	8.4229e-003
10683	13.662	2.3636	5.e-002	-1.4686e-006
10684	13.662	2.0909	0.	8.4204e-003
10685	13.569	2.1818	0.	8.4876e-003
10686	13.662	2.1818	5.e-002	-1.523e-006
10687	13.662	1.9091	0.	9.6573e-003
10688	13.569	2.	0.	9.3355e-003
10689	13.662	2.	5.e-002	-2.2993e-006
10690	13.662	1.7273	0.	1.1574e-002
10691	13.569	1.8182	0.	1.0867e-002
10692	13.662	1.8182	5.e-002	-2.7052e-006
10693	13.662	1.5455	0.	1.3751e-002
10694	13.569	1.6364	0.	1.2782e-002
10695	13.662	1.6364	5.e-002	-2.0908e-006
10696	13.662	1.3636	0.	1.5676e-002
10697	13.569	1.4545	0.	1.4637e-002
10698	13.662	1.4545	5.e-002	-1.767e-006
10699	13.662	1.1818	0.	1.6663e-002
10700	13.569	1.2727	0.	1.5943e-002
10701	13.662	1.2727	5.e-002	-2.3477e-006
10702	13.662	1.	0.	1.6216e-002
10703	13.569	1.0909	0.	1.5915e-002
10704	13.662	1.0909	5.e-002	-1.7257e-006
10705	13.662	0.81818	0.	1.2179e-002
10706	13.569	0.90909	0.	1.4374e-002
10707	13.662	0.90909	5.e-002	-1.1999e-006
10708	13.662	0.63636	0.	7.1105e-003
10709	13.569	0.72727	0.	7.3922e-003
10710	13.662	0.72727	5.e-002	-4.1129e-007
10711	13.662	0.45455	0.	-2.7777e-002
10712	13.569	0.54545	0.	3.4001e-003
10713	13.662	0.54545	5.e-002	5.7929e-007
10714	13.662	0.27273	0.	-5.2441e-002
10715	13.569	0.36364	0.	-6.017e-002
10716	13.662	0.36364	5.e-002	2.0621e-007
10717	13.569	0.18182	0.	-4.083e-002
10718	13.662	0.18182	5.e-002	1.6748e-005
10719	13.662	9.0909e-002	0.	-6.3192e-003
10720	13.477	5.7273	0.	-4.5453e-002
10721	13.385	5.8182	0.	-3.1302e-002
10722	13.477	5.8182	5.e-002	-9.9779e-006
10723	13.477	5.9091	0.	-5.6617e-003
10724	13.477	5.5455	0.	-2.5434e-002
10725	13.385	5.6364	0.	-5.3272e-002
10726	13.477	5.6364	5.e-002	3.5431e-006
10727	13.477	5.3636	0.	5.2918e-003
10728	13.385	5.4545	0.	1.7661e-003
10729	13.477	5.4545	5.e-002	6.3974e-006
10730	13.477	5.1818	0.	1.0397e-002
10731	13.385	5.2727	0.	5.8838e-003
10732	13.477	5.2727	5.e-002	5.5986e-006
10733	13.477	5.	0.	1.4515e-002
10734	13.385	5.0909	0.	1.2528e-002
10735	13.477	5.0909	5.e-002	6.0843e-006
10736	13.477	4.8182	0.	1.5434e-002
10737	13.385	4.9091	0.	1.4396e-002
10738	13.477	4.9091	5.e-002	5.8386e-006
10739	13.477	4.6364	0.	1.5016e-002
10740	13.385	4.7273	0.	1.4867e-002
10741	13.477	4.7273	5.e-002	4.8866e-006
10742	13.477	4.4545	0.	1.3689e-002
10743	13.385	4.5455	0.	1.4097e-002
10744	13.477	4.5455	5.e-002	6.6472e-006
10745	13.477	4.2727	0.	1.203e-002
10746	13.385	4.3636	0.	1.2756e-002
10747	13.477	4.3636	5.e-002	5.6003e-006
10748	13.477	4.0909	0.	1.0456e-002
10749	13.385	4.1818	0.	1.125e-002
10750	13.477	4.1818	5.e-002	5.8753e-006
10751	13.477	3.9091	0.	9.3009e-003
10752	13.385	4.	0.	9.9368e-003
10753	13.477	4.	5.e-002	6.0817e-006
10754	13.477	3.7273	0.	8.7478e-003
10755	13.385	3.8182	0.	9.0597e-003
10756	13.477	3.8182	5.e-002	6.0652e-006
10757	13.477	3.5455	0.	8.7922e-003
10758	13.385	3.6364	0.	8.7127e-003
10759	13.477	3.6364	5.e-002	7.0948e-006
10760	13.477	3.3636	0.	9.2266e-003
10761	13.385	3.4545	0.	8.8198e-003
10762	13.477	3.4545	5.e-002	6.6717e-006
10763	13.477	3.1818	0.	9.7073e-003
10764	13.385	3.2727	0.	9.1475e-003
10765	13.477	3.2727	5.e-002	5.0806e-006
10766	13.477	3.	0.	9.912e-003
10767	13.385	3.0909	0.	9.4106e-003
10768	13.477	3.0909	5.e-002	4.2583e-006
10769	13.477	2.8182	0.	9.7069e-003
10770	13.385	2.9091	0.	9.4107e-003
10771	13.477	2.9091	5.e-002	2.8839e-006
10772	13.477	2.6364	0.	9.2258e-003
10773	13.385	2.7273	0.	9.1475e-003
10774	13.477	2.7273	5.e-002	1.991e-006
10775	13.477	2.4545	0.	8.7924e-003
10776	13.385	2.5455	0.	8.8201e-003
10777	13.477	2.5455	5.e-002	-1.1499e-006
10778	13.477	2.2727	0.	8.7482e-003
10779	13.385	2.3636	0.	8.7131e-003
10780	13.477	2.3636	5.e-002	-1.0769e-006
10781	13.477	2.0909	0.	9.3011e-003
10782	13.385	2.1818	0.	9.0601e-003
10783	13.477	2.1818	5.e-002	-2.5816e-006
10784	13.477	1.9091	0.	1.0457e-002
10785	13.385	2.	0.	9.9374e-003
10786	13.477	2.	5.e-002	-2.8468e-006
10787	13.477	1.7273	0.	1.203e-002
10788	13.385	1.8182	0.	1.125e-002
10789	13.477	1.8182	5.e-002	-2.1213e-006
10790	13.477	1.5455	0.	1.3689e-002
10791	13.385	1.6364	0.	1.2756e-002
10792	13.477	1.6364	5.e-002	-2.6025e-006
10793	13.477	1.3636	0.	1.5016e-002
10794	13.385	1.4545	0.	1.4097e-002
10795	13.477	1.4545	5.e-002	-2.2238e-006
10796	13.477	1.1818	0.	1.5435e-002
10797	13.385	1.2727	0.	1.4867e-002
10798	13.477	1.2727	5.e-002	-1.3011e-006
10799	13.477	1.	0.	1.4516e-002
10800	13.385	1.0909	0.	1.4397e-002
10801	13.477	1.0909	5.e-002	-1.6099e-006
10802	13.477	0.81818	0.	1.0397e-002
10803	13.385	0.90909	0.	1.2529e-002
10804	13.477	0.90909	5.e-002	-8.2583e-007
10805	13.477	0.63636	0.	5.2926e-003
10806	13.385	0.72727	0.	5.8851e-003
10807	13.477	0.72727	5.e-002	6.8057e-007
10808	13.477	0.45455	0.	-2.5433e-002
10809	13.385	0.54545	0.	1.7666e-003
10810	13.477	0.54545	5.e-002	2.1686e-006
10811	13.477	0.27273	0.	-4.5452e-002
10812	13.385	0.36364	0.	-5.3272e-002
10813	13.477	0.36364	5.e-002	1.6309e-006
10814	13.385	0.18182	0.	-3.1301e-002
10815	13.477	0.18182	5.e-002	1.9908e-005
10816	13.477	9.0909e-002	0.	-5.6619e-003
10817	13.292	5.7273	0.	-3.9201e-002
10818	13.2	5.8182	0.	-2.3644e-002
10819	13.292	5.8182	5.e-002	-1.753e-005
10820	13.292	5.9091	0.	-5.1408e-003
10821	13.292	5.5455	0.	-2.3226e-002
10822	13.2	5.6364	0.	-4.7047e-002
10823	13.292	5.6364	5.e-002	4.4866e-006
10824	13.292	5.3636	0.	3.7137e-003
10825	13.2	5.4545	0.	4.568e-004
10826	13.292	5.4545	5.e-002	5.9522e-006
10827	13.292	5.1818	0.	8.708e-003
10828	13.2	5.2727	0.	4.5395e-003
10829	13.292	5.2727	5.e-002	4.8436e-006
10830	13.292	5.	0.	1.279e-002
10831	13.2	5.0909	0.	1.0783e-002
10832	13.292	5.0909	5.e-002	6.1581e-006
10833	13.292	4.8182	0.	1.4037e-002
10834	13.2	4.9091	0.	1.2849e-002
10835	13.292	4.9091	5.e-002	5.1175e-006
10836	13.292	4.6364	0.	1.4047e-002
10837	13.2	4.7273	0.	1.3638e-002
10838	13.292	4.7273	5.e-002	4.9436e-006
10839	13.292	4.4545	0.	1.3187e-002
10840	13.2	4.5455	0.	1.3279e-002
10841	13.292	4.5455	5.e-002	5.9473e-006
10842	13.292	4.2727	0.	1.1945e-002
10843	13.2	4.3636	0.	1.2348e-002
10844	13.292	4.3636	5.e-002	5.0132e-006
10845	13.292	4.0909	0.	1.0666e-002
10846	13.2	4.1818	0.	1.1179e-002
10847	13.292	4.1818	5.e-002	5.1989e-006
10848	13.292	3.9091	0.	9.6211e-003
10849	13.2	4.	0.	1.0071e-002
10850	13.292	4.	5.e-002	5.817e-006
10851	13.292	3.7273	0.	8.9685e-003
10852	13.2	3.8182	0.	9.2249e-003
10853	13.292	3.8182	5.e-002	6.2253e-006
10854	13.292	3.5455	0.	8.7328e-003
10855	13.2	3.6364	0.	8.7356e-003
10856	13.292	3.6364	5.e-002	7.2374e-006
10857	13.292	3.3636	0.	8.8011e-003
10858	13.2	3.4545	0.	8.5774e-003
10859	13.292	3.4545	5.e-002	5.7693e-006
10860	13.292	3.1818	0.	8.9727e-003
10861	13.2	3.2727	0.	8.6214e-003
10862	13.292	3.2727	5.e-002	4.5735e-006
10863	13.292	3.	0.	9.0561e-003
10864	13.2	3.0909	0.	8.7012e-003
10865	13.292	3.0909	5.e-002	4.2329e-006
10866	13.292	2.8182	0.	8.9731e-003
10867	13.2	2.9091	0.	8.7013e-003
10868	13.292	2.9091	5.e-002	3.3897e-006
10869	13.292	2.6364	0.	8.8021e-003
10870	13.2	2.7273	0.	8.6219e-003
10871	13.292	2.7273	5.e-002	2.0778e-006
10872	13.292	2.4545	0.	8.7333e-003
10873	13.2	2.5455	0.	8.578e-003
10874	13.292	2.5455	5.e-002	2.829e-007
10875	13.292	2.2727	0.	8.9689e-003
10876	13.2	2.3636	0.	8.7356e-003
10877	13.292	2.3636	5.e-002	-9.0073e-007
10878	13.292	2.0909	0.	9.6218e-003
10879	13.2	2.1818	0.	9.2252e-003
10880	13.292	2.1818	5.e-002	-1.0116e-006
10881	13.292	1.9091	0.	1.0667e-002
10882	13.2	2.	0.	1.0072e-002
10883	13.292	2.	5.e-002	-1.3825e-006
10884	13.292	1.7273	0.	1.1946e-002
10885	13.2	1.8182	0.	1.1179e-002
10886	13.292	1.8182	5.e-002	-1.2196e-006
10887	13.292	1.5455	0.	1.3187e-002
10888	13.2	1.6364	0.	1.2348e-002
10889	13.292	1.6364	5.e-002	-8.0217e-007
10890	13.292	1.3636	0.	1.4047e-002
10891	13.2	1.4545	0.	1.3279e-002
10892	13.292	1.4545	5.e-002	-1.1906e-006
10893	13.292	1.1818	0.	1.4038e-002
10894	13.2	1.2727	0.	1.3638e-002
10895	13.292	1.2727	5.e-002	-2.9037e-007
10896	13.292	1.	0.	1.2792e-002
10897	13.2	1.0909	0.	1.285e-002
10898	13.292	1.0909	5.e-002	-3.7819e-007
10899	13.292	0.81818	0.	8.7097e-003
10900	13.2	0.90909	0.	1.0784e-002
10901	13.292	0.90909	5.e-002	-3.9741e-007
10902	13.292	0.63636	0.	3.7148e-003
10903	13.2	0.72727	0.	4.5419e-003
10904	13.292	0.72727	5.e-002	4.9429e-007
10905	13.292	0.45455	0.	-2.3226e-002
10906	13.2	0.54545	0.	4.5703e-004
10907	13.292	0.54545	5.e-002	1.1374e-006
10908	13.292	0.27273	0.	-3.9201e-002
10909	13.2	0.36364	0.	-4.7047e-002
10910	13.292	0.36364	5.e-002	3.0338e-006
10911	13.2	0.18182	0.	-2.3644e-002
10912	13.292	0.18182	5.e-002	1.0956e-005
10913	13.292	9.0909e-002	0.	-5.1406e-003
10914	13.108	5.7273	0.	-3.3662e-002
10915	13.015	5.8182	0.	-1.7597e-002
10916	13.108	5.8182	5.e-002	-9.0541e-006
10917	13.108	5.9091	0.	-4.6814e-003
10918	13.108	5.5455	0.	-2.1118e-002
10919	13.015	5.6364	0.	-4.1434e-002
10920	13.108	5.6364	5.e-002	2.6483e-006
10921	13.108	5.3636	0.	2.4167e-003
10922	13.015	5.4545	0.	-5.4517e-004
10923	13.108	5.4545	5.e-002	5.3665e-006
10924	13.108	5.1818	0.	7.2061e-003
10925	13.015	5.2727	0.	3.3987e-003
10926	13.108	5.2727	5.e-002	3.3257e-006
10927	13.108	5.	0.	1.1171e-002
10928	13.015	5.0909	0.	9.2077e-003
10929	13.108	5.0909	5.e-002	5.0056e-006
10930	13.108	4.8182	0.	1.2632e-002
10931	13.015	4.9091	0.	1.1378e-002
10932	13.108	4.9091	5.e-002	4.8147e-006
10933	13.108	4.6364	0.	1.296e-002
10934	13.015	4.7273	0.	1.2386e-002
10935	13.108	4.7273	5.e-002	3.8997e-006
10936	13.108	4.4545	0.	1.2466e-002
10937	13.015	4.5455	0.	1.2342e-002
10938	13.108	4.5455	5.e-002	5.417e-006
10939	13.108	4.2727	0.	1.1563e-002
10940	13.015	4.3636	0.	1.1735e-002
10941	13.108	4.3636	5.e-002	4.6238e-006
10942	13.108	4.0909	0.	1.0539e-002
10943	13.015	4.1818	0.	1.0848e-002
10944	13.108	4.1818	5.e-002	4.7857e-006
10945	13.108	3.9091	0.	9.6215e-003
10946	13.015	4.	0.	9.9316e-003
10947	13.108	4.	5.e-002	4.6157e-006
10948	13.108	3.7273	0.	8.9499e-003
10949	13.015	3.8182	0.	9.1555e-003
10950	13.108	3.8182	5.e-002	4.7676e-006
10951	13.108	3.5455	0.	8.5698e-003
10952	13.015	3.6364	0.	8.6153e-003
10953	13.108	3.6364	5.e-002	5.9819e-006
10954	13.108	3.3636	0.	8.4307e-003
10955	13.015	3.4545	0.	8.3199e-003
10956	13.108	3.4545	5.e-002	4.778e-006
10957	13.108	3.1818	0.	8.4214e-003
10958	13.015	3.2727	0.	8.2046e-003
10959	13.108	3.2727	5.e-002	3.5477e-006
10960	13.108	3.	0.	8.4335e-003
10961	13.015	3.0909	0.	8.1796e-003
10962	13.108	3.0909	5.e-002	3.2694e-006
10963	13.108	2.8182	0.	8.4216e-003
10964	13.015	2.9091	0.	8.1794e-003
10965	13.108	2.9091	5.e-002	2.9258e-006
10966	13.108	2.6364	0.	8.4308e-003
10967	13.015	2.7273	0.	8.2049e-003
10968	13.108	2.7273	5.e-002	1.3834e-006
10969	13.108	2.4545	0.	8.5699e-003
10970	13.015	2.5455	0.	8.3198e-003
10971	13.108	2.5455	5.e-002	8.9573e-007
10972	13.108	2.2727	0.	8.95e-003
10973	13.015	2.3636	0.	8.6157e-003
10974	13.108	2.3636	5.e-002	-3.7425e-007
10975	13.108	2.0909	0.	9.6214e-003
10976	13.015	2.1818	0.	9.1555e-003
10977	13.108	2.1818	5.e-002	-1.0218e-006
10978	13.108	1.9091	0.	1.0539e-002
10979	13.015	2.	0.	9.9317e-003
10980	13.108	2.	5.e-002	-9.8687e-007
10981	13.108	1.7273	0.	1.1563e-002
10982	13.015	1.8182	0.	1.0849e-002
10983	13.108	1.8182	5.e-002	-1.0912e-006
10984	13.108	1.5455	0.	1.2466e-002
10985	13.015	1.6364	0.	1.1736e-002
10986	13.108	1.6364	5.e-002	-1.0056e-006
10987	13.108	1.3636	0.	1.296e-002
10988	13.015	1.4545	0.	1.2343e-002
10989	13.108	1.4545	5.e-002	-1.2647e-006
10990	13.108	1.1818	0.	1.2633e-002
10991	13.015	1.2727	0.	1.2387e-002
10992	13.108	1.2727	5.e-002	-1.0742e-006
10993	13.108	1.	0.	1.1172e-002
10994	13.015	1.0909	0.	1.1378e-002
10995	13.108	1.0909	5.e-002	-3.8539e-008
10996	13.108	0.81818	0.	7.2079e-003
10997	13.015	0.90909	0.	9.2088e-003
10998	13.108	0.90909	5.e-002	3.6695e-007
10999	13.108	0.63636	0.	2.4183e-003
11000	13.015	0.72727	0.	3.4006e-003
11001	13.108	0.72727	5.e-002	1.3786e-006
11002	13.108	0.45455	0.	-2.1118e-002
11003	13.015	0.54545	0.	-5.4495e-004
11004	13.108	0.54545	5.e-002	1.4554e-006
11005	13.108	0.27273	0.	-3.3662e-002
11006	13.015	0.36364	0.	-4.1433e-002
11007	13.108	0.36364	5.e-002	1.829e-006
11008	13.015	0.18182	0.	-1.7596e-002
11009	13.108	0.18182	5.e-002	2.0117e-005
11010	13.108	9.0909e-002	0.	-4.6809e-003
11011	12.923	5.7273	0.	-2.8805e-002
11012	12.831	5.8182	0.	-1.2921e-002
11013	12.923	5.8182	5.e-002	-5.4282e-006
11014	12.923	5.9091	0.	-4.2602e-003
11015	12.923	5.5455	0.	-1.9114e-002
11016	12.831	5.6364	0.	-3.6405e-002
11017	12.923	5.6364	5.e-002	3.3297e-006
11018	12.923	5.3636	0.	1.3795e-003
11019	12.831	5.4545	0.	-1.3064e-003
11020	12.923	5.4545	5.e-002	5.2286e-006
11021	12.923	5.1818	0.	5.904e-003
11022	12.831	5.2727	0.	2.433e-003
11023	12.923	5.2727	5.e-002	3.9274e-006
11024	12.923	5.	0.	9.6983e-003
11025	12.831	5.0909	0.	7.7948e-003
11026	12.923	5.0909	5.e-002	4.4838e-006
11027	12.923	4.8182	0.	1.1291e-002
11028	12.831	4.9091	0.	9.9988e-003
11029	12.923	4.9091	5.e-002	3.6956e-006
11030	12.923	4.6364	0.	1.185e-002
11031	12.831	4.7273	0.	1.1153e-002
11032	12.923	4.7273	5.e-002	3.6423e-006
11033	12.923	4.4545	0.	1.164e-002
11034	12.831	4.5455	0.	1.1348e-002
11035	12.923	4.5455	5.e-002	5.2073e-006
11036	12.923	4.2727	0.	1.1013e-002
11037	12.831	4.3636	0.	1.0999e-002
11038	12.923	4.3636	5.e-002	4.5647e-006
11039	12.923	4.0909	0.	1.0211e-002
11040	12.831	4.1818	0.	1.0348e-002
11041	12.923	4.1818	5.e-002	3.4399e-006
11042	12.923	3.9091	0.	9.4279e-003
11043	12.831	4.	0.	9.6067e-003
11044	12.923	4.	5.e-002	4.1206e-006
11045	12.923	3.7273	0.	8.7898e-003
11046	12.831	3.8182	0.	8.9229e-003
11047	12.923	3.8182	5.e-002	4.9183e-006
11048	12.923	3.5455	0.	8.3543e-003
11049	12.831	3.6364	0.	8.3906e-003
11050	12.923	3.6364	5.e-002	5.3149e-006
11051	12.923	3.3636	0.	8.0841e-003
11052	12.831	3.4545	0.	8.0392e-003
11053	12.923	3.4545	5.e-002	4.8883e-006
11054	12.923	3.1818	0.	8.0027e-003
11055	12.831	3.2727	0.	7.845e-003
11056	12.923	3.2727	5.e-002	3.1374e-006
11057	12.923	3.	0.	7.9751e-003
11058	12.831	3.0909	0.	7.7649e-003
11059	12.923	3.0909	5.e-002	3.2757e-006
11060	12.923	2.8182	0.	8.0027e-003
11061	12.831	2.9091	0.	7.7648e-003
11062	12.923	2.9091	5.e-002	3.1588e-006
11063	12.923	2.6364	0.	8.11e-003
11064	12.831	2.7273	0.	7.8453e-003
11065	12.923	2.7273	5.e-002	1.6079e-006
11066	12.923	2.4545	0.	8.3544e-003
11067	12.831	2.5455	0.	8.0392e-003
11068	12.923	2.5455	5.e-002	7.6999e-007
11069	12.923	2.2727	0.	8.7901e-003
11070	12.831	2.3636	0.	8.3916e-003
11071	12.923	2.3636	5.e-002	5.7072e-007
11072	12.923	2.0909	0.	9.4282e-003
11073	12.831	2.1818	0.	8.9232e-003
11074	12.923	2.1818	5.e-002	-4.7573e-008
11075	12.923	1.9091	0.	1.0212e-002
11076	12.831	2.	0.	9.6066e-003
11077	12.923	2.	5.e-002	-3.5679e-007
11078	12.923	1.7273	0.	1.1014e-002
11079	12.831	1.8182	0.	1.0349e-002
11080	12.923	1.8182	5.e-002	1.5357e-007
11081	12.923	1.5455	0.	1.1641e-002
11082	12.831	1.6364	0.	1.0999e-002
11083	12.923	1.6364	5.e-002	-3.4504e-007
11084	12.923	1.3636	0.	1.1851e-002
11085	12.831	1.4545	0.	1.1348e-002
11086	12.923	1.4545	5.e-002	6.6595e-009
11087	12.923	1.1818	0.	1.1291e-002
11088	12.831	1.2727	0.	1.1154e-002
11089	12.923	1.2727	5.e-002	4.1637e-007
11090	12.923	1.	0.	9.6992e-003
11091	12.831	1.0909	0.	9.9992e-003
11092	12.923	1.0909	5.e-002	-8.9539e-008
11093	12.923	0.81818	0.	5.9051e-003
11094	12.831	0.90909	0.	7.7961e-003
11095	12.923	0.90909	5.e-002	9.0641e-007
11096	12.923	0.63636	0.	1.3801e-003
11097	12.831	0.72727	0.	2.434e-003
11098	12.923	0.72727	5.e-002	1.3098e-006
11099	12.923	0.45455	0.	-1.9113e-002
11100	12.831	0.54545	0.	-1.3061e-003
11101	12.923	0.54545	5.e-002	2.0195e-006
11102	12.923	0.27273	0.	-2.8804e-002
11103	12.831	0.36364	0.	-3.6405e-002
11104	12.923	0.36364	5.e-002	1.7338e-006
11105	12.831	0.18182	0.	-1.2921e-002
11106	12.923	0.18182	5.e-002	1.5142e-005
11107	12.923	9.0909e-002	0.	-4.2596e-003
11108	12.738	5.7273	0.	-2.462e-002
11109	12.646	5.8182	0.	-9.3699e-003
11110	12.738	5.8182	5.e-002	-1.8061e-005
11111	12.738	5.9091	0.	-3.9069e-003
11112	12.738	5.5455	0.	-1.7262e-002
11113	12.646	5.6364	0.	-3.1905e-002
11114	12.738	5.6364	5.e-002	3.6709e-006
11115	12.738	5.3636	0.	5.2478e-004
11116	12.646	5.4545	0.	-1.8684e-003
11117	12.738	5.4545	5.e-002	4.7567e-006
11118	12.738	5.1818	0.	4.7508e-003
11119	12.646	5.2727	0.	1.6276e-003
11120	12.738	5.2727	5.e-002	3.4986e-006
11121	12.738	5.	0.	8.3405e-003
11122	12.646	5.0909	0.	6.5449e-003
11123	12.738	5.0909	5.e-002	4.1693e-006
11124	12.738	4.8182	0.	1.0002e-002
11125	12.646	4.9091	0.	8.7317e-003
11126	12.738	4.9091	5.e-002	3.5045e-006
11127	12.738	4.6364	0.	1.0725e-002
11128	12.646	4.7273	0.	9.9759e-003
11129	12.738	4.7273	5.e-002	3.2777e-006
11130	12.738	4.4545	0.	1.0737e-002
11131	12.646	4.5455	0.	1.0349e-002
11132	12.738	4.5455	5.e-002	3.7671e-006
11133	12.738	4.2727	0.	1.0334e-002
11134	12.646	4.3636	0.	1.0207e-002
11135	12.738	4.3636	5.e-002	3.0908e-006
11136	12.738	4.0909	0.	9.7253e-003
11137	12.646	4.1818	0.	9.7524e-003
11138	12.738	4.1818	5.e-002	3.5779e-006
11139	12.738	3.9091	0.	9.0761e-003
11140	12.646	4.	0.	9.1708e-003
11141	12.738	4.	5.e-002	3.7674e-006
11142	12.738	3.7273	0.	8.5012e-003
11143	12.646	3.8182	0.	8.5897e-003
11144	12.738	3.8182	5.e-002	3.8753e-006
11145	12.738	3.5455	0.	8.0649e-003
11146	12.646	3.6364	0.	8.0997e-003
11147	12.738	3.6364	5.e-002	4.6371e-006
11148	12.738	3.3636	0.	7.7804e-003
11149	12.646	3.4545	0.	7.7418e-003
11150	12.738	3.4545	5.e-002	4.0339e-006
11151	12.738	3.1818	0.	7.6281e-003
11152	12.646	3.2727	0.	7.5192e-003
11153	12.738	3.2727	5.e-002	2.9431e-006
11154	12.738	3.	0.	7.5813e-003
11155	12.646	3.0909	0.	7.4151e-003
11156	12.738	3.0909	5.e-002	3.2872e-006
11157	12.738	2.8182	0.	7.6283e-003
11158	12.646	2.9091	0.	7.4155e-003
11159	12.738	2.9091	5.e-002	2.9097e-006
11160	12.738	2.6364	0.	7.7807e-003
11161	12.646	2.7273	0.	7.5191e-003
11162	12.738	2.7273	5.e-002	2.2835e-006
11163	12.738	2.4545	0.	8.0658e-003
11164	12.646	2.5455	0.	7.7423e-003
11165	12.738	2.5455	5.e-002	1.4468e-006
11166	12.738	2.2727	0.	8.5021e-003
11167	12.646	2.3636	0.	8.1003e-003
11168	12.738	2.3636	5.e-002	7.8681e-007
11169	12.738	2.0909	0.	9.076e-003
11170	12.646	2.1818	0.	8.5897e-003
11171	12.738	2.1818	5.e-002	-3.0298e-007
11172	12.738	1.9091	0.	9.7255e-003
11173	12.646	2.	0.	9.1704e-003
11174	12.738	2.	5.e-002	-2.3889e-008
11175	12.738	1.7273	0.	1.0335e-002
11176	12.646	1.8182	0.	9.7534e-003
11177	12.738	1.8182	5.e-002	-6.4252e-008
11178	12.738	1.5455	0.	1.0737e-002
11179	12.646	1.6364	0.	1.0207e-002
11180	12.738	1.6364	5.e-002	-2.7892e-007
11181	12.738	1.3636	0.	1.0726e-002
11182	12.646	1.4545	0.	1.035e-002
11183	12.738	1.4545	5.e-002	7.0171e-007
11184	12.738	1.1818	0.	1.0002e-002
11185	12.646	1.2727	0.	9.9764e-003
11186	12.738	1.2727	5.e-002	4.4941e-008
11187	12.738	1.	0.	8.3414e-003
11188	12.646	1.0909	0.	8.7323e-003
11189	12.738	1.0909	5.e-002	8.2582e-007
11190	12.738	0.81818	0.	4.752e-003
11191	12.646	0.90909	0.	6.5461e-003
11192	12.738	0.90909	5.e-002	7.1643e-007
11193	12.738	0.63636	0.	5.2555e-004
11194	12.646	0.72727	0.	1.6292e-003
11195	12.738	0.72727	5.e-002	1.3685e-006
11196	12.738	0.45455	0.	-1.7262e-002
11197	12.646	0.54545	0.	-1.8679e-003
11198	12.738	0.54545	5.e-002	2.1258e-006
11199	12.738	0.27273	0.	-2.462e-002
11200	12.646	0.36364	0.	-3.1904e-002
11201	12.738	0.36364	5.e-002	2.2273e-006
11202	12.646	0.18182	0.	-9.3699e-003
11203	12.738	0.18182	5.e-002	1.6812e-005
11204	12.738	9.0909e-002	0.	-3.907e-003
11205	12.554	5.7273	0.	-2.0992e-002
11206	12.462	5.8182	0.	-6.7089e-003
11207	12.554	5.8182	5.e-002	-1.3568e-005
11208	12.554	5.9091	0.	-3.568e-003
11209	12.554	5.5455	0.	-1.5511e-002
11210	12.462	5.6364	0.	-2.7854e-002
11211	12.554	5.6364	5.e-002	3.5293e-006
11212	12.554	5.3636	0.	-1.2997e-004
11213	12.462	5.4545	0.	-2.2506e-003
11214	12.554	5.4545	5.e-002	4.3782e-006
11215	12.554	5.1818	0.	3.7815e-003
11216	12.462	5.2727	0.	9.8262e-004
11217	12.554	5.2727	5.e-002	3.0981e-006
11218	12.554	5.	0.	7.1469e-003
11219	12.462	5.0909	0.	5.4621e-003
11220	12.554	5.0909	5.e-002	3.4056e-006
11221	12.554	4.8182	0.	8.8293e-003
11222	12.462	4.9091	0.	7.599e-003
11223	12.554	4.9091	5.e-002	3.2328e-006
11224	12.554	4.6364	0.	9.6675e-003
11225	12.462	4.7273	0.	8.8902e-003
11226	12.554	4.7273	5.e-002	2.1493e-006
11227	12.554	4.4545	0.	9.8501e-003
11228	12.462	4.5455	0.	9.3962e-003
11229	12.554	4.5455	5.e-002	3.6639e-006
11230	12.554	4.2727	0.	9.631e-003
11231	12.462	4.3636	0.	9.4167e-003
11232	12.554	4.3636	5.e-002	2.8337e-006
11233	12.554	4.0909	0.	9.1641e-003
11234	12.462	4.1818	0.	9.1284e-003
11235	12.554	4.1818	5.e-002	2.2682e-006
11236	12.554	3.9091	0.	8.6679e-003
11237	12.462	4.	0.	8.6883e-003
11238	12.554	4.	5.e-002	2.7012e-006
11239	12.554	3.7273	0.	8.1723e-003
11240	12.462	3.8182	0.	8.2118e-003
11241	12.554	3.8182	5.e-002	3.2652e-006
11242	12.554	3.5455	0.	7.7673e-003
11243	12.462	3.6364	0.	7.7822e-003
11244	12.554	3.6364	5.e-002	4.0551e-006
11245	12.554	3.3636	0.	7.4814e-003
11246	12.462	3.4545	0.	7.4478e-003
11247	12.554	3.4545	5.e-002	3.6097e-006
11248	12.554	3.1818	0.	7.316e-003
11249	12.462	3.2727	0.	7.2258e-003
11250	12.554	3.2727	5.e-002	2.5055e-006
11251	12.554	3.	0.	7.2625e-003
11252	12.462	3.0909	0.	7.1166e-003
11253	12.554	3.0909	5.e-002	2.3458e-006
11254	12.554	2.8182	0.	7.316e-003
11255	12.462	2.9091	0.	7.1171e-003
11256	12.554	2.9091	5.e-002	2.4211e-006
11257	12.554	2.6364	0.	7.4817e-003
11258	12.462	2.7273	0.	7.2259e-003
11259	12.554	2.7273	5.e-002	2.0185e-006
11260	12.554	2.4545	0.	7.7677e-003
11261	12.462	2.5455	0.	7.4482e-003
11262	12.554	2.5455	5.e-002	1.1214e-006
11263	12.554	2.2727	0.	8.172e-003
11264	12.462	2.3636	0.	7.7824e-003
11265	12.554	2.3636	5.e-002	6.8956e-007
11266	12.554	2.0909	0.	8.6677e-003
11267	12.462	2.1818	0.	8.2117e-003
11268	12.554	2.1818	5.e-002	2.8508e-007
11269	12.554	1.9091	0.	9.1641e-003
11270	12.462	2.	0.	8.6883e-003
11271	12.554	2.	5.e-002	-1.9956e-007
11272	12.554	1.7273	0.	9.6314e-003
11273	12.462	1.8182	0.	9.1289e-003
11274	12.554	1.8182	5.e-002	-1.8794e-007
11275	12.554	1.5455	0.	9.8503e-003
11276	12.462	1.6364	0.	9.4167e-003
11277	12.554	1.6364	5.e-002	-2.1345e-008
11278	12.554	1.3636	0.	9.6682e-003
11279	12.462	1.4545	0.	9.3964e-003
11280	12.554	1.4545	5.e-002	-1.2768e-007
11281	12.554	1.1818	0.	8.8301e-003
11282	12.462	1.2727	0.	8.8908e-003
11283	12.554	1.2727	5.e-002	2.3542e-007
11284	12.554	1.	0.	7.1479e-003
11285	12.462	1.0909	0.	7.5998e-003
11286	12.554	1.0909	5.e-002	1.0625e-006
11287	12.554	0.81818	0.	3.7831e-003
11288	12.462	0.90909	0.	5.4621e-003
11289	12.554	0.90909	5.e-002	1.2951e-006
11290	12.554	0.63636	0.	-1.2875e-004
11291	12.462	0.72727	0.	9.8404e-004
11292	12.554	0.72727	5.e-002	1.5557e-006
11293	12.554	0.45455	0.	-1.551e-002
11294	12.462	0.54545	0.	-2.2503e-003
11295	12.554	0.54545	5.e-002	2.2044e-006
11296	12.554	0.27273	0.	-2.0991e-002
11297	12.462	0.36364	0.	-2.7853e-002
11298	12.554	0.36364	5.e-002	1.9194e-006
11299	12.462	0.18182	0.	-6.7084e-003
11300	12.554	0.18182	5.e-002	1.6208e-005
11301	12.554	9.0909e-002	0.	-3.5674e-003
11302	12.369	5.7273	0.	-1.7859e-002
11303	12.277	5.8182	0.	-4.7481e-003
11304	12.369	5.8182	5.e-002	-1.2176e-005
11305	12.369	5.9091	0.	-3.2509e-003
11306	12.369	5.5455	0.	-1.3865e-002
11307	12.277	5.6364	0.	-2.4185e-002
11308	12.369	5.6364	5.e-002	3.1466e-006
11309	12.369	5.3636	0.	-6.2518e-004
11310	12.277	5.4545	0.	-2.478e-003
11311	12.369	5.4545	5.e-002	3.674e-006
11312	12.369	5.1818	0.	2.9667e-003
11313	12.277	5.2727	0.	4.851e-004
11314	12.369	5.2727	5.e-002	2.3369e-006
11315	12.369	5.	0.	6.0973e-003
11316	12.277	5.0909	0.	4.5476e-003
11317	12.369	5.0909	5.e-002	2.7952e-006
11318	12.369	4.8182	0.	7.7675e-003
11319	12.277	4.9091	0.	6.6031e-003
11320	12.369	4.9091	5.e-002	2.5142e-006
11321	12.369	4.6364	0.	8.6681e-003
11322	12.277	4.7273	0.	7.9097e-003
11323	12.369	4.7273	5.e-002	1.2289e-006
11324	12.369	4.4545	0.	8.9933e-003
11325	12.277	4.5455	0.	8.511e-003
11326	12.369	4.5455	5.e-002	2.8058e-006
11327	12.369	4.2727	0.	8.924e-003
11328	12.277	4.3636	0.	8.6608e-003
11329	12.369	4.3636	5.e-002	1.5277e-006
11330	12.369	4.0909	0.	8.625e-003
11331	12.277	4.1818	0.	8.5109e-003
11332	12.369	4.1818	5.e-002	1.4415e-006
11333	12.369	3.9091	0.	8.2226e-003
11334	12.277	4.	0.	8.1961e-003
11335	12.369	4.	5.e-002	1.904e-006
11336	12.369	3.7273	0.	7.8111e-003
11337	12.277	3.8182	0.	7.8192e-003
11338	12.369	3.8182	5.e-002	1.92e-006
11339	12.369	3.5455	0.	7.4555e-003
11340	12.277	3.6364	0.	7.4578e-003
11341	12.369	3.6364	5.e-002	3.1509e-006
11342	12.369	3.3636	0.	7.1907e-003
11343	12.277	3.4545	0.	7.163e-003
11344	12.369	3.4545	5.e-002	2.7201e-006
11345	12.369	3.1818	0.	7.03e-003
11346	12.277	3.2727	0.	6.9579e-003
11347	12.369	3.2727	5.e-002	1.3423e-006
11348	12.369	3.	0.	6.9769e-003
11349	12.277	3.0909	0.	6.8543e-003
11350	12.369	3.0909	5.e-002	2.1145e-006
11351	12.369	2.8182	0.	7.0306e-003
11352	12.277	2.9091	0.	6.8548e-003
11353	12.369	2.9091	5.e-002	1.9369e-006
11354	12.369	2.6364	0.	7.1909e-003
11355	12.277	2.7273	0.	6.9582e-003
11356	12.369	2.7273	5.e-002	1.2801e-006
11357	12.369	2.4545	0.	7.4556e-003
11358	12.277	2.5455	0.	7.1629e-003
11359	12.369	2.5455	5.e-002	6.1079e-007
11360	12.369	2.2727	0.	7.8114e-003
11361	12.277	2.3636	0.	7.4583e-003
11362	12.369	2.3636	5.e-002	6.3785e-007
11363	12.369	2.0909	0.	8.2227e-003
11364	12.277	2.1818	0.	7.8194e-003
11365	12.369	2.1818	5.e-002	-4.1908e-008
11366	12.369	1.9091	0.	8.6251e-003
11367	12.277	2.	0.	8.1961e-003
11368	12.369	2.	5.e-002	-4.9173e-007
11369	12.369	1.7273	0.	8.9241e-003
11370	12.277	1.8182	0.	8.5112e-003
11371	12.369	1.8182	5.e-002	-2.6958e-008
11372	12.369	1.5455	0.	8.9933e-003
11373	12.277	1.6364	0.	8.6611e-003
11374	12.369	1.6364	5.e-002	-3.4014e-007
11375	12.369	1.3636	0.	8.6681e-003
11376	12.277	1.4545	0.	8.5113e-003
11377	12.369	1.4545	5.e-002	-1.7376e-007
11378	12.369	1.1818	0.	7.7681e-003
11379	12.277	1.2727	0.	7.9103e-003
11380	12.369	1.2727	5.e-002	-2.5917e-007
11381	12.369	1.	0.	6.0982e-003
11382	12.277	1.0909	0.	6.6036e-003
11383	12.369	1.0909	5.e-002	-3.6873e-007
11384	12.369	0.81818	0.	2.9677e-003
11385	12.277	0.90909	0.	4.5487e-003
11386	12.369	0.90909	5.e-002	4.8346e-007
11387	12.369	0.63636	0.	-6.2472e-004
11388	12.277	0.72727	0.	4.8606e-004
11389	12.369	0.72727	5.e-002	1.6691e-006
11390	12.369	0.45455	0.	-1.3865e-002
11391	12.277	0.54545	0.	-2.4778e-003
11392	12.369	0.54545	5.e-002	1.0343e-006
11393	12.369	0.27273	0.	-1.7859e-002
11394	12.277	0.36364	0.	-2.4184e-002
11395	12.369	0.36364	5.e-002	1.3062e-006
11396	12.277	0.18182	0.	-4.7474e-003
11397	12.369	0.18182	5.e-002	1.7148e-005
11398	12.369	9.0909e-002	0.	-3.2505e-003
11399	12.185	5.7273	0.	-1.5126e-002
11400	12.092	5.8182	0.	-3.3323e-003
11401	12.185	5.8182	5.e-002	-1.6538e-005
11402	12.185	5.9091	0.	-2.9259e-003
11403	12.185	5.5455	0.	-1.2288e-002
11404	12.092	5.6364	0.	-2.0832e-002
11405	12.185	5.6364	5.e-002	2.7317e-006
11406	12.185	5.3636	0.	-9.6124e-004
11407	12.092	5.4545	0.	-2.5699e-003
11408	12.185	5.4545	5.e-002	3.6098e-006
11409	12.185	5.1818	0.	2.3134e-003
11410	12.092	5.2727	0.	1.2252e-004
11411	12.185	5.2727	5.e-002	1.727e-006
11412	12.185	5.	0.	5.2053e-003
11413	12.092	5.0909	0.	3.782e-003
11414	12.185	5.0909	5.e-002	2.1472e-006
11415	12.185	4.8182	0.	6.838e-003
11416	12.092	4.9091	0.	5.74e-003
11417	12.185	4.9091	5.e-002	1.5525e-006
11418	12.185	4.6364	0.	7.7951e-003
11419	12.092	4.7273	0.	7.0384e-003
11420	12.185	4.7273	5.e-002	9.9897e-007
11421	12.185	4.4545	0.	8.2077e-003
11422	12.092	4.5455	0.	7.707e-003
11423	12.185	4.5455	5.e-002	2.1076e-006
11424	12.185	4.2727	0.	8.2598e-003
11425	12.092	4.3636	0.	7.9585e-003
11426	12.185	4.3636	5.e-002	1.0959e-006
11427	12.185	4.0909	0.	8.0832e-003
11428	12.092	4.1818	0.	7.9231e-003
11429	12.185	4.1818	5.e-002	8.126e-007
11430	12.185	3.9091	0.	7.7881e-003
11431	12.092	4.	0.	7.718e-003
11432	12.185	4.	5.e-002	1.2651e-006
11433	12.185	3.7273	0.	7.4594e-003
11434	12.092	3.8182	0.	7.4332e-003
11435	12.185	3.8182	5.e-002	1.2678e-006
11436	12.185	3.5455	0.	7.1602e-003
11437	12.092	3.6364	0.	7.1414e-003
11438	12.185	3.6364	5.e-002	2.4594e-006
11439	12.185	3.3636	0.	6.9281e-003
11440	12.092	3.4545	0.	6.8919e-003
11441	12.185	3.4545	5.e-002	1.7866e-006
11442	12.185	3.1818	0.	6.783e-003
11443	12.092	3.2727	0.	6.7125e-003
11444	12.185	3.2727	5.e-002	1.3567e-006
11445	12.185	3.	0.	6.7342e-003
11446	12.092	3.0909	0.	6.6202e-003
11447	12.185	3.0909	5.e-002	1.8827e-006
11448	12.185	2.8182	0.	6.7832e-003
11449	12.092	2.9091	0.	6.6203e-003
11450	12.185	2.9091	5.e-002	1.693e-006
11451	12.185	2.6364	0.	6.9281e-003
11452	12.092	2.7273	0.	6.7129e-003
11453	12.185	2.7273	5.e-002	1.4995e-006
11454	12.185	2.4545	0.	7.1605e-003
11455	12.092	2.5455	0.	6.8923e-003
11456	12.185	2.5455	5.e-002	8.2597e-007
11457	12.185	2.2727	0.	7.4598e-003
11458	12.092	2.3636	0.	7.1417e-003
11459	12.185	2.3636	5.e-002	6.3449e-007
11460	12.185	2.0909	0.	7.7881e-003
11461	12.092	2.1818	0.	7.4335e-003
11462	12.185	2.1818	5.e-002	3.8726e-007
11463	12.185	1.9091	0.	8.0834e-003
11464	12.092	2.	0.	7.7181e-003
11465	12.185	2.	5.e-002	-9.2375e-008
11466	12.185	1.7273	0.	8.2603e-003
11467	12.092	1.8182	0.	7.9238e-003
11468	12.185	1.8182	5.e-002	1.2956e-007
11469	12.185	1.5455	0.	8.2082e-003
11470	12.092	1.6364	0.	7.9588e-003
11471	12.185	1.6364	5.e-002	-3.6506e-007
11472	12.185	1.3636	0.	7.7959e-003
11473	12.092	1.4545	0.	7.7072e-003
11474	12.185	1.4545	5.e-002	-2.1617e-007
11475	12.185	1.1818	0.	6.8387e-003
11476	12.092	1.2727	0.	7.0392e-003
11477	12.185	1.2727	5.e-002	-3.7505e-008
11478	12.185	1.	0.	5.2061e-003
11479	12.092	1.0909	0.	5.7406e-003
11480	12.185	1.0909	5.e-002	-3.1371e-007
11481	12.185	0.81818	0.	2.3146e-003
11482	12.092	0.90909	0.	3.7833e-003
11483	12.185	0.90909	5.e-002	4.6014e-007
11484	12.185	0.63636	0.	-9.6049e-004
11485	12.092	0.72727	0.	1.2371e-004
11486	12.185	0.72727	5.e-002	1.31e-006
11487	12.185	0.45455	0.	-1.2287e-002
11488	12.092	0.54545	0.	-2.5693e-003
11489	12.185	0.54545	5.e-002	1.4275e-006
11490	12.185	0.27273	0.	-1.5125e-002
11491	12.092	0.36364	0.	-2.0831e-002
11492	12.185	0.36364	5.e-002	1.5766e-006
11493	12.092	0.18182	0.	-3.3318e-003
11494	12.185	0.18182	5.e-002	1.5781e-005
11495	12.185	9.0909e-002	0.	-2.9256e-003
11496	12.	5.7273	0.	-1.2737e-002
11497	11.908	5.8182	0.	-2.3629e-003
11498	12.	5.8182	5.e-002	-1.4318e-005
11499	12.	5.9091	0.	-2.6075e-003
11500	12.	5.5455	0.	-1.0779e-002
11501	11.908	5.6364	0.	-1.7758e-002
11502	12.	5.6364	5.e-002	2.4215e-006
11503	12.	5.3636	0.	-1.1722e-003
11504	11.908	5.4545	0.	-2.5652e-003
11505	12.	5.4545	5.e-002	3.5544e-006
11506	12.	5.1818	0.	1.7901e-003
11507	11.908	5.2727	0.	-1.3949e-004
11508	12.	5.2727	5.e-002	1.7333e-006
11509	12.	5.	0.	4.442e-003
11510	11.908	5.0909	0.	3.1304e-003
11511	12.	5.0909	5.e-002	1.9338e-006
11512	12.	4.8182	0.	6.0185e-003
11513	11.908	4.9091	0.	4.9779e-003
11514	12.	4.9091	5.e-002	1.6616e-006
11515	12.	4.6364	0.	6.9975e-003
11516	11.908	4.7273	0.	6.2496e-003
11517	12.	4.7273	5.e-002	8.8345e-007
11518	12.	4.4545	0.	7.4843e-003
11519	11.908	4.5455	0.	6.9631e-003
11520	12.	4.5455	5.e-002	2.2463e-006
11521	12.	4.2727	0.	7.6345e-003
11522	11.908	4.3636	0.	7.2947e-003
11523	12.	4.3636	5.e-002	9.8129e-007
11524	12.	4.0909	0.	7.5618e-003
11525	11.908	4.1818	0.	7.3547e-003
11526	12.	4.1818	5.e-002	9.6523e-007
11527	12.	3.9091	0.	7.3619e-003
11528	11.908	4.	0.	7.2445e-003
11529	12.	4.	5.e-002	8.2806e-007
11530	12.	3.7273	0.	7.1118e-003
11531	11.908	3.8182	0.	7.0434e-003
11532	12.	3.8182	5.e-002	1.6445e-006
11533	12.	3.5455	0.	6.87e-003
11534	11.908	3.6364	0.	6.8182e-003
11535	12.	3.6364	5.e-002	2.3853e-006
11536	12.	3.3636	0.	6.6745e-003
11537	11.908	3.4545	0.	6.6152e-003
11538	12.	3.4545	5.e-002	1.9349e-006
11539	12.	3.1818	0.	6.5496e-003
11540	11.908	3.2727	0.	6.4648e-003
11541	12.	3.2727	5.e-002	8.9768e-007
11542	12.	3.	0.	6.5068e-003
11543	11.908	3.0909	0.	6.3858e-003
11544	12.	3.0909	5.e-002	1.6492e-006
11545	12.	2.8182	0.	6.5498e-003
11546	11.908	2.9091	0.	6.3858e-003
11547	12.	2.9091	5.e-002	1.5684e-006
11548	12.	2.6364	0.	6.6754e-003
11549	11.908	2.7273	0.	6.4654e-003
11550	12.	2.7273	5.e-002	1.364e-006
11551	12.	2.4545	0.	6.8703e-003
11552	11.908	2.5455	0.	6.6156e-003
11553	12.	2.5455	5.e-002	1.0375e-006
11554	12.	2.2727	0.	7.112e-003
11555	11.908	2.3636	0.	6.8181e-003
11556	12.	2.3636	5.e-002	7.1378e-007
11557	12.	2.0909	0.	7.3622e-003
11558	11.908	2.1818	0.	7.0439e-003
11559	12.	2.1818	5.e-002	5.9562e-007
11560	12.	1.9091	0.	7.5622e-003
11561	11.908	2.	0.	7.2448e-003
11562	12.	2.	5.e-002	1.0864e-007
11563	12.	1.7273	0.	7.6349e-003
11564	11.908	1.8182	0.	7.3553e-003
11565	12.	1.8182	5.e-002	4.6271e-007
11566	12.	1.5455	0.	7.4843e-003
11567	11.908	1.6364	0.	7.295e-003
11568	12.	1.6364	5.e-002	7.9325e-008
11569	12.	1.3636	0.	6.9977e-003
11570	11.908	1.4545	0.	6.9635e-003
11571	12.	1.4545	5.e-002	1.378e-007
11572	12.	1.1818	0.	6.0194e-003
11573	11.908	1.2727	0.	6.2504e-003
11574	12.	1.2727	5.e-002	3.1803e-007
11575	12.	1.	0.	4.4432e-003
11576	11.908	1.0909	0.	4.979e-003
11577	12.	1.0909	5.e-002	5.0132e-007
11578	12.	0.81818	0.	1.7915e-003
11579	11.908	0.90909	0.	3.132e-003
11580	12.	0.90909	5.e-002	2.6118e-007
11581	12.	0.63636	0.	-1.1712e-003
11582	11.908	0.72727	0.	-1.3892e-004
11583	12.	0.72727	5.e-002	8.8954e-007
11584	12.	0.45455	0.	-1.0778e-002
11585	11.908	0.54545	0.	-2.5644e-003
11586	12.	0.54545	5.e-002	1.6453e-006
11587	12.	0.27273	0.	-1.2737e-002
11588	11.908	0.36364	0.	-1.7758e-002
11589	12.	0.36364	5.e-002	2.2986e-006
11590	11.908	0.18182	0.	-2.3624e-003
11591	12.	0.18182	5.e-002	1.4397e-005
11592	12.	9.0909e-002	0.	-2.6066e-003
11593	11.815	5.7273	0.	-1.0659e-002
11594	11.723	5.8182	0.	-1.7517e-003
11595	11.815	5.8182	5.e-002	-7.9517e-006
11596	11.815	5.9091	0.	-2.3151e-003
11597	11.815	5.5455	0.	-9.3473e-003
11598	11.723	5.6364	0.	-1.4914e-002
11599	11.815	5.6364	5.e-002	2.8358e-006
11600	11.815	5.3636	0.	-1.2997e-003
11601	11.723	5.4545	0.	-2.4811e-003
11602	11.815	5.4545	5.e-002	3.112e-006
11603	11.815	5.1818	0.	1.3549e-003
11604	11.723	5.2727	0.	-3.1931e-004
11605	11.815	5.2727	5.e-002	1.8096e-006
11606	11.815	5.	0.	3.7655e-003
11607	11.723	5.0909	0.	2.5726e-003
11608	11.815	5.0909	5.e-002	1.8914e-006
11609	11.815	4.8182	0.	5.2715e-003
11610	11.723	4.9091	0.	4.2982e-003
11611	11.815	4.9091	5.e-002	1.4069e-006
11612	11.815	4.6364	0.	6.2535e-003
11613	11.723	4.7273	0.	5.5285e-003
11614	11.815	4.7273	5.e-002	7.5032e-007
11615	11.815	4.4545	0.	6.7956e-003
11616	11.723	4.5455	0.	6.2692e-003
11617	11.815	4.5455	5.e-002	1.8962e-006
11618	11.815	4.2727	0.	7.0263e-003
11619	11.723	4.3636	0.	6.6642e-003
11620	11.815	4.3636	5.e-002	1.1467e-006
11621	11.815	4.0909	0.	7.042e-003
11622	11.723	4.1818	0.	6.8049e-003
11623	11.815	4.1818	5.e-002	5.0933e-007
11624	11.815	3.9091	0.	6.9265e-003
11625	11.723	4.	0.	6.7771e-003
11626	11.815	4.	5.e-002	9.705e-007
11627	11.815	3.7273	0.	6.7484e-003
11628	11.723	3.8182	0.	6.6522e-003
11629	11.815	3.8182	5.e-002	1.2116e-006
11630	11.815	3.5455	0.	6.5619e-003
11631	11.723	3.6364	0.	6.4878e-003
11632	11.815	3.6364	5.e-002	2.0418e-006
11633	11.815	3.3636	0.	6.4046e-003
11634	11.723	3.4545	0.	6.3313e-003
11635	11.815	3.4545	5.e-002	1.591e-006
11636	11.815	3.1818	0.	6.301e-003
11637	11.723	3.2727	0.	6.2103e-003
11638	11.815	3.2727	5.e-002	1.1438e-006
11639	11.815	3.	0.	6.2651e-003
11640	11.723	3.0909	0.	6.1453e-003
11641	11.815	3.0909	5.e-002	1.295e-006
11642	11.815	2.8182	0.	6.3013e-003
11643	11.723	2.9091	0.	6.1452e-003
11644	11.815	2.9091	5.e-002	1.8041e-006
11645	11.815	2.6364	0.	6.4048e-003
11646	11.723	2.7273	0.	6.2106e-003
11647	11.815	2.7273	5.e-002	1.4763e-006
11648	11.815	2.4545	0.	6.5619e-003
11649	11.723	2.5455	0.	6.3314e-003
11650	11.815	2.5455	5.e-002	1.1445e-006
11651	11.815	2.2727	0.	6.7488e-003
11652	11.723	2.3636	0.	6.4883e-003
11653	11.815	2.3636	5.e-002	8.0168e-007
11654	11.815	2.0909	0.	6.9271e-003
11655	11.723	2.1818	0.	6.6522e-003
11656	11.815	2.1818	5.e-002	4.6322e-007
11657	11.815	1.9091	0.	7.0424e-003
11658	11.723	2.	0.	6.7777e-003
11659	11.815	2.	5.e-002	3.244e-007
11660	11.815	1.7273	0.	7.0267e-003
11661	11.723	1.8182	0.	6.8049e-003
11662	11.815	1.8182	5.e-002	5.6193e-007
11663	11.815	1.5455	0.	6.7963e-003
11664	11.723	1.6364	0.	6.6646e-003
11665	11.815	1.6364	5.e-002	4.2001e-007
11666	11.815	1.3636	0.	6.2544e-003
11667	11.723	1.4545	0.	6.27e-003
11668	11.815	1.4545	5.e-002	3.6685e-007
11669	11.815	1.1818	0.	5.2726e-003
11670	11.723	1.2727	0.	5.5291e-003
11671	11.815	1.2727	5.e-002	5.6097e-007
11672	11.815	1.	0.	3.7669e-003
11673	11.723	1.0909	0.	4.2995e-003
11674	11.815	1.0909	5.e-002	6.5489e-007
11675	11.815	0.81818	0.	1.3556e-003
11676	11.723	0.90909	0.	2.5741e-003
11677	11.815	0.90909	5.e-002	-6.7829e-009
11678	11.815	0.63636	0.	-1.2994e-003
11679	11.723	0.72727	0.	-3.1879e-004
11680	11.815	0.72727	5.e-002	-5.5629e-007
11681	11.815	0.45455	0.	-9.3467e-003
11682	11.723	0.54545	0.	-2.4809e-003
11683	11.815	0.54545	5.e-002	7.149e-007
11684	11.815	0.27273	0.	-1.0659e-002
11685	11.723	0.36364	0.	-1.4914e-002
11686	11.815	0.36364	5.e-002	1.871e-006
11687	11.723	0.18182	0.	-1.7509e-003
11688	11.815	0.18182	5.e-002	1.6572e-005
11689	11.815	9.0909e-002	0.	-2.3145e-003
11690	11.631	5.7273	0.	-8.8203e-003
11691	11.538	5.8182	0.	-1.4152e-003
11692	11.631	5.8182	5.e-002	-7.6954e-006
11693	11.631	5.9091	0.	-2.0349e-003
11694	11.631	5.5455	0.	-7.9566e-003
11695	11.538	5.6364	0.	-1.2234e-002
11696	11.631	5.6364	5.e-002	2.2032e-006
11697	11.631	5.3636	0.	-1.3397e-003
11698	11.538	5.4545	0.	-2.3118e-003
11699	11.631	5.4545	5.e-002	3.0476e-006
11700	11.631	5.1818	0.	1.0093e-003
11701	11.538	5.2727	0.	-4.1503e-004
11702	11.631	5.2727	5.e-002	1.5261e-006
11703	11.631	5.	0.	3.177e-003
11704	11.538	5.0909	0.	2.1033e-003
11705	11.631	5.0909	5.e-002	1.6875e-006
11706	11.631	4.8182	0.	4.5996e-003
11707	11.538	4.9091	0.	3.6943e-003
11708	11.631	4.9091	5.e-002	1.328e-006
11709	11.631	4.6364	0.	5.5704e-003
11710	11.538	4.7273	0.	4.87e-003
11711	11.631	4.7273	5.e-002	4.3531e-007
11712	11.631	4.4545	0.	6.1522e-003
11713	11.538	4.5455	0.	5.6245e-003
11714	11.631	4.5455	5.e-002	1.5883e-006
11715	11.631	4.2727	0.	6.4497e-003
11716	11.538	4.3636	0.	6.0703e-003
11717	11.631	4.3636	5.e-002	6.6442e-007
11718	11.631	4.0909	0.	6.5426e-003
11719	11.538	4.1818	0.	6.2813e-003
11720	11.631	4.1818	5.e-002	6.4794e-007
11721	11.631	3.9091	0.	6.5031e-003
11722	11.538	4.	0.	6.3286e-003
11723	11.631	4.	5.e-002	6.2772e-007
11724	11.631	3.7273	0.	6.3911e-003
11725	11.538	3.8182	0.	6.2736e-003
11726	11.631	3.8182	5.e-002	9.0967e-007
11727	11.631	3.5455	0.	6.2568e-003
11728	11.538	3.6364	0.	6.1686e-003
11729	11.631	3.6364	5.e-002	1.5896e-006
11730	11.631	3.3636	0.	6.1371e-003
11731	11.538	3.4545	0.	6.0563e-003
11732	11.631	3.4545	5.e-002	1.4222e-006
11733	11.631	3.1818	0.	6.0553e-003
11734	11.538	3.2727	0.	5.9647e-003
11735	11.631	3.2727	5.e-002	9.7158e-007
11736	11.631	3.	0.	6.0264e-003
11737	11.538	3.0909	0.	5.9137e-003
11738	11.631	3.0909	5.e-002	1.3565e-006
11739	11.631	2.8182	0.	6.0553e-003
11740	11.538	2.9091	0.	5.9138e-003
11741	11.631	2.9091	5.e-002	1.683e-006
11742	11.631	2.6364	0.	6.1374e-003
11743	11.538	2.7273	0.	5.9645e-003
11744	11.631	2.7273	5.e-002	1.293e-006
11745	11.631	2.4545	0.	6.2573e-003
11746	11.538	2.5455	0.	6.0566e-003
11747	11.631	2.5455	5.e-002	1.1347e-006
11748	11.631	2.2727	0.	6.3912e-003
11749	11.538	2.3636	0.	6.169e-003
11750	11.631	2.3636	5.e-002	9.7332e-007
11751	11.631	2.0909	0.	6.5031e-003
11752	11.538	2.1818	0.	6.2737e-003
11753	11.631	2.1818	5.e-002	5.6434e-007
11754	11.631	1.9091	0.	6.5428e-003
11755	11.538	2.	0.	6.329e-003
11756	11.631	2.	5.e-002	4.4346e-007
11757	11.631	1.7273	0.	6.4498e-003
11758	11.538	1.8182	0.	6.2813e-003
11759	11.631	1.8182	5.e-002	5.489e-007
11760	11.631	1.5455	0.	6.1528e-003
11761	11.538	1.6364	0.	6.0708e-003
11762	11.631	1.6364	5.e-002	2.8811e-007
11763	11.631	1.3636	0.	5.5709e-003
11764	11.538	1.4545	0.	5.6255e-003
11765	11.631	1.4545	5.e-002	3.7595e-007
11766	11.631	1.1818	0.	4.6004e-003
11767	11.538	1.2727	0.	4.8702e-003
11768	11.631	1.2727	5.e-002	3.9915e-007
11769	11.631	1.	0.	3.1783e-003
11770	11.538	1.0909	0.	3.6948e-003
11771	11.631	1.0909	5.e-002	6.1891e-007
11772	11.631	0.81818	0.	1.0107e-003
11773	11.538	0.90909	0.	2.1045e-003
11774	11.631	0.90909	5.e-002	-4.5418e-007
11775	11.631	0.63636	0.	-1.3392e-003
11776	11.538	0.72727	0.	-4.1374e-004
11777	11.631	0.72727	5.e-002	-1.3928e-006
11778	11.631	0.45455	0.	-7.9567e-003
11779	11.538	0.54545	0.	-2.3128e-003
11780	11.631	0.54545	5.e-002	-1.0364e-006
11781	11.631	0.27273	0.	-8.8195e-003
11782	11.538	0.36364	0.	-1.2233e-002
11783	11.631	0.36364	5.e-002	9.0097e-007
11784	11.538	0.18182	0.	-1.4133e-003
11785	11.631	0.18182	5.e-002	1.2539e-005
11786	11.631	9.0909e-002	0.	-2.0334e-003
11787	11.446	5.7273	0.	-7.1633e-003
11788	11.354	5.8182	0.	-1.3135e-003
11789	11.446	5.8182	5.e-002	-4.0965e-006
11790	11.446	5.9091	0.	-1.7531e-003
11791	11.446	5.5455	0.	-6.5771e-003
11792	11.354	5.6364	0.	-9.6809e-003
11793	11.446	5.6364	5.e-002	1.9868e-006
11794	11.446	5.3636	0.	-1.2898e-003
11795	11.354	5.4545	0.	-2.0742e-003
11796	11.446	5.4545	5.e-002	3.2329e-006
11797	11.446	5.1818	0.	7.4683e-004
11798	11.354	5.2727	0.	-4.5027e-004
11799	11.446	5.2727	5.e-002	1.7256e-006
11800	11.446	5.	0.	2.661e-003
11801	11.354	5.0909	0.	1.6847e-003
11802	11.446	5.0909	5.e-002	1.7254e-006
11803	11.446	4.8182	0.	3.9851e-003
11804	11.354	4.9091	0.	3.1209e-003
11805	11.446	4.9091	5.e-002	1.0506e-006
11806	11.446	4.6364	0.	4.9313e-003
11807	11.354	4.7273	0.	4.2249e-003
11808	11.446	4.7273	5.e-002	3.6479e-007
11809	11.446	4.4545	0.	5.5422e-003
11810	11.354	4.5455	0.	4.9803e-003
11811	11.446	4.5455	5.e-002	1.2234e-006
11812	11.446	4.2727	0.	5.8977e-003
11813	11.354	4.3636	0.	5.4683e-003
11814	11.446	4.3636	5.e-002	2.4282e-007
11815	11.446	4.0909	0.	6.062e-003
11816	11.354	4.1818	0.	5.745e-003
11817	11.446	4.1818	5.e-002	2.1878e-007
11818	11.446	3.9091	0.	6.0945e-003
11819	11.354	4.	0.	5.8674e-003
11820	11.446	4.	5.e-002	3.8819e-007
11821	11.446	3.7273	0.	6.0482e-003
11822	11.354	3.8182	0.	5.8841e-003
11823	11.446	3.8182	5.e-002	5.0287e-007
11824	11.446	3.5455	0.	5.9671e-003
11825	11.354	3.6364	0.	5.8422e-003
11826	11.446	3.6364	5.e-002	1.5309e-006
11827	11.446	3.3636	0.	5.8845e-003
11828	11.354	3.4545	0.	5.7776e-003
11829	11.446	3.4545	5.e-002	1.3683e-006
11830	11.446	3.1818	0.	5.8248e-003
11831	11.354	3.2727	0.	5.7182e-003
11832	11.446	3.2727	5.e-002	7.6574e-007
11833	11.446	3.	0.	5.8032e-003
11834	11.354	3.0909	0.	5.6833e-003
11835	11.446	3.0909	5.e-002	1.2679e-006
11836	11.446	2.8182	0.	5.8247e-003
11837	11.354	2.9091	0.	5.6837e-003
11838	11.446	2.9091	5.e-002	1.6228e-006
11839	11.446	2.6364	0.	5.8843e-003
11840	11.354	2.7273	0.	5.7181e-003
11841	11.446	2.7273	5.e-002	1.4396e-006
11842	11.446	2.4545	0.	5.9672e-003
11843	11.354	2.5455	0.	5.7779e-003
11844	11.446	2.5455	5.e-002	1.0777e-006
11845	11.446	2.2727	0.	6.0486e-003
11846	11.354	2.3636	0.	5.8423e-003
11847	11.446	2.3636	5.e-002	1.0916e-006
11848	11.446	2.0909	0.	6.0952e-003
11849	11.354	2.1818	0.	5.8843e-003
11850	11.446	2.1818	5.e-002	6.2302e-007
11851	11.446	1.9091	0.	6.0624e-003
11852	11.354	2.	0.	5.8679e-003
11853	11.446	2.	5.e-002	5.5739e-007
11854	11.446	1.7273	0.	5.8981e-003
11855	11.354	1.8182	0.	5.7454e-003
11856	11.446	1.8182	5.e-002	6.0974e-007
11857	11.446	1.5455	0.	5.5431e-003
11858	11.354	1.6364	0.	5.4689e-003
11859	11.446	1.6364	5.e-002	5.7368e-007
11860	11.446	1.3636	0.	4.9322e-003
11861	11.354	1.4545	0.	4.9812e-003
11862	11.446	1.4545	5.e-002	5.0513e-007
11863	11.446	1.1818	0.	3.9852e-003
11864	11.354	1.2727	0.	4.2253e-003
11865	11.446	1.2727	5.e-002	4.7274e-007
11866	11.446	1.	0.	2.6615e-003
11867	11.354	1.0909	0.	3.1213e-003
11868	11.446	1.0909	5.e-002	2.0844e-007
11869	11.446	0.81818	0.	7.4796e-004
11870	11.354	0.90909	0.	1.686e-003
11871	11.446	0.90909	5.e-002	-9.9446e-007
11872	11.446	0.63636	0.	-1.2899e-003
11873	11.354	0.72727	0.	-4.4912e-004
11874	11.446	0.72727	5.e-002	-1.6023e-006
11875	11.446	0.45455	0.	-6.5773e-003
11876	11.354	0.54545	0.	-2.0753e-003
11877	11.446	0.54545	5.e-002	-2.2311e-006
11878	11.446	0.27273	0.	-7.1615e-003
11879	11.354	0.36364	0.	-9.68e-003
11880	11.446	0.36364	5.e-002	-5.9368e-007
11881	11.354	0.18182	0.	-1.312e-003
11882	11.446	0.18182	5.e-002	9.0557e-006
11883	11.446	9.0909e-002	0.	-1.7521e-003
11884	11.262	5.7273	0.	-5.6813e-003
11885	11.169	5.8182	0.	-1.4224e-003
11886	11.262	5.8182	5.e-002	-1.7287e-006
11887	11.262	5.9091	0.	-1.5067e-003
11888	11.262	5.5455	0.	-5.2208e-003
11889	11.169	5.6364	0.	-7.2206e-003
11890	11.262	5.6364	5.e-002	2.6391e-006
11891	11.262	5.3636	0.	-1.1939e-003
11892	11.169	5.4545	0.	-1.7812e-003
11893	11.262	5.4545	5.e-002	3.4011e-006
11894	11.262	5.1818	0.	5.099e-004
11895	11.169	5.2727	0.	-4.5384e-004
11896	11.262	5.2727	5.e-002	1.8249e-006
11897	11.262	5.	0.	2.1447e-003
11898	11.169	5.0909	0.	1.2639e-003
11899	11.262	5.0909	5.e-002	1.6695e-006
11900	11.262	4.8182	0.	3.343e-003
11901	11.169	4.9091	0.	2.4998e-003
11902	11.262	4.9091	5.e-002	1.2906e-006
11903	11.262	4.6364	0.	4.2441e-003
11904	11.169	4.7273	0.	3.4925e-003
11905	11.262	4.7273	5.e-002	5.1529e-007
11906	11.262	4.4545	0.	4.8703e-003
11907	11.169	4.5455	0.	4.2195e-003
11908	11.262	4.5455	5.e-002	1.3525e-006
11909	11.262	4.2727	0.	5.2781e-003
11910	11.169	4.3636	0.	4.7314e-003
11911	11.262	4.3636	5.e-002	4.7875e-007
11912	11.262	4.0909	0.	5.5158e-003
11913	11.169	4.1818	0.	5.0683e-003
11914	11.262	4.1818	5.e-002	1.3081e-007
11915	11.262	3.9091	0.	5.6285e-003
11916	11.169	4.	0.	5.2717e-003
11917	11.262	4.	5.e-002	4.8057e-007
11918	11.262	3.7273	0.	5.6578e-003
11919	11.169	3.8182	0.	5.3785e-003
11920	11.262	3.8182	5.e-002	6.4441e-007
11921	11.262	3.5455	0.	5.6413e-003
11922	11.169	3.6364	0.	5.4251e-003
11923	11.262	3.6364	5.e-002	1.5895e-006
11924	11.262	3.3636	0.	5.6078e-003
11925	11.169	3.4545	0.	5.4424e-003
11926	11.262	3.4545	5.e-002	1.3527e-006
11927	11.262	3.1818	0.	5.5788e-003
11928	11.169	3.2727	0.	5.4465e-003
11929	11.262	3.2727	5.e-002	7.7988e-007
11930	11.262	3.	0.	5.5681e-003
11931	11.169	3.0909	0.	5.448e-003
11932	11.262	3.0909	5.e-002	1.3648e-006
11933	11.262	2.8182	0.	5.5793e-003
11934	11.169	2.9091	0.	5.4484e-003
11935	11.262	2.9091	5.e-002	1.8761e-006
11936	11.262	2.6364	0.	5.6083e-003
11937	11.169	2.7273	0.	5.4468e-003
11938	11.262	2.7273	5.e-002	1.5738e-006
11939	11.262	2.4545	0.	5.6417e-003
11940	11.169	2.5455	0.	5.4427e-003
11941	11.262	2.5455	5.e-002	1.2469e-006
11942	11.262	2.2727	0.	5.6578e-003
11943	11.169	2.3636	0.	5.4259e-003
11944	11.262	2.3636	5.e-002	1.2062e-006
11945	11.262	2.0909	0.	5.6286e-003
11946	11.169	2.1818	0.	5.3779e-003
11947	11.262	2.1818	5.e-002	8.5405e-007
11948	11.262	1.9091	0.	5.5164e-003
11949	11.169	2.	0.	5.2723e-003
11950	11.262	2.	5.e-002	8.5079e-007
11951	11.262	1.7273	0.	5.2787e-003
11952	11.169	1.8182	0.	5.0689e-003
11953	11.262	1.8182	5.e-002	8.462e-007
11954	11.262	1.5455	0.	4.8709e-003
11955	11.169	1.6364	0.	4.7318e-003
11956	11.262	1.6364	5.e-002	7.0436e-007
11957	11.262	1.3636	0.	4.2446e-003
11958	11.169	1.4545	0.	4.22e-003
11959	11.262	1.4545	5.e-002	7.5517e-007
11960	11.262	1.1818	0.	3.3437e-003
11961	11.169	1.2727	0.	3.4932e-003
11962	11.262	1.2727	5.e-002	8.2244e-007
11963	11.262	1.	0.	2.146e-003
11964	11.169	1.0909	0.	2.5007e-003
11965	11.262	1.0909	5.e-002	4.6949e-007
11966	11.262	0.81818	0.	5.1125e-004
11967	11.169	0.90909	0.	1.2653e-003
11968	11.262	0.90909	5.e-002	-2.3953e-007
11969	11.262	0.63636	0.	-1.1936e-003
11970	11.169	0.72727	0.	-4.53e-004
11971	11.262	0.72727	5.e-002	-1.0649e-006
11972	11.262	0.45455	0.	-5.2207e-003
11973	11.169	0.54545	0.	-1.7817e-003
11974	11.262	0.54545	5.e-002	-1.8957e-006
11975	11.262	0.27273	0.	-5.6805e-003
11976	11.169	0.36364	0.	-7.2199e-003
11977	11.262	0.36364	5.e-002	-1.2625e-006
11978	11.169	0.18182	0.	-1.4213e-003
11979	11.262	0.18182	5.e-002	4.7297e-006
11980	11.262	9.0909e-002	0.	-1.5059e-003
11981	11.077	5.7273	0.	-4.3308e-003
11982	10.985	5.8182	0.	-1.746e-003
11983	11.077	5.8182	5.e-002	1.108e-006
11984	11.077	5.9091	0.	-1.2819e-003
11985	11.077	5.5455	0.	-3.8536e-003
11986	10.985	5.6364	0.	-4.8371e-003
11987	11.077	5.6364	5.e-002	2.8408e-006
11988	11.077	5.3636	0.	-1.0492e-003
11989	10.985	5.4545	0.	-1.4584e-003
11990	11.077	5.4545	5.e-002	3.4442e-006
11991	11.077	5.1818	0.	2.7011e-004
11992	10.985	5.2727	0.	-4.8385e-004
11993	11.077	5.2727	5.e-002	1.9122e-006
11994	11.077	5.	0.	1.5557e-003
11995	10.985	5.0909	0.	7.1746e-004
11996	11.077	5.0909	5.e-002	1.9424e-006
11997	11.077	4.8182	0.	2.55e-003
11998	10.985	4.9091	0.	1.6149e-003
11999	11.077	4.9091	5.e-002	1.2951e-006
12000	11.077	4.6364	0.	3.3323e-003
12001	10.985	4.7273	0.	2.329e-003
12002	11.077	4.7273	5.e-002	4.776e-007
12003	11.077	4.4545	0.	3.909e-003
12004	10.985	4.5455	0.	2.8206e-003
12005	11.077	4.5455	5.e-002	1.3747e-006
12006	11.077	4.2727	0.	4.3135e-003
12007	10.985	4.3636	0.	3.0702e-003
12008	11.077	4.3636	5.e-002	3.3821e-007
12009	11.077	4.0909	0.	4.577e-003
12010	10.985	4.1818	0.	2.9496e-003
12011	11.077	4.1818	5.e-002	2.4236e-007
12012	11.077	3.9091	0.	4.7296e-003
12013	10.985	4.	0.	1.4451e-003
12014	11.077	4.	5.e-002	3.4539e-007
12015	11.077	3.7273	0.	4.7972e-003
12016	10.985	3.8182	0.	-0.22188
12017	11.077	3.8182	5.e-002	6.7406e-007
12018	11.077	3.5455	0.	4.7954e-003
12019	10.985	3.6364	0.	-0.83805
12020	11.077	3.6364	5.e-002	1.5319e-006
12021	11.077	3.3636	0.	4.6634e-003
12022	10.985	3.4545	0.	-1.3243
12023	11.077	3.4545	5.e-002	1.455e-006
12024	11.077	3.1818	0.	-1.8873e-002
12025	10.985	3.2727	0.	-1.6592
12026	11.077	3.2727	5.e-002	9.1367e-007
12027	11.077	3.	0.	-9.9099e-002
12028	10.985	3.0909	0.	-1.8299
12029	11.077	3.0909	5.e-002	1.2972e-006
12030	11.077	2.8182	0.	-1.8874e-002
12031	10.985	2.9091	0.	-1.8299
12032	11.077	2.9091	5.e-002	1.8319e-006
12033	11.077	2.6364	0.	4.6636e-003
12034	10.985	2.7273	0.	-1.6592
12035	11.077	2.7273	5.e-002	1.6798e-006
12036	11.077	2.4545	0.	4.7961e-003
12037	10.985	2.5455	0.	-1.3243
12038	11.077	2.5455	5.e-002	1.4336e-006
12039	11.077	2.2727	0.	4.7974e-003
12040	10.985	2.3636	0.	-0.83806
12041	11.077	2.3636	5.e-002	1.3337e-006
12042	11.077	2.0909	0.	4.7295e-003
12043	10.985	2.1818	0.	-0.22188
12044	11.077	2.1818	5.e-002	9.8635e-007
12045	11.077	1.9091	0.	4.5776e-003
12046	10.985	2.	0.	1.4458e-003
12047	11.077	2.	5.e-002	9.343e-007
12048	11.077	1.7273	0.	4.3137e-003
12049	10.985	1.8182	0.	2.9502e-003
12050	11.077	1.8182	5.e-002	1.0242e-006
12051	11.077	1.5455	0.	3.9093e-003
12052	10.985	1.6364	0.	3.0706e-003
12053	11.077	1.6364	5.e-002	9.0436e-007
12054	11.077	1.3636	0.	3.333e-003
12055	10.985	1.4545	0.	2.8214e-003
12056	11.077	1.4545	5.e-002	8.8157e-007
12057	11.077	1.1818	0.	2.5508e-003
12058	10.985	1.2727	0.	2.3296e-003
12059	11.077	1.2727	5.e-002	6.989e-007
12060	11.077	1.	0.	1.5567e-003
12061	10.985	1.0909	0.	1.6159e-003
12062	11.077	1.0909	5.e-002	5.9746e-007
12063	11.077	0.81818	0.	2.7097e-004
12064	10.985	0.90909	0.	7.185e-004
12065	11.077	0.90909	5.e-002	1.2685e-007
12066	11.077	0.63636	0.	-1.0491e-003
12067	10.985	0.72727	0.	-4.8327e-004
12068	11.077	0.72727	5.e-002	-9.6521e-007
12069	11.077	0.45455	0.	-3.8536e-003
12070	10.985	0.54545	0.	-1.4586e-003
12071	11.077	0.54545	5.e-002	-1.1062e-006
12072	11.077	0.27273	0.	-4.3299e-003
12073	10.985	0.36364	0.	-4.8366e-003
12074	11.077	0.36364	5.e-002	5.8367e-007
12075	10.985	0.18182	0.	-1.7448e-003
12076	11.077	0.18182	5.e-002	3.0983e-006
12077	11.077	9.0909e-002	0.	-1.2809e-003
12078	10.892	5.7273	0.	-3.1517e-003
12079	10.8	5.8182	0.	-2.2824e-003
12080	10.892	5.8182	5.e-002	2.6853e-006
12081	10.892	5.9091	0.	-1.1485e-003
12082	10.892	5.5455	0.	-2.5166e-003
12083	10.8	5.6364	0.	-2.494e-003
12084	10.892	5.6364	5.e-002	2.8994e-006
12085	10.892	5.3636	0.	-9.3846e-004
12086	10.8	5.4545	0.	-1.1115e-003
12087	10.892	5.4545	5.e-002	3.3965e-006
12088	10.892	5.1818	0.	-1.3529e-004
12089	10.8	5.2727	0.	-6.2401e-004
12090	10.892	5.2727	5.e-002	1.9776e-006
12091	10.892	5.	0.	5.7369e-004
12092	10.8	5.0909	0.	-2.6143e-004
12093	10.892	5.0909	5.e-002	1.9314e-006
12094	10.892	4.8182	0.	1.0025e-003
12095	10.8	4.9091	0.	-3.9981e-004
12096	10.892	4.9091	5.e-002	1.2953e-006
12097	10.892	4.6364	0.	1.0349e-003
12098	10.8	4.7273	0.	-1.83e-003
12099	10.892	4.7273	5.e-002	6.4912e-007
12100	10.892	4.4545	0.	5.4935e-005
12101	10.8	4.5455	0.	-1.5831e-002
12102	10.892	4.5455	5.e-002	1.4012e-006
12103	10.892	4.2727	0.	-1.1206e-002
12104	10.8	4.3636	0.	-0.78105
12105	10.892	4.3636	5.e-002	4.554e-007
12106	10.892	4.0909	0.	-0.6714
12107	10.8	4.1818	0.	-1.8119
12108	10.892	4.1818	5.e-002	3.3532e-007
12109	10.892	3.9091	0.	-1.496
12110	10.8	4.	0.	-2.7554
12111	10.892	4.	5.e-002	4.2172e-007
12112	10.892	3.7273	0.	-2.2112
12113	10.8	3.8182	0.	-3.5854
12114	10.892	3.8182	5.e-002	7.8867e-007
12115	10.892	3.5455	0.	-2.7931
12116	10.8	3.6364	0.	-4.2797
12117	10.892	3.6364	5.e-002	1.5351e-006
12118	10.892	3.3636	0.	-3.2231
12119	10.8	3.4545	0.	-4.8189
12120	10.892	3.4545	5.e-002	1.5093e-006
12121	10.892	3.1818	0.	-3.4869
12122	10.8	3.2727	0.	-5.1875
12123	10.892	3.2727	5.e-002	9.6356e-007
12124	10.892	3.	0.	-3.5759
12125	10.8	3.0909	0.	-5.3746
12126	10.892	3.0909	5.e-002	1.528e-006
12127	10.892	2.8182	0.	-3.4869
12128	10.8	2.9091	0.	-5.3746
12129	10.892	2.9091	5.e-002	1.9143e-006
12130	10.892	2.6364	0.	-3.2231
12131	10.8	2.7273	0.	-5.1875
12132	10.892	2.7273	5.e-002	1.7481e-006
12133	10.892	2.4545	0.	-2.7931
12134	10.8	2.5455	0.	-4.8189
12135	10.892	2.5455	5.e-002	1.5952e-006
12136	10.892	2.2727	0.	-2.2112
12137	10.8	2.3636	0.	-4.2797
12138	10.892	2.3636	5.e-002	1.4897e-006
12139	10.892	2.0909	0.	-1.4961
12140	10.8	2.1818	0.	-3.5854
12141	10.892	2.1818	5.e-002	1.3497e-006
12142	10.892	1.9091	0.	-0.6714
12143	10.8	2.	0.	-2.7554
12144	10.892	2.	5.e-002	1.175e-006
12145	10.892	1.7273	0.	-1.1205e-002
12146	10.8	1.8182	0.	-1.8119
12147	10.892	1.8182	5.e-002	1.3397e-006
12148	10.892	1.5455	0.	5.5893e-005
12149	10.8	1.6364	0.	-0.78106
12150	10.892	1.6364	5.e-002	1.1891e-006
12151	10.892	1.3636	0.	1.0356e-003
12152	10.8	1.4545	0.	-1.5831e-002
12153	10.892	1.4545	5.e-002	1.0688e-006
12154	10.892	1.1818	0.	1.0033e-003
12155	10.8	1.2727	0.	-1.8297e-003
12156	10.892	1.2727	5.e-002	9.859e-007
12157	10.892	1.	0.	5.748e-004
12158	10.8	1.0909	0.	-3.9874e-004
12159	10.892	1.0909	5.e-002	6.7739e-007
12160	10.892	0.81818	0.	-1.3453e-004
12161	10.8	0.90909	0.	-2.6028e-004
12162	10.892	0.90909	5.e-002	9.4501e-008
12163	10.892	0.63636	0.	-9.3816e-004
12164	10.8	0.72727	0.	-6.2279e-004
12165	10.892	0.72727	5.e-002	2.5258e-007
12166	10.892	0.45455	0.	-2.5162e-003
12167	10.8	0.54545	0.	-1.111e-003
12168	10.892	0.54545	5.e-002	9.0383e-008
12169	10.892	0.27273	0.	-3.1507e-003
12170	10.8	0.36364	0.	-2.493e-003
12171	10.892	0.36364	5.e-002	1.461e-006
12172	10.8	0.18182	0.	-2.2814e-003
12173	10.892	0.18182	5.e-002	2.4895e-006
12174	10.892	9.0909e-002	0.	-1.147e-003
12175	10.708	5.7273	0.	-2.075e-003
12176	10.615	5.8182	0.	-3.0208e-003
12177	10.708	5.8182	5.e-002	2.0962e-006
12178	10.708	5.9091	0.	-1.0603e-003
12179	10.708	5.5455	0.	-1.1287e-003
12180	10.615	5.6364	0.	-1.3147e-004
12181	10.708	5.6364	5.e-002	2.5745e-006
12182	10.708	5.3636	0.	-8.5307e-004
12183	10.615	5.4545	0.	-7.2821e-004
12184	10.708	5.4545	5.e-002	3.1388e-006
12185	10.708	5.1818	0.	-9.6269e-004
12186	10.615	5.2727	0.	-1.1077e-003
12187	10.708	5.2727	5.e-002	1.8417e-006
12188	10.708	5.	0.	-2.0437e-003
12189	10.615	5.0909	0.	-3.3466e-003
12190	10.708	5.0909	5.e-002	1.872e-006
12191	10.708	4.8182	0.	-8.1576e-003
12192	10.615	4.9091	0.	-2.7819e-002
12193	10.708	4.9091	5.e-002	1.2769e-006
12194	10.708	4.6364	0.	-0.4745
12195	10.615	4.7273	0.	-1.1428
12196	10.708	4.7273	5.e-002	6.616e-007
12197	10.708	4.4545	0.	-1.6935
12198	10.615	4.5455	0.	-2.524
12199	10.708	4.5455	5.e-002	1.4421e-006
12200	10.708	4.2727	0.	-2.8504
12201	10.615	4.3636	0.	-3.8293
12202	10.708	4.3636	5.e-002	3.5067e-007
12203	10.708	4.0909	0.	-3.9137
12204	10.615	4.1818	0.	-5.0355
12205	10.708	4.1818	5.e-002	2.7779e-007
12206	10.708	3.9091	0.	-4.8604
12207	10.615	4.	0.	-6.1206
12208	10.708	4.	5.e-002	4.0181e-007
12209	10.708	3.7273	0.	-5.6691
12210	10.615	3.8182	0.	-7.0637
12211	10.708	3.8182	5.e-002	8.0624e-007
12212	10.708	3.5455	0.	-6.3204
12213	10.615	3.6364	0.	-7.8449
12214	10.708	3.6364	5.e-002	1.5079e-006
12215	10.708	3.3636	0.	-6.7981
12216	10.615	3.4545	0.	-8.4471
12217	10.708	3.4545	5.e-002	1.4755e-006
12218	10.708	3.1818	0.	-7.0899
12219	10.615	3.2727	0.	-8.8566
12220	10.708	3.2727	5.e-002	1.2031e-006
12221	10.708	3.	0.	-7.188
12222	10.615	3.0909	0.	-9.0639
12223	10.708	3.0909	5.e-002	1.7118e-006
12224	10.708	2.8182	0.	-7.0899
12225	10.615	2.9091	0.	-9.0639
12226	10.708	2.9091	5.e-002	1.9236e-006
12227	10.708	2.6364	0.	-6.7981
12228	10.615	2.7273	0.	-8.8566
12229	10.708	2.7273	5.e-002	1.8951e-006
12230	10.708	2.4545	0.	-6.3204
12231	10.615	2.5455	0.	-8.4471
12232	10.708	2.5455	5.e-002	1.7431e-006
12233	10.708	2.2727	0.	-5.6691
12234	10.615	2.3636	0.	-7.8449
12235	10.708	2.3636	5.e-002	1.7106e-006
12236	10.708	2.0909	0.	-4.8604
12237	10.615	2.1818	0.	-7.0637
12238	10.708	2.1818	5.e-002	1.3269e-006
12239	10.708	1.9091	0.	-3.9137
12240	10.615	2.	0.	-6.1207
12241	10.708	2.	5.e-002	1.3164e-006
12242	10.708	1.7273	0.	-2.8504
12243	10.615	1.8182	0.	-5.0355
12244	10.708	1.8182	5.e-002	1.3488e-006
12245	10.708	1.5455	0.	-1.6935
12246	10.615	1.6364	0.	-3.8293
12247	10.708	1.6364	5.e-002	1.3329e-006
12248	10.708	1.3636	0.	-0.4745
12249	10.615	1.4545	0.	-2.524
12250	10.708	1.4545	5.e-002	1.2696e-006
12251	10.708	1.1818	0.	-8.1572e-003
12252	10.615	1.2727	0.	-1.1428
12253	10.708	1.2727	5.e-002	1.1728e-006
12254	10.708	1.	0.	-2.0426e-003
12255	10.615	1.0909	0.	-2.7819e-002
12256	10.708	1.0909	5.e-002	1.1708e-006
12257	10.708	0.81818	0.	-9.6109e-004
12258	10.615	0.90909	0.	-3.3456e-003
12259	10.708	0.90909	5.e-002	1.0309e-006
12260	10.708	0.63636	0.	-8.5172e-004
12261	10.615	0.72727	0.	-1.1064e-003
12262	10.708	0.72727	5.e-002	7.325e-007
12263	10.708	0.45455	0.	-1.1276e-003
12264	10.615	0.54545	0.	-7.2774e-004
12265	10.708	0.54545	5.e-002	8.2365e-007
12266	10.708	0.27273	0.	-2.074e-003
12267	10.615	0.36364	0.	-1.308e-004
12268	10.708	0.36364	5.e-002	7.1696e-007
12269	10.615	0.18182	0.	-3.0199e-003
12270	10.708	0.18182	5.e-002	1.2403e-006
12271	10.708	9.0909e-002	0.	-1.0606e-003
12272	10.523	5.7273	0.	-1.116e-003
12273	10.431	5.8182	0.	-4.041e-003
12274	10.523	5.8182	5.e-002	8.2181e-007
12275	10.523	5.9091	0.	-1.0457e-003
12276	10.523	5.5455	0.	3.228e-004
12277	10.431	5.6364	0.	2.2308e-003
12278	10.523	5.6364	5.e-002	2.1628e-006
12279	10.523	5.3636	0.	-9.5206e-004
12280	10.431	5.4545	0.	-4.0191e-004
12281	10.523	5.4545	5.e-002	2.7756e-006
12282	10.523	5.1818	0.	-4.0353e-003
12283	10.431	5.2727	0.	-3.4024e-003
12284	10.523	5.2727	5.e-002	1.4369e-006
12285	10.523	5.	0.	-0.13341
12286	10.431	5.0909	0.	-0.30255
12287	10.523	5.0909	5.e-002	1.2897e-006
12288	10.523	4.8182	0.	-1.6746
12289	10.431	4.9091	0.	-2.0802
12290	10.523	4.9091	5.e-002	8.4782e-007
12291	10.523	4.6364	0.	-3.218
12292	10.431	4.7273	0.	-3.8085
12293	10.523	4.7273	5.e-002	2.1693e-007
12294	10.523	4.4545	0.	-4.6768
12295	10.431	4.5455	0.	-5.4449
12296	10.523	4.5455	5.e-002	9.5475e-007
12297	10.523	4.2727	0.	-6.0303
12298	10.431	4.3636	0.	-6.9698
12299	10.523	4.3636	5.e-002	-2.4511e-008
12300	10.523	4.0909	0.	-7.2578
12301	10.431	4.1818	0.	-8.3631
12302	10.523	4.1818	5.e-002	-5.5581e-009
12303	10.523	3.9091	0.	-8.339
12304	10.431	4.	0.	-9.6044
12305	10.523	4.	5.e-002	8.1227e-009
12306	10.523	3.7273	0.	-9.2542
12307	10.431	3.8182	0.	-10.674
12308	10.523	3.8182	5.e-002	2.1117e-007
12309	10.523	3.5455	0.	-9.9862
12310	10.431	3.6364	0.	-11.554
12311	10.523	3.6364	5.e-002	1.0741e-006
12312	10.523	3.3636	0.	-10.52
12313	10.431	3.4545	0.	-12.229
12314	10.523	3.4545	5.e-002	9.1815e-007
12315	10.523	3.1818	0.	-10.845
12316	10.431	3.2727	0.	-12.687
12317	10.523	3.2727	5.e-002	8.9731e-007
12318	10.523	3.	0.	-10.954
12319	10.431	3.0909	0.	-12.918
12320	10.523	3.0909	5.e-002	1.0533e-006
12321	10.523	2.8182	0.	-10.845
12322	10.431	2.9091	0.	-12.918
12323	10.523	2.9091	5.e-002	1.6881e-006
12324	10.523	2.6364	0.	-10.52
12325	10.431	2.7273	0.	-12.687
12326	10.523	2.7273	5.e-002	1.2498e-006
12327	10.523	2.4545	0.	-9.9862
12328	10.431	2.5455	0.	-12.229
12329	10.523	2.5455	5.e-002	1.2871e-006
12330	10.523	2.2727	0.	-9.2542
12331	10.431	2.3636	0.	-11.554
12332	10.523	2.3636	5.e-002	1.3077e-006
12333	10.523	2.0909	0.	-8.339
12334	10.431	2.1818	0.	-10.674
12335	10.523	2.1818	5.e-002	1.2192e-006
12336	10.523	1.9091	0.	-7.2579
12337	10.431	2.	0.	-9.6044
12338	10.523	2.	5.e-002	1.1152e-006
12339	10.523	1.7273	0.	-6.0303
12340	10.431	1.8182	0.	-8.3631
12341	10.523	1.8182	5.e-002	1.2029e-006
12342	10.523	1.5455	0.	-4.6768
12343	10.431	1.6364	0.	-6.9698
12344	10.523	1.6364	5.e-002	1.1034e-006
12345	10.523	1.3636	0.	-3.218
12346	10.431	1.4545	0.	-5.445
12347	10.523	1.4545	5.e-002	1.0698e-006
12348	10.523	1.1818	0.	-1.6746
12349	10.431	1.2727	0.	-3.8085
12350	10.523	1.2727	5.e-002	1.0398e-006
12351	10.523	1.	0.	-0.13341
12352	10.431	1.0909	0.	-2.0802
12353	10.523	1.0909	5.e-002	1.0909e-006
12354	10.523	0.81818	0.	-4.0344e-003
12355	10.431	0.90909	0.	-0.30256
12356	10.523	0.90909	5.e-002	1.2404e-006
12357	10.523	0.63636	0.	-9.5161e-004
12358	10.431	0.72727	0.	-3.4012e-003
12359	10.523	0.72727	5.e-002	5.1333e-007
12360	10.523	0.45455	0.	3.2288e-004
12361	10.431	0.54545	0.	-4.0158e-004
12362	10.523	0.54545	5.e-002	2.1475e-007
12363	10.523	0.27273	0.	-1.1154e-003
12364	10.431	0.36364	0.	2.2312e-003
12365	10.523	0.36364	5.e-002	6.1338e-007
12366	10.431	0.18182	0.	-4.0401e-003
12367	10.523	0.18182	5.e-002	1.7243e-006
12368	10.523	9.0909e-002	0.	-1.045e-003
12369	10.338	5.7273	0.	-3.9033e-004
12370	10.246	5.8182	0.	-5.415e-003
12371	10.338	5.8182	5.e-002	-8.7221e-007
12372	10.338	5.9091	0.	-1.2186e-003
12373	10.338	5.5455	0.	1.77e-003
12374	10.246	5.6364	0.	4.6028e-003
12375	10.338	5.6364	5.e-002	1.9698e-006
12376	10.338	5.3636	0.	-2.0482e-003
12377	10.246	5.4545	0.	-3.3266e-004
12378	10.338	5.4545	5.e-002	2.3945e-006
12379	10.338	5.1818	0.	-0.33115
12380	10.246	5.2727	0.	-0.20743
12381	10.338	5.2727	5.e-002	1.1623e-006
12382	10.338	5.	0.	-2.3126
12383	10.246	5.0909	0.	-2.3987
12384	10.338	5.0909	5.e-002	1.115e-006
12385	10.338	4.8182	0.	-4.2321
12386	10.246	4.9091	0.	-4.5321
12387	10.338	4.9091	5.e-002	5.8834e-007
12388	10.338	4.6364	0.	-6.0521
12389	10.246	4.7273	0.	-6.5596
12390	10.338	4.7273	5.e-002	1.664e-007
12391	10.338	4.4545	0.	-7.7538
12392	10.246	4.5455	0.	-8.4625
12393	10.338	4.5455	5.e-002	7.8331e-007
12394	10.338	4.2727	0.	-9.3179
12395	10.246	4.3636	0.	-10.222
12396	10.338	4.3636	5.e-002	-3.3524e-007
12397	10.338	4.0909	0.	-10.725
12398	10.246	4.1818	0.	-11.817
12399	10.338	4.1818	5.e-002	-2.1273e-007
12400	10.338	3.9091	0.	-11.954
12401	10.246	4.	0.	-13.23
12402	10.338	4.	5.e-002	-7.0074e-008
12403	10.338	3.7273	0.	-12.989
12404	10.246	3.8182	0.	-14.44
12405	10.338	3.8182	5.e-002	1.6393e-007
12406	10.338	3.5455	0.	-13.812
12407	10.246	3.6364	0.	-15.431
12408	10.338	3.6364	5.e-002	1.0497e-006
12409	10.338	3.3636	0.	-14.41
12410	10.246	3.4545	0.	-16.188
12411	10.338	3.4545	5.e-002	8.413e-007
12412	10.338	3.1818	0.	-14.773
12413	10.246	3.2727	0.	-16.699
12414	10.338	3.2727	5.e-002	6.4773e-007
12415	10.338	3.	0.	-14.895
12416	10.246	3.0909	0.	-16.957
12417	10.338	3.0909	5.e-002	9.3109e-007
12418	10.338	2.8182	0.	-14.773
12419	10.246	2.9091	0.	-16.957
12420	10.338	2.9091	5.e-002	1.8108e-006
12421	10.338	2.6364	0.	-14.41
12422	10.246	2.7273	0.	-16.699
12423	10.338	2.7273	5.e-002	1.499e-006
12424	10.338	2.4545	0.	-13.812
12425	10.246	2.5455	0.	-16.188
12426	10.338	2.5455	5.e-002	1.4202e-006
12427	10.338	2.2727	0.	-12.989
12428	10.246	2.3636	0.	-15.431
12429	10.338	2.3636	5.e-002	1.1051e-006
12430	10.338	2.0909	0.	-11.954
12431	10.246	2.1818	0.	-14.44
12432	10.338	2.1818	5.e-002	1.1427e-006
12433	10.338	1.9091	0.	-10.725
12434	10.246	2.	0.	-13.23
12435	10.338	2.	5.e-002	1.1563e-006
12436	10.338	1.7273	0.	-9.3179
12437	10.246	1.8182	0.	-11.817
12438	10.338	1.8182	5.e-002	1.1736e-006
12439	10.338	1.5455	0.	-7.7538
12440	10.246	1.6364	0.	-10.222
12441	10.338	1.6364	5.e-002	1.1428e-006
12442	10.338	1.3636	0.	-6.0521
12443	10.246	1.4545	0.	-8.4625
12444	10.338	1.4545	5.e-002	1.2179e-006
12445	10.338	1.1818	0.	-4.2321
12446	10.246	1.2727	0.	-6.5596
12447	10.338	1.2727	5.e-002	1.2996e-006
12448	10.338	1.	0.	-2.3126
12449	10.246	1.0909	0.	-4.5321
12450	10.338	1.0909	5.e-002	1.3205e-006
12451	10.338	0.81818	0.	-0.33116
12452	10.246	0.90909	0.	-2.3987
12453	10.338	0.90909	5.e-002	1.3103e-006
12454	10.338	0.63636	0.	-2.0472e-003
12455	10.246	0.72727	0.	-0.20744
12456	10.338	0.72727	5.e-002	9.8707e-007
12457	10.338	0.45455	0.	1.7707e-003
12458	10.246	0.54545	0.	-3.3218e-004
12459	10.338	0.54545	5.e-002	7.239e-007
12460	10.338	0.27273	0.	-3.8954e-004
12461	10.246	0.36364	0.	4.6038e-003
12462	10.338	0.36364	5.e-002	8.6674e-007
12463	10.246	0.18182	0.	-5.4143e-003
12464	10.338	0.18182	5.e-002	3.3252e-006
12465	10.338	9.0909e-002	0.	-1.218e-003
12466	10.154	5.7273	0.	9.3211e-005
12467	10.062	5.8182	0.	-7.2424e-003
12468	10.154	5.8182	5.e-002	-4.2352e-006
12469	10.154	5.9091	0.	-1.5598e-003
12470	10.154	5.5455	0.	3.2994e-003
12471	10.062	5.6364	0.	6.9907e-003
12472	10.154	5.6364	5.e-002	1.6334e-006
12473	10.154	5.3636	0.	-2.7633e-002
12474	10.062	5.4545	0.	-2.3834e-003
12475	10.154	5.4545	5.e-002	2.1155e-006
12476	10.154	5.1818	0.	-2.2832
12477	10.062	5.2727	0.	-2.002
12478	10.154	5.2727	5.e-002	6.8356e-007
12479	10.154	5.	0.	-4.6359
12480	10.062	5.0909	0.	-4.5959
12481	10.154	5.0909	5.e-002	5.8977e-007
12482	10.154	4.8182	0.	-6.8763
12483	10.062	4.9091	0.	-7.0727
12484	10.154	4.9091	5.e-002	1.7858e-007
12485	10.154	4.6364	0.	-8.986
12486	10.062	4.7273	0.	-9.4134
12487	10.154	4.7273	5.e-002	-5.9696e-007
12488	10.154	4.4545	0.	-10.946
12489	10.062	4.5455	0.	-11.599
12490	10.154	4.5455	5.e-002	1.7957e-007
12491	10.154	4.2727	0.	-12.736
12492	10.062	4.3636	0.	-13.608
12493	10.154	4.3636	5.e-002	-5.5164e-007
12494	10.154	4.0909	0.	-14.337
12495	10.062	4.1818	0.	-15.422
12496	10.154	4.1818	5.e-002	-3.6889e-007
12497	10.154	3.9091	0.	-15.729
12498	10.062	4.	0.	-17.02
12499	10.154	4.	5.e-002	-4.9093e-007
12500	10.154	3.7273	0.	-16.895
12501	10.062	3.8182	0.	-18.384
12502	10.154	3.8182	5.e-002	-9.2569e-008
12503	10.154	3.5455	0.	-17.82
12504	10.062	3.6364	0.	-19.497
12505	10.154	3.6364	5.e-002	6.7076e-007
12506	10.154	3.3636	0.	-18.49
12507	10.062	3.4545	0.	-20.345
12508	10.154	3.4545	5.e-002	7.0808e-007
12509	10.154	3.1818	0.	-18.896
12510	10.062	3.2727	0.	-20.917
12511	10.154	3.2727	5.e-002	4.0003e-007
12512	10.154	3.	0.	-19.032
12513	10.062	3.0909	0.	-21.204
12514	10.154	3.0909	5.e-002	6.89e-007
12515	10.154	2.8182	0.	-18.896
12516	10.062	2.9091	0.	-21.204
12517	10.154	2.9091	5.e-002	1.4565e-006
12518	10.154	2.6364	0.	-18.49
12519	10.062	2.7273	0.	-20.917
12520	10.154	2.7273	5.e-002	1.0304e-006
12521	10.154	2.4545	0.	-17.82
12522	10.062	2.5455	0.	-20.345
12523	10.154	2.5455	5.e-002	1.1971e-006
12524	10.154	2.2727	0.	-16.895
12525	10.062	2.3636	0.	-19.497
12526	10.154	2.3636	5.e-002	1.1278e-006
12527	10.154	2.0909	0.	-15.729
12528	10.062	2.1818	0.	-18.384
12529	10.154	2.1818	5.e-002	1.0461e-006
12530	10.154	1.9091	0.	-14.337
12531	10.062	2.	0.	-17.02
12532	10.154	2.	5.e-002	6.018e-007
12533	10.154	1.7273	0.	-12.736
12534	10.062	1.8182	0.	-15.422
12535	10.154	1.8182	5.e-002	1.0946e-006
12536	10.154	1.5455	0.	-10.946
12537	10.062	1.6364	0.	-13.608
12538	10.154	1.6364	5.e-002	1.0546e-006
12539	10.154	1.3636	0.	-8.986
12540	10.062	1.4545	0.	-11.599
12541	10.154	1.4545	5.e-002	1.0742e-006
12542	10.154	1.1818	0.	-6.8763
12543	10.062	1.2727	0.	-9.4134
12544	10.154	1.2727	5.e-002	1.0735e-006
12545	10.154	1.	0.	-4.6359
12546	10.062	1.0909	0.	-7.0727
12547	10.154	1.0909	5.e-002	1.188e-006
12548	10.154	0.81818	0.	-2.2832
12549	10.062	0.90909	0.	-4.5959
12550	10.154	0.90909	5.e-002	9.9579e-007
12551	10.154	0.63636	0.	-2.7633e-002
12552	10.062	0.72727	0.	-2.002
12553	10.154	0.72727	5.e-002	1.0855e-006
12554	10.154	0.45455	0.	3.3001e-003
12555	10.062	0.54545	0.	-2.3838e-003
12556	10.154	0.54545	5.e-002	1.0417e-006
12557	10.154	0.27273	0.	9.4188e-005
12558	10.062	0.36364	0.	6.9918e-003
12559	10.154	0.36364	5.e-002	7.e-007
12560	10.062	0.18182	0.	-7.2412e-003
12561	10.154	0.18182	5.e-002	5.152e-006
12562	10.154	9.0909e-002	0.	-1.5586e-003
12563	9.9692	5.7273	0.	1.2297e-004
12564	9.8769	5.8182	0.	-9.7257e-003
12565	9.9692	5.8182	5.e-002	-6.2855e-006
12566	9.9692	5.9091	0.	-2.1973e-003
12567	9.9692	5.5455	0.	4.8572e-003
12568	9.8769	5.6364	0.	9.2947e-003
12569	9.9692	5.6364	5.e-002	1.4665e-006
12570	9.9692	5.3636	0.	-1.4928
12571	9.8769	5.4545	0.	-0.79709
12572	9.9692	5.4545	5.e-002	2.1776e-006
12573	9.9692	5.1818	0.	-4.3326
12574	9.8769	5.2727	0.	-3.9037
12575	9.9692	5.2727	5.e-002	8.7422e-007
12576	9.9692	5.	0.	-7.0497
12577	9.8769	5.0909	0.	-6.884
12578	9.9692	5.0909	5.e-002	7.0899e-007
12579	9.9692	4.8182	0.	-9.626
12580	9.8769	4.9091	0.	-9.7201
12581	9.9692	4.9091	5.e-002	1.7463e-007
12582	9.9692	4.6364	0.	-12.042
12583	9.8769	4.7273	0.	-12.391
12584	9.9692	4.7273	5.e-002	-5.3043e-007
12585	9.9692	4.4545	0.	-14.276
12586	9.8769	4.5455	0.	-14.876
12587	9.9692	4.5455	5.e-002	4.9337e-007
12588	9.9692	4.2727	0.	-16.309
12589	9.8769	4.3636	0.	-17.153
12590	9.9692	4.3636	5.e-002	-4.7669e-007
12591	9.9692	4.0909	0.	-18.119
12592	9.8769	4.1818	0.	-19.202
12593	9.9692	4.1818	5.e-002	-4.3226e-007
12594	9.9692	3.9091	0.	-19.688
12595	9.8769	4.	0.	-21.001
12596	9.9692	4.	5.e-002	-2.655e-007
12597	9.9692	3.7273	0.	-20.999
12598	9.8769	3.8182	0.	-22.532
12599	9.9692	3.8182	5.e-002	-2.2953e-007
12600	9.9692	3.5455	0.	-22.035
12601	9.8769	3.6364	0.	-23.779
12602	9.9692	3.6364	5.e-002	9.8707e-007
12603	9.9692	3.3636	0.	-22.784
12604	9.8769	3.4545	0.	-24.726
12605	9.9692	3.4545	5.e-002	1.0433e-006
12606	9.9692	3.1818	0.	-23.238
12607	9.8769	3.2727	0.	-25.365
12608	9.9692	3.2727	5.e-002	3.8623e-007
12609	9.9692	3.	0.	-23.39
12610	9.8769	3.0909	0.	-25.686
12611	9.9692	3.0909	5.e-002	9.2373e-007
12612	9.9692	2.8182	0.	-23.238
12613	9.8769	2.9091	0.	-25.686
12614	9.9692	2.9091	5.e-002	1.4602e-006
12615	9.9692	2.6364	0.	-22.784
12616	9.8769	2.7273	0.	-25.365
12617	9.9692	2.7273	5.e-002	1.279e-006
12618	9.9692	2.4545	0.	-22.035
12619	9.8769	2.5455	0.	-24.726
12620	9.9692	2.5455	5.e-002	1.3363e-006
12621	9.9692	2.2727	0.	-20.999
12622	9.8769	2.3636	0.	-23.779
12623	9.9692	2.3636	5.e-002	1.3868e-006
12624	9.9692	2.0909	0.	-19.688
12625	9.8769	2.1818	0.	-22.532
12626	9.9692	2.1818	5.e-002	1.4213e-006
12627	9.9692	1.9091	0.	-18.119
12628	9.8769	2.	0.	-21.001
12629	9.9692	2.	5.e-002	1.237e-006
12630	9.9692	1.7273	0.	-16.309
12631	9.8769	1.8182	0.	-19.202
12632	9.9692	1.8182	5.e-002	1.2934e-006
12633	9.9692	1.5455	0.	-14.276
12634	9.8769	1.6364	0.	-17.153
12635	9.9692	1.6364	5.e-002	1.5772e-006
12636	9.9692	1.3636	0.	-12.042
12637	9.8769	1.4545	0.	-14.876
12638	9.9692	1.4545	5.e-002	1.4335e-006
12639	9.9692	1.1818	0.	-9.626
12640	9.8769	1.2727	0.	-12.391
12641	9.9692	1.2727	5.e-002	1.3702e-006
12642	9.9692	1.	0.	-7.0497
12643	9.8769	1.0909	0.	-9.7201
12644	9.9692	1.0909	5.e-002	1.2803e-006
12645	9.9692	0.81818	0.	-4.3326
12646	9.8769	0.90909	0.	-6.8841
12647	9.9692	0.90909	5.e-002	1.5322e-006
12648	9.9692	0.63636	0.	-1.4928
12649	9.8769	0.72727	0.	-3.9037
12650	9.9692	0.72727	5.e-002	1.6513e-006
12651	9.9692	0.45455	0.	4.8574e-003
12652	9.8769	0.54545	0.	-0.7971
12653	9.9692	0.54545	5.e-002	1.3628e-006
12654	9.9692	0.27273	0.	1.2432e-004
12655	9.8769	0.36364	0.	9.2958e-003
12656	9.9692	0.36364	5.e-002	9.4386e-007
12657	9.8769	0.18182	0.	-9.7244e-003
12658	9.9692	0.18182	5.e-002	7.8752e-006
12659	9.9692	9.0909e-002	0.	-2.1969e-003
12660	9.7846	5.7273	0.	-6.5204e-004
12661	9.6923	5.8182	0.	-1.3137e-002
12662	9.7846	5.8182	5.e-002	-9.6999e-006
12663	9.7846	5.9091	0.	-3.2525e-003
12664	9.7846	5.5455	0.	5.8786e-003
12665	9.6923	5.6364	0.	1.1118e-002
12666	9.7846	5.6364	5.e-002	1.5531e-006
12667	9.7846	5.3636	0.	-3.2262
12668	9.6923	5.4545	0.	-2.3594
12669	9.7846	5.4545	5.e-002	2.2424e-006
12670	9.7846	5.1818	0.	-6.4725
12671	9.6923	5.2727	0.	-5.8942
12672	9.7846	5.2727	5.e-002	7.5968e-007
12673	9.7846	5.	0.	-9.5709
12674	9.6923	5.0909	0.	-9.279
12675	9.7846	5.0909	5.e-002	6.9661e-007
12676	9.7846	4.8182	0.	-12.501
12677	9.6923	4.9091	0.	-12.493
12678	9.7846	4.9091	5.e-002	2.145e-007
12679	9.7846	4.6364	0.	-15.241
12680	9.6923	4.7273	0.	-15.514
12681	9.7846	4.7273	5.e-002	-3.8047e-007
12682	9.7846	4.4545	0.	-17.768
12683	9.6923	4.5455	0.	-18.318
12684	9.7846	4.5455	5.e-002	4.3156e-007
12685	9.7846	4.2727	0.	-20.06
12686	9.6923	4.3636	0.	-20.881
12687	9.7846	4.3636	5.e-002	-4.2075e-007
12688	9.7846	4.0909	0.	-22.097
12689	9.6923	4.1818	0.	-23.181
12690	9.7846	4.1818	5.e-002	-3.683e-007
12691	9.7846	3.9091	0.	-23.857
12692	9.6923	4.	0.	-25.197
12693	9.7846	4.	5.e-002	-2.8541e-007
12694	9.7846	3.7273	0.	-25.324
12695	9.6923	3.8182	0.	-26.91
12696	9.7846	3.8182	5.e-002	-9.3012e-009
12697	9.7846	3.5455	0.	-26.483
12698	9.6923	3.6364	0.	-28.302
12699	9.7846	3.6364	5.e-002	9.7101e-007
12700	9.7846	3.3636	0.	-27.319
12701	9.6923	3.4545	0.	-29.359
12702	9.7846	3.4545	5.e-002	7.9779e-007
12703	9.7846	3.1818	0.	-27.825
12704	9.6923	3.2727	0.	-30.07
12705	9.7846	3.2727	5.e-002	1.382e-007
12706	9.7846	3.	0.	-27.994
12707	9.6923	3.0909	0.	-30.427
12708	9.7846	3.0909	5.e-002	1.1589e-006
12709	9.7846	2.8182	0.	-27.825
12710	9.6923	2.9091	0.	-30.427
12711	9.7846	2.9091	5.e-002	1.4639e-006
12712	9.7846	2.6364	0.	-27.319
12713	9.6923	2.7273	0.	-30.07
12714	9.7846	2.7273	5.e-002	1.291e-006
12715	9.7846	2.4545	0.	-26.483
12716	9.6923	2.5455	0.	-29.359
12717	9.7846	2.5455	5.e-002	1.1144e-006
12718	9.7846	2.2727	0.	-25.324
12719	9.6923	2.3636	0.	-28.302
12720	9.7846	2.3636	5.e-002	1.1683e-006
12721	9.7846	2.0909	0.	-23.857
12722	9.6923	2.1818	0.	-26.91
12723	9.7846	2.1818	5.e-002	1.2359e-006
12724	9.7846	1.9091	0.	-22.097
12725	9.6923	2.	0.	-25.197
12726	9.7846	2.	5.e-002	1.3011e-006
12727	9.7846	1.7273	0.	-20.06
12728	9.6923	1.8182	0.	-23.181
12729	9.7846	1.8182	5.e-002	1.5405e-006
12730	9.7846	1.5455	0.	-17.768
12731	9.6923	1.6364	0.	-20.881
12732	9.7846	1.6364	5.e-002	1.2671e-006
12733	9.7846	1.3636	0.	-15.241
12734	9.6923	1.4545	0.	-18.318
12735	9.7846	1.4545	5.e-002	1.599e-006
12736	9.7846	1.1818	0.	-12.501
12737	9.6923	1.2727	0.	-15.514
12738	9.7846	1.2727	5.e-002	1.5662e-006
12739	9.7846	1.	0.	-9.5709
12740	9.6923	1.0909	0.	-12.493
12741	9.7846	1.0909	5.e-002	1.8097e-006
12742	9.7846	0.81818	0.	-6.4725
12743	9.6923	0.90909	0.	-9.279
12744	9.7846	0.90909	5.e-002	1.9352e-006
12745	9.7846	0.63636	0.	-3.2262
12746	9.6923	0.72727	0.	-5.8942
12747	9.7846	0.72727	5.e-002	2.1453e-006
12748	9.7846	0.45455	0.	5.8794e-003
12749	9.6923	0.54545	0.	-2.3594
12750	9.7846	0.54545	5.e-002	2.2595e-006
12751	9.7846	0.27273	0.	-6.5096e-004
12752	9.6923	0.36364	0.	1.1119e-002
12753	9.7846	0.36364	5.e-002	1.8375e-006
12754	9.6923	0.18182	0.	-1.3136e-002
12755	9.7846	0.18182	5.e-002	1.0559e-005
12756	9.7846	9.0909e-002	0.	-3.2512e-003
12757	9.6	5.7273	0.	-3.0051e-003
12758	9.5077	5.8182	0.	-1.7946e-002
12759	9.6	5.8182	5.e-002	-1.1118e-005
12760	9.6	5.9091	0.	-4.878e-003
12761	9.6	5.5455	0.	-1.1958
12762	9.5077	5.6364	0.	7.5042e-004
12763	9.6	5.6364	5.e-002	1.2214e-006
12764	9.6	5.3636	0.	-5.0453
12765	9.5077	5.4545	0.	-4.003
12766	9.6	5.4545	5.e-002	1.9158e-006
12767	9.6	5.1818	0.	-8.7175
12768	9.5077	5.2727	0.	-7.9864
12769	9.6	5.2727	5.e-002	4.5512e-007
12770	9.6	5.	0.	-12.217
12771	9.5077	5.0909	0.	-11.798
12772	9.6	5.0909	5.e-002	4.2248e-007
12773	9.6	4.8182	0.	-15.522
12774	9.5077	4.9091	0.	-15.412
12775	9.6	4.9091	5.e-002	1.6621e-007
12776	9.6	4.6364	0.	-18.606
12777	9.5077	4.7273	0.	-18.805
12778	9.6	4.7273	5.e-002	-4.8956e-007
12779	9.6	4.4545	0.	-21.445
12780	9.5077	4.5455	0.	-21.948
12781	9.6	4.5455	5.e-002	1.7111e-007
12782	9.6	4.2727	0.	-24.016
12783	9.5077	4.3636	0.	-24.817
12784	9.6	4.3636	5.e-002	-8.2102e-007
12785	9.6	4.0909	0.	-26.295
12786	9.5077	4.1818	0.	-27.388
12787	9.6	4.1818	5.e-002	-3.8217e-007
12788	9.6	3.9091	0.	-28.263
12789	9.5077	4.	0.	-29.637
12790	9.6	4.	5.e-002	-1.5032e-007
12791	9.6	3.7273	0.	-29.9
12792	9.5077	3.8182	0.	-31.546
12793	9.6	3.8182	5.e-002	-2.9744e-007
12794	9.6	3.5455	0.	-31.19
12795	9.5077	3.6364	0.	-33.095
12796	9.6	3.6364	5.e-002	1.1864e-006
12797	9.6	3.3636	0.	-32.121
12798	9.5077	3.4545	0.	-34.271
12799	9.6	3.4545	5.e-002	7.8314e-007
12800	9.6	3.1818	0.	-32.684
12801	9.5077	3.2727	0.	-35.061
12802	9.6	3.2727	5.e-002	1.0872e-006
12803	9.6	3.	0.	-32.872
12804	9.5077	3.0909	0.	-35.458
12805	9.6	3.0909	5.e-002	1.3934e-006
12806	9.6	2.8182	0.	-32.684
12807	9.5077	2.9091	0.	-35.458
12808	9.6	2.9091	5.e-002	1.706e-006
12809	9.6	2.6364	0.	-32.121
12810	9.5077	2.7273	0.	-35.061
12811	9.6	2.7273	5.e-002	1.302e-006
12812	9.6	2.4545	0.	-31.19
12813	9.5077	2.5455	0.	-34.271
12814	9.6	2.5455	5.e-002	1.3737e-006
12815	9.6	2.2727	0.	-29.9
12816	9.5077	2.3636	0.	-33.095
12817	9.6	2.3636	5.e-002	9.6662e-007
12818	9.6	2.0909	0.	-28.263
12819	9.5077	2.1818	0.	-31.546
12820	9.6	2.1818	5.e-002	1.4692e-006
12821	9.6	1.9091	0.	-26.295
12822	9.5077	2.	0.	-29.637
12823	9.6	2.	5.e-002	1.3417e-006
12824	9.6	1.7273	0.	-24.016
12825	9.5077	1.8182	0.	-27.388
12826	9.6	1.8182	5.e-002	1.7842e-006
12827	9.6	1.5455	0.	-21.445
12828	9.5077	1.6364	0.	-24.817
12829	9.6	1.6364	5.e-002	1.382e-006
12830	9.6	1.3636	0.	-18.606
12831	9.5077	1.4545	0.	-21.948
12832	9.6	1.4545	5.e-002	1.6294e-006
12833	9.6	1.1818	0.	-15.522
12834	9.5077	1.2727	0.	-18.805
12835	9.6	1.2727	5.e-002	1.6366e-006
12836	9.6	1.	0.	-12.217
12837	9.5077	1.0909	0.	-15.412
12838	9.6	1.0909	5.e-002	1.7106e-006
12839	9.6	0.81818	0.	-8.7175
12840	9.5077	0.90909	0.	-11.798
12841	9.6	0.90909	5.e-002	1.8516e-006
12842	9.6	0.63636	0.	-5.0453
12843	9.5077	0.72727	0.	-7.9865
12844	9.6	0.72727	5.e-002	2.1e-006
12845	9.6	0.45455	0.	-1.1958
12846	9.5077	0.54545	0.	-4.003
12847	9.6	0.54545	5.e-002	2.2599e-006
12848	9.6	0.27273	0.	-3.0041e-003
12849	9.5077	0.36364	0.	7.5325e-004
12850	9.6	0.36364	5.e-002	2.1101e-006
12851	9.5077	0.18182	0.	-1.7945e-002
12852	9.6	0.18182	5.e-002	1.1579e-005
12853	9.6	9.0909e-002	0.	-4.8768e-003
12854	9.4154	5.7273	0.	-9.2598e-003
12855	9.3231	5.8182	0.	-2.5019e-002
12856	9.4154	5.8182	5.e-002	-1.0421e-005
12857	9.4154	5.9091	0.	-7.3657e-003
12858	9.4154	5.5455	0.	-2.6427
12859	9.3231	5.6364	0.	-1.0618
12860	9.4154	5.6364	5.e-002	1.1224e-006
12861	9.4154	5.3636	0.	-6.9614
12862	9.3231	5.4545	0.	-5.7371
12863	9.4154	5.4545	5.e-002	1.2515e-006
12864	9.4154	5.1818	0.	-11.083
12865	9.3231	5.2727	0.	-10.194
12866	9.4154	5.2727	5.e-002	2.4535e-007
12867	9.4154	5.	0.	-15.008
12868	9.3231	5.0909	0.	-14.457
12869	9.4154	5.0909	5.e-002	2.1195e-007
12870	9.4154	4.8182	0.	-18.709
12871	9.3231	4.9091	0.	-18.497
12872	9.4154	4.9091	5.e-002	-8.9024e-008
12873	9.4154	4.6364	0.	-22.16
12874	9.3231	4.7273	0.	-22.284
12875	9.4154	4.7273	5.e-002	-4.9929e-007
12876	9.4154	4.4545	0.	-25.333
12877	9.3231	4.5455	0.	-25.79
12878	9.4154	4.5455	5.e-002	-4.147e-007
12879	9.4154	4.2727	0.	-28.201
12880	9.3231	4.3636	0.	-28.987
12881	9.4154	4.3636	5.e-002	-4.9759e-007
12882	9.4154	4.0909	0.	-30.742
12883	9.3231	4.1818	0.	-31.848
12884	9.4154	4.1818	5.e-002	-5.6045e-007
12885	9.4154	3.9091	0.	-32.933
12886	9.3231	4.	0.	-34.349
12887	9.4154	4.	5.e-002	-8.732e-007
12888	9.4154	3.7273	0.	-34.753
12889	9.3231	3.8182	0.	-36.469
12890	9.4154	3.8182	5.e-002	-3.9155e-007
12891	9.4154	3.5455	0.	-36.187
12892	9.3231	3.6364	0.	-38.189
12893	9.4154	3.6364	5.e-002	1.1367e-006
12894	9.4154	3.3636	0.	-37.222
12895	9.3231	3.4545	0.	-39.493
12896	9.4154	3.4545	5.e-002	-1.9169e-007
12897	9.4154	3.1818	0.	-37.846
12898	9.3231	3.2727	0.	-40.369
12899	9.4154	3.2727	5.e-002	3.4913e-007
12900	9.4154	3.	0.	-38.055
12901	9.3231	3.0909	0.	-40.809
12902	9.4154	3.0909	5.e-002	1.3886e-006
12903	9.4154	2.8182	0.	-37.846
12904	9.3231	2.9091	0.	-40.809
12905	9.4154	2.9091	5.e-002	1.4716e-006
12906	9.4154	2.6364	0.	-37.222
12907	9.3231	2.7273	0.	-40.369
12908	9.4154	2.7273	5.e-002	1.5542e-006
12909	9.4154	2.4545	0.	-36.187
12910	9.3231	2.5455	0.	-39.493
12911	9.4154	2.5455	5.e-002	1.6283e-006
12912	9.4154	2.2727	0.	-34.753
12913	9.3231	2.3636	0.	-38.189
12914	9.4154	2.3636	5.e-002	1.704e-006
12915	9.4154	2.0909	0.	-32.933
12916	9.3231	2.1818	0.	-36.469
12917	9.4154	2.1818	5.e-002	8.5133e-007
12918	9.4154	1.9091	0.	-30.742
12919	9.3231	2.	0.	-34.349
12920	9.4154	2.	5.e-002	9.e-007
12921	9.4154	1.7273	0.	-28.201
12922	9.3231	1.8182	0.	-31.848
12923	9.4154	1.8182	5.e-002	1.7191e-006
12924	9.4154	1.5455	0.	-25.333
12925	9.3231	1.6364	0.	-28.987
12926	9.4154	1.6364	5.e-002	1.7575e-006
12927	9.4154	1.3636	0.	-22.16
12928	9.3231	1.4545	0.	-25.79
12929	9.4154	1.4545	5.e-002	1.6811e-006
12930	9.4154	1.1818	0.	-18.709
12931	9.3231	1.2727	0.	-22.284
12932	9.4154	1.2727	5.e-002	1.6324e-006
12933	9.4154	1.	0.	-15.008
12934	9.3231	1.0909	0.	-18.497
12935	9.4154	1.0909	5.e-002	1.8186e-006
12936	9.4154	0.81818	0.	-11.083
12937	9.3231	0.90909	0.	-14.457
12938	9.4154	0.90909	5.e-002	1.5995e-006
12939	9.4154	0.63636	0.	-6.9614
12940	9.3231	0.72727	0.	-10.194
12941	9.4154	0.72727	5.e-002	2.0573e-006
12942	9.4154	0.45455	0.	-2.6427
12943	9.3231	0.54545	0.	-5.7372
12944	9.4154	0.54545	5.e-002	2.256e-006
12945	9.4154	0.27273	0.	-9.2584e-003
12946	9.3231	0.36364	0.	-1.0618
12947	9.4154	0.36364	5.e-002	1.9067e-006
12948	9.3231	0.18182	0.	-2.5018e-002
12949	9.4154	0.18182	5.e-002	1.3376e-005
12950	9.4154	9.0909e-002	0.	-7.3649e-003
12951	9.2308	5.7273	0.	-2.9371e-002
12952	9.1385	5.8182	0.	-3.604e-002
12953	9.2308	5.8182	5.e-002	-1.3236e-005
12954	9.2308	5.9091	0.	-1.1204e-002
12955	9.2308	5.5455	0.	-4.1717
12956	9.1385	5.6364	0.	-2.3746
12957	9.2308	5.6364	5.e-002	7.6442e-007
12958	9.2308	5.3636	0.	-8.9867
12959	9.1385	5.4545	0.	-7.5725
12960	9.2308	5.4545	5.e-002	1.4794e-006
12961	9.2308	5.1818	0.	-13.584
12962	9.1385	5.2727	0.	-12.533
12963	9.2308	5.2727	5.e-002	-1.2672e-007
12964	9.2308	5.	0.	-17.961
12965	9.1385	5.0909	0.	-17.275
12966	9.2308	5.0909	5.e-002	2.5888e-007
12967	9.2308	4.8182	0.	-22.085
12968	9.1385	4.9091	0.	-21.767
12969	9.2308	4.9091	5.e-002	-6.6179e-007
12970	9.2308	4.6364	0.	-25.927
12971	9.1385	4.7273	0.	-25.976
12972	9.2308	4.7273	5.e-002	-9.2266e-007
12973	9.2308	4.4545	0.	-29.456
12974	9.1385	4.5455	0.	-29.87
12975	9.2308	4.5455	5.e-002	-2.9092e-007
12976	9.2308	4.2727	0.	-32.645
12977	9.1385	4.3636	0.	-33.417
12978	9.2308	4.3636	5.e-002	-7.3266e-007
12979	9.2308	4.0909	0.	-35.466
12980	9.1385	4.1818	0.	-36.591
12981	9.2308	4.1818	5.e-002	-5.3417e-007
12982	9.2308	3.9091	0.	-37.897
12983	9.1385	4.	0.	-39.363
12984	9.2308	4.	5.e-002	-4.8301e-007
12985	9.2308	3.7273	0.	-39.916
12986	9.1385	3.8182	0.	-41.712
12987	9.2308	3.8182	5.e-002	-3.726e-007
12988	9.2308	3.5455	0.	-41.506
12989	9.1385	3.6364	0.	-43.615
12990	9.2308	3.6364	5.e-002	1.1327e-006
12991	9.2308	3.3636	0.	-42.651
12992	9.1385	3.4545	0.	-45.058
12993	9.2308	3.4545	5.e-002	2.5493e-007
12994	9.2308	3.1818	0.	-43.343
12995	9.1385	3.2727	0.	-46.028
12996	9.2308	3.2727	5.e-002	3.4274e-007
12997	9.2308	3.	0.	-43.574
12998	9.1385	3.0909	0.	-46.514
12999	9.2308	3.0909	5.e-002	4.3098e-007
13000	9.2308	2.8182	0.	-43.343
13001	9.1385	2.9091	0.	-46.514
13002	9.2308	2.9091	5.e-002	1.9529e-006
13003	9.2308	2.6364	0.	-42.651
13004	9.1385	2.7273	0.	-46.028
13005	9.2308	2.7273	5.e-002	1.0877e-006
13006	9.2308	2.4545	0.	-41.506
13007	9.1385	2.5455	0.	-45.058
13008	9.2308	2.5455	5.e-002	1.1824e-006
13009	9.2308	2.2727	0.	-39.916
13010	9.1385	2.3636	0.	-43.615
13011	9.2308	2.3636	5.e-002	1.737e-006
13012	9.2308	2.0909	0.	-37.897
13013	9.1385	2.1818	0.	-41.712
13014	9.2308	2.1818	5.e-002	1.3256e-006
13015	9.2308	1.9091	0.	-35.466
13016	9.1385	2.	0.	-39.363
13017	9.2308	2.	5.e-002	2.4487e-006
13018	9.2308	1.7273	0.	-32.645
13019	9.1385	1.8182	0.	-36.591
13020	9.2308	1.8182	5.e-002	2.433e-006
13021	9.2308	1.5455	0.	-29.456
13022	9.1385	1.6364	0.	-33.417
13023	9.2308	1.6364	5.e-002	1.9197e-006
13024	9.2308	1.3636	0.	-25.927
13025	9.1385	1.4545	0.	-29.87
13026	9.2308	1.4545	5.e-002	2.1944e-006
13027	9.2308	1.1818	0.	-22.085
13028	9.1385	1.2727	0.	-25.976
13029	9.2308	1.2727	5.e-002	2.0604e-006
13030	9.2308	1.	0.	-17.961
13031	9.1385	1.0909	0.	-21.767
13032	9.2308	1.0909	5.e-002	1.7678e-006
13033	9.2308	0.81818	0.	-13.584
13034	9.1385	0.90909	0.	-17.275
13035	9.2308	0.90909	5.e-002	1.6427e-006
13036	9.2308	0.63636	0.	-8.9867
13037	9.1385	0.72727	0.	-12.533
13038	9.2308	0.72727	5.e-002	1.9186e-006
13039	9.2308	0.45455	0.	-4.1716
13040	9.1385	0.54545	0.	-7.5725
13041	9.2308	0.54545	5.e-002	1.9519e-006
13042	9.2308	0.27273	0.	-2.9369e-002
13043	9.1385	0.36364	0.	-2.3746
13044	9.2308	0.36364	5.e-002	1.7262e-006
13045	9.1385	0.18182	0.	-3.6039e-002
13046	9.2308	0.18182	5.e-002	1.4821e-005
13047	9.2308	9.0909e-002	0.	-1.1203e-002
13048	9.0462	5.7273	0.	-0.17378
13049	8.9538	5.8182	0.	-5.472e-002
13050	9.0462	5.8182	5.e-002	-1.3644e-005
13051	9.0462	5.9091	0.	-1.7241e-002
13052	9.0462	5.5455	0.	-5.7917
13053	8.9538	5.6364	0.	-3.7676
13054	9.0462	5.6364	5.e-002	5.3035e-007
13055	9.0462	5.3636	0.	-11.134
13056	8.9538	5.4545	0.	-9.5202
13057	9.0462	5.4545	5.e-002	7.6329e-007
13058	9.0462	5.1818	0.	-16.238
13059	8.9538	5.2727	0.	-15.015
13060	9.0462	5.2727	5.e-002	-4.0214e-008
13061	9.0462	5.	0.	-21.095
13062	8.9538	5.0909	0.	-20.269
13063	9.0462	5.0909	5.e-002	1.1596e-008
13064	9.0462	4.8182	0.	-25.671
13065	8.9538	4.9091	0.	-25.244
13066	9.0462	4.9091	5.e-002	-8.6809e-007
13067	9.0462	4.6364	0.	-29.931
13068	8.9538	4.7273	0.	-29.904
13069	9.0462	4.7273	5.e-002	-8.4149e-007
13070	9.0462	4.4545	0.	-33.843
13071	8.9538	4.5455	0.	-34.214
13072	9.0462	4.5455	5.e-002	-6.8737e-008
13073	9.0462	4.2727	0.	-37.375
13074	8.9538	4.3636	0.	-38.138
13075	9.0462	4.3636	5.e-002	-9.7941e-007
13076	9.0462	4.0909	0.	-40.498
13077	8.9538	4.1818	0.	-41.647
13078	9.0462	4.1818	5.e-002	-1.0337e-006
13079	9.0462	3.9091	0.	-43.188
13080	8.9538	4.	0.	-44.712
13081	9.0462	4.	5.e-002	-5.0942e-007
13082	9.0462	3.7273	0.	-45.421
13083	8.9538	3.8182	0.	-47.306
13084	9.0462	3.8182	5.e-002	-4.7153e-007
13085	9.0462	3.5455	0.	-47.178
13086	8.9538	3.6364	0.	-49.409
13087	9.0462	3.6364	5.e-002	1.7818e-007
13088	9.0462	3.3636	0.	-48.445
13089	8.9538	3.4545	0.	-51.002
13090	9.0462	3.4545	5.e-002	1.1908e-006
13091	9.0462	3.1818	0.	-49.209
13092	8.9538	3.2727	0.	-52.072
13093	9.0462	3.2727	5.e-002	-1.4769e-007
13094	9.0462	3.	0.	-49.465
13095	8.9538	3.0909	0.	-52.609
13096	9.0462	3.0909	5.e-002	9.0294e-007
13097	9.0462	2.8182	0.	-49.209
13098	8.9538	2.9091	0.	-52.609
13099	9.0462	2.9091	5.e-002	1.9569e-006
13100	9.0462	2.6364	0.	-48.445
13101	8.9538	2.7273	0.	-52.072
13102	9.0462	2.7273	5.e-002	1.5774e-006
13103	9.0462	2.4545	0.	-47.178
13104	8.9538	2.5455	0.	-51.002
13105	9.0462	2.5455	5.e-002	1.6694e-006
13106	9.0462	2.2727	0.	-45.421
13107	8.9538	2.3636	0.	-49.409
13108	9.0462	2.3636	5.e-002	1.2737e-006
13109	9.0462	2.0909	0.	-43.188
13110	8.9538	2.1818	0.	-47.306
13111	9.0462	2.1818	5.e-002	1.398e-006
13112	9.0462	1.9091	0.	-40.498
13113	8.9538	2.	0.	-44.712
13114	9.0462	2.	5.e-002	1.4956e-006
13115	9.0462	1.7273	0.	-37.375
13116	8.9538	1.8182	0.	-41.647
13117	9.0462	1.8182	5.e-002	1.9858e-006
13118	9.0462	1.5455	0.	-33.843
13119	8.9538	1.6364	0.	-38.138
13120	9.0462	1.6364	5.e-002	2.1944e-006
13121	9.0462	1.3636	0.	-29.931
13122	8.9538	1.4545	0.	-34.214
13123	9.0462	1.4545	5.e-002	2.4992e-006
13124	9.0462	1.1818	0.	-25.671
13125	8.9538	1.2727	0.	-29.904
13126	9.0462	1.2727	5.e-002	2.3443e-006
13127	9.0462	1.	0.	-21.095
13128	8.9538	1.0909	0.	-25.244
13129	9.0462	1.0909	5.e-002	2.2937e-006
13130	9.0462	0.81818	0.	-16.238
13131	8.9538	0.90909	0.	-20.269
13132	9.0462	0.90909	5.e-002	1.8923e-006
13133	9.0462	0.63636	0.	-11.134
13134	8.9538	0.72727	0.	-15.015
13135	9.0462	0.72727	5.e-002	2.0503e-006
13136	9.0462	0.45455	0.	-5.7917
13137	8.9538	0.54545	0.	-9.5202
13138	9.0462	0.54545	5.e-002	1.4752e-006
13139	9.0462	0.27273	0.	-0.17378
13140	8.9538	0.36364	0.	-3.7676
13141	9.0462	0.36364	5.e-002	1.5677e-006
13142	8.9538	0.18182	0.	-5.4719e-002
13143	9.0462	0.18182	5.e-002	1.5797e-005
13144	9.0462	9.0909e-002	0.	-1.724e-002
13145	8.8615	5.7273	0.	-1.0632
13146	8.7692	5.8182	0.	-9.0947e-002
13147	8.8615	5.8182	5.e-002	-1.8717e-005
13148	8.8615	5.9091	0.	-2.7103e-002
13149	8.8615	5.5455	0.	-7.5121
13150	8.7692	5.6364	0.	-5.2477
13151	8.8615	5.6364	5.e-002	-9.655e-008
13152	8.8615	5.3636	0.	-13.416
13153	8.7692	5.4545	0.	-11.592
13154	8.8615	5.4545	5.e-002	4.0145e-007
13155	8.8615	5.1818	0.	-19.06
13156	8.7692	5.2727	0.	-17.658
13157	8.8615	5.2727	5.e-002	-1.0431e-007
13158	8.8615	5.	0.	-24.431
13159	8.7692	5.0909	0.	-23.458
13160	8.8615	5.0909	5.e-002	-7.4622e-007
13161	8.8615	4.8182	0.	-29.49
13162	8.7692	4.9091	0.	-28.951
13163	8.8615	4.9091	5.e-002	-8.8921e-007
13164	8.8615	4.6364	0.	-34.199
13165	8.7692	4.7273	0.	-34.095
13166	8.8615	4.7273	5.e-002	-1.0519e-006
13167	8.8615	4.4545	0.	-38.52
13168	8.7692	4.5455	0.	-38.85
13169	8.8615	4.5455	5.e-002	-8.339e-007
13170	8.8615	4.2727	0.	-42.421
13171	8.7692	4.3636	0.	-43.18
13172	8.8615	4.3636	5.e-002	-1.2724e-006
13173	8.8615	4.0909	0.	-45.871
13174	8.7692	4.1818	0.	-47.05
13175	8.8615	4.1818	5.e-002	-1.1665e-006
13176	8.8615	3.9091	0.	-48.839
13177	8.7692	4.	0.	-50.429
13178	8.8615	4.	5.e-002	-1.0476e-006
13179	8.8615	3.7273	0.	-51.303
13180	8.7692	3.8182	0.	-53.289
13181	8.8615	3.8182	5.e-002	-9.7625e-007
13182	8.8615	3.5455	0.	-53.242
13183	8.7692	3.6364	0.	-55.607
13184	8.8615	3.6364	5.e-002	-3.5604e-007
13185	8.8615	3.3636	0.	-54.639
13186	8.7692	3.4545	0.	-57.362
13187	8.8615	3.4545	5.e-002	6.8595e-007
13188	8.8615	3.1818	0.	-55.482
13189	8.7692	3.2727	0.	-58.541
13190	8.8615	3.2727	5.e-002	-1.67e-007
13191	8.8615	3.	0.	-55.763
13192	8.7692	3.0909	0.	-59.133
13193	8.8615	3.0909	5.e-002	-5.4791e-008
13194	8.8615	2.8182	0.	-55.482
13195	8.7692	2.9091	0.	-59.133
13196	8.8615	2.9091	5.e-002	1.4855e-006
13197	8.8615	2.6364	0.	-54.639
13198	8.7692	2.7273	0.	-58.541
13199	8.8615	2.7273	5.e-002	2.0676e-006
13200	8.8615	2.4545	0.	-53.242
13201	8.7692	2.5455	0.	-57.362
13202	8.8615	2.5455	5.e-002	1.2279e-006
13203	8.8615	2.2727	0.	-51.304
13204	8.7692	2.3636	0.	-55.607
13205	8.8615	2.3636	5.e-002	8.5712e-007
13206	8.8615	2.0909	0.	-48.839
13207	8.7692	2.1818	0.	-53.289
13208	8.8615	2.1818	5.e-002	9.4509e-007
13209	8.8615	1.9091	0.	-45.871
13210	8.7692	2.	0.	-50.429
13211	8.8615	2.	5.e-002	1.9998e-006
13212	8.8615	1.7273	0.	-42.421
13213	8.7692	1.8182	0.	-47.05
13214	8.8615	1.8182	5.e-002	2.0549e-006
13215	8.8615	1.5455	0.	-38.52
13216	8.7692	1.6364	0.	-43.18
13217	8.8615	1.6364	5.e-002	1.748e-006
13218	8.8615	1.3636	0.	-34.199
13219	8.7692	1.4545	0.	-38.85
13220	8.8615	1.4545	5.e-002	1.1032e-006
13221	8.8615	1.1818	0.	-29.49
13222	8.7692	1.2727	0.	-34.095
13223	8.8615	1.2727	5.e-002	1.6491e-006
13224	8.8615	1.	0.	-24.431
13225	8.7692	1.0909	0.	-28.951
13226	8.8615	1.0909	5.e-002	1.5879e-006
13227	8.8615	0.81818	0.	-19.061
13228	8.7692	0.90909	0.	-23.458
13229	8.8615	0.90909	5.e-002	2.3922e-006
13230	8.8615	0.63636	0.	-13.416
13231	8.7692	0.72727	0.	-17.658
13232	8.8615	0.72727	5.e-002	1.9794e-006
13233	8.8615	0.45455	0.	-7.5121
13234	8.7692	0.54545	0.	-11.592
13235	8.8615	0.54545	5.e-002	1.3353e-006
13236	8.8615	0.27273	0.	-1.0632
13237	8.7692	0.36364	0.	-5.2476
13238	8.8615	0.36364	5.e-002	2.1787e-006
13239	8.7692	0.18182	0.	-9.0945e-002
13240	8.8615	0.18182	5.e-002	1.6774e-005
13241	8.8615	9.0909e-002	0.	-2.7102e-002
13242	8.6769	5.7273	0.	-2.2603
13243	8.5846	5.8182	0.	-0.17934
13244	8.6769	5.8182	5.e-002	-1.5657e-005
13245	8.6769	5.9091	0.	-4.4358e-002
13246	8.6769	5.5455	0.	-9.3425
13247	8.5846	5.6364	0.	-6.8222
13248	8.6769	5.6364	5.e-002	-2.0314e-007
13249	8.6769	5.3636	0.	-15.848
13250	8.5846	5.4545	0.	-13.799
13251	8.6769	5.4545	5.e-002	-1.5267e-007
13252	8.6769	5.1818	0.	-22.069
13253	8.5846	5.2727	0.	-20.477
13254	8.6769	5.2727	5.e-002	-1.1743e-006
13255	8.6769	5.	0.	-27.99
13256	8.5846	5.0909	0.	-26.863
13257	8.6769	5.0909	5.e-002	-1.8737e-007
13258	8.6769	4.8182	0.	-33.567
13259	8.5846	4.9091	0.	-32.91
13260	8.6769	4.9091	5.e-002	-8.7501e-007
13261	8.6769	4.6364	0.	-38.757
13262	8.5846	4.7273	0.	-38.573
13263	8.6769	4.7273	5.e-002	-9.3573e-007
13264	8.6769	4.4545	0.	-43.519
13265	8.5846	4.5455	0.	-43.807
13266	8.6769	4.5455	5.e-002	-1.0831e-006
13267	8.6769	4.2727	0.	-47.818
13268	8.5846	4.3636	0.	-48.573
13269	8.6769	4.3636	5.e-002	-9.4836e-007
13270	8.6769	4.0909	0.	-51.617
13271	8.5846	4.1818	0.	-52.833
13272	8.6769	4.1818	5.e-002	-1.2084e-006
13273	8.6769	3.9091	0.	-54.887
13274	8.5846	4.	0.	-56.551
13275	8.6769	4.	5.e-002	-1.1725e-006
13276	8.6769	3.7273	0.	-57.601
13277	8.5846	3.8182	0.	-59.698
13278	8.6769	3.8182	5.e-002	-5.6285e-007
13279	8.6769	3.5455	0.	-59.735
13280	8.5846	3.6364	0.	-62.248
13281	8.6769	3.6364	5.e-002	-4.0524e-007
13282	8.6769	3.3636	0.	-61.273
13283	8.5846	3.4545	0.	-64.179
13284	8.6769	3.4545	5.e-002	-3.0686e-007
13285	8.6769	3.1818	0.	-62.201
13286	8.5846	3.2727	0.	-65.476
13287	8.6769	3.2727	5.e-002	-1.8222e-007
13288	8.6769	3.	0.	-62.511
13289	8.5846	3.0909	0.	-66.127
13290	8.6769	3.0909	5.e-002	-5.9856e-008
13291	8.6769	2.8182	0.	-62.201
13292	8.5846	2.9091	0.	-66.127
13293	8.6769	2.9091	5.e-002	1.013e-006
13294	8.6769	2.6364	0.	-61.273
13295	8.5846	2.7273	0.	-65.476
13296	8.6769	2.7273	5.e-002	6.5898e-007
13297	8.6769	2.4545	0.	-59.735
13298	8.5846	2.5455	0.	-64.179
13299	8.6769	2.5455	5.e-002	7.737e-007
13300	8.6769	2.2727	0.	-57.601
13301	8.5846	2.3636	0.	-62.248
13302	8.6769	2.3636	5.e-002	8.7048e-007
13303	8.6769	2.0909	0.	-54.887
13304	8.5846	2.1818	0.	-59.698
13305	8.6769	2.1818	5.e-002	1.0736e-006
13306	8.6769	1.9091	0.	-51.617
13307	8.5846	2.	0.	-56.551
13308	8.6769	2.	5.e-002	1.6899e-006
13309	8.6769	1.7273	0.	-47.818
13310	8.5846	1.8182	0.	-52.833
13311	8.6769	1.8182	5.e-002	1.6062e-006
13312	8.6769	1.5455	0.	-43.519
13313	8.5846	1.6364	0.	-48.573
13314	8.6769	1.6364	5.e-002	1.7998e-006
13315	8.6769	1.3636	0.	-38.757
13316	8.5846	1.4545	0.	-43.807
13317	8.6769	1.4545	5.e-002	1.912e-006
13318	8.6769	1.1818	0.	-33.567
13319	8.5846	1.2727	0.	-38.573
13320	8.6769	1.2727	5.e-002	2.2169e-006
13321	8.6769	1.	0.	-27.99
13322	8.5846	1.0909	0.	-32.91
13323	8.6769	1.0909	5.e-002	2.7721e-006
13324	8.6769	0.81818	0.	-22.069
13325	8.5846	0.90909	0.	-26.863
13326	8.6769	0.90909	5.e-002	2.0833e-006
13327	8.6769	0.63636	0.	-15.848
13328	8.5846	0.72727	0.	-20.477
13329	8.6769	0.72727	5.e-002	2.0891e-006
13330	8.6769	0.45455	0.	-9.3425
13331	8.5846	0.54545	0.	-13.799
13332	8.6769	0.54545	5.e-002	2.0056e-006
13333	8.6769	0.27273	0.	-2.2603
13334	8.5846	0.36364	0.	-6.8222
13335	8.6769	0.36364	5.e-002	1.7897e-006
13336	8.5846	0.18182	0.	-0.17934
13337	8.6769	0.18182	5.e-002	1.7406e-005
13338	8.6769	9.0909e-002	0.	-4.4357e-002
13339	8.4923	5.7273	0.	-3.5552
13340	8.4	5.8182	0.	-0.47135
13341	8.4923	5.8182	5.e-002	-1.7821e-005
13342	8.4923	5.9091	0.	-7.8102e-002
13343	8.4923	5.5455	0.	-11.293
13344	8.4	5.6364	0.	-8.4992
13345	8.4923	5.6364	5.e-002	-1.7892e-007
13346	8.4923	5.3636	0.	-18.441
13347	8.4	5.4545	0.	-16.154
13348	8.4923	5.4545	5.e-002	-5.4278e-008
13349	8.4923	5.1818	0.	-25.283
13350	8.4	5.2727	0.	-23.488
13351	8.4923	5.2727	5.e-002	-9.5362e-007
13352	8.4923	5.	0.	-31.794
13353	8.4	5.0909	0.	-30.503
13354	8.4923	5.0909	5.e-002	-1.312e-006
13355	8.4923	4.8182	0.	-37.926
13356	8.4	4.9091	0.	-37.146
13357	8.4923	4.9091	5.e-002	-1.2177e-006
13358	8.4923	4.6364	0.	-43.634
13359	8.4	4.7273	0.	-43.367
13360	8.4923	4.7273	5.e-002	-1.5623e-006
13361	8.4923	4.4545	0.	-48.871
13362	8.4	4.5455	0.	-49.118
13363	8.4923	4.5455	5.e-002	-1.1062e-006
13364	8.4923	4.2727	0.	-53.597
13365	8.4	4.3636	0.	-54.354
13366	8.4923	4.3636	5.e-002	-8.4031e-007
13367	8.4923	4.0909	0.	-57.775
13368	8.4	4.1818	0.	-59.033
13369	8.4923	4.1818	5.e-002	-7.3218e-007
13370	8.4923	3.9091	0.	-61.37
13371	8.4	4.	0.	-63.118
13372	8.4923	4.	5.e-002	-1.3283e-006
13373	8.4923	3.7273	0.	-64.353
13374	8.4	3.8182	0.	-66.575
13375	8.4923	3.8182	5.e-002	-4.9473e-007
13376	8.4923	3.5455	0.	-66.7
13377	8.4	3.6364	0.	-69.376
13378	8.4923	3.6364	5.e-002	5.0294e-007
13379	8.4923	3.3636	0.	-68.39
13380	8.4	3.4545	0.	-71.497
13381	8.4923	3.4545	5.e-002	-3.0256e-007
13382	8.4923	3.1818	0.	-69.41
13383	8.4	3.2727	0.	-72.921
13384	8.4923	3.2727	5.e-002	-1.892e-007
13385	8.4923	3.	0.	-69.751
13386	8.4	3.0909	0.	-73.637
13387	8.4923	3.0909	5.e-002	-6.5718e-008
13388	8.4923	2.8182	0.	-69.41
13389	8.4	2.9091	0.	-73.637
13390	8.4923	2.9091	5.e-002	1.0194e-006
13391	8.4923	2.6364	0.	-68.39
13392	8.4	2.7273	0.	-72.921
13393	8.4923	2.7273	5.e-002	2.1027e-006
13394	8.4923	2.4545	0.	-66.7
13395	8.4	2.5455	0.	-71.497
13396	8.4923	2.5455	5.e-002	3.1336e-007
13397	8.4923	2.2727	0.	-64.353
13398	8.4	2.3636	0.	-69.376
13399	8.4923	2.3636	5.e-002	9.2616e-007
13400	8.4923	2.0909	0.	-61.37
13401	8.4	2.1818	0.	-66.575
13402	8.4923	2.1818	5.e-002	1.4849e-006
13403	8.4923	1.9091	0.	-57.775
13404	8.4	2.	0.	-63.118
13405	8.4923	2.	5.e-002	2.1635e-006
13406	8.4923	1.7273	0.	-53.597
13407	8.4	1.8182	0.	-59.033
13408	8.4923	1.8182	5.e-002	1.6942e-006
13409	8.4923	1.5455	0.	-48.871
13410	8.4	1.6364	0.	-54.354
13411	8.4923	1.6364	5.e-002	1.7291e-006
13412	8.4923	1.3636	0.	-43.634
13413	8.4	1.4545	0.	-49.118
13414	8.4923	1.4545	5.e-002	2.4527e-006
13415	8.4923	1.1818	0.	-37.926
13416	8.4	1.2727	0.	-43.367
13417	8.4923	1.2727	5.e-002	1.7486e-006
13418	8.4923	1.	0.	-31.794
13419	8.4	1.0909	0.	-37.146
13420	8.4923	1.0909	5.e-002	2.1187e-006
13421	8.4923	0.81818	0.	-25.283
13422	8.4	0.90909	0.	-30.503
13423	8.4923	0.90909	5.e-002	2.9687e-006
13424	8.4923	0.63636	0.	-18.441
13425	8.4	0.72727	0.	-23.488
13426	8.4923	0.72727	5.e-002	2.3548e-006
13427	8.4923	0.45455	0.	-11.293
13428	8.4	0.54545	0.	-16.154
13429	8.4923	0.54545	5.e-002	2.359e-006
13430	8.4923	0.27273	0.	-3.5552
13431	8.4	0.36364	0.	-8.4992
13432	8.4923	0.36364	5.e-002	3.5331e-006
13433	8.4	0.18182	0.	-0.47135
13434	8.4923	0.18182	5.e-002	1.98e-005
13435	8.4923	9.0909e-002	0.	-7.8101e-002
13436	8.3077	5.7273	0.	-4.9381
13437	8.2154	5.8182	0.	-1.2242
13438	8.3077	5.8182	5.e-002	-2.4451e-005
13439	8.3077	5.9091	0.	-0.15701
13440	8.3077	5.5455	0.	-13.374
13441	8.2154	5.6364	0.	-10.287
13442	8.3077	5.6364	5.e-002	-8.4491e-007
13443	8.3077	5.3636	0.	-21.213
13444	8.2154	5.4545	0.	-18.669
13445	8.3077	5.4545	5.e-002	-1.9093e-007
13446	8.3077	5.1818	0.	-28.719
13447	8.2154	5.2727	0.	-26.709
13448	8.3077	5.2727	5.e-002	-1.0546e-006
13449	8.3077	5.	0.	-35.865
13450	8.2154	5.0909	0.	-34.399
13451	8.3077	5.0909	5.e-002	-1.0664e-006
13452	8.3077	4.8182	0.	-42.596
13453	8.2154	4.9091	0.	-41.684
13454	8.3077	4.9091	5.e-002	-1.4114e-006
13455	8.3077	4.6364	0.	-48.86
13456	8.2154	4.7273	0.	-48.507
13457	8.3077	4.7273	5.e-002	-1.059e-006
13458	8.3077	4.4545	0.	-54.609
13459	8.2154	4.5455	0.	-54.814
13460	8.3077	4.5455	5.e-002	-1.3805e-006
13461	8.3077	4.2727	0.	-59.798
13462	8.2154	4.3636	0.	-60.558
13463	8.3077	4.3636	5.e-002	-1.3472e-006
13464	8.3077	4.0909	0.	-64.383
13465	8.2154	4.1818	0.	-65.69
13466	8.3077	4.1818	5.e-002	-9.313e-007
13467	8.3077	3.9091	0.	-68.33
13468	8.2154	4.	0.	-70.171
13469	8.3077	4.	5.e-002	-8.2561e-007
13470	8.3077	3.7273	0.	-71.604
13471	8.2154	3.8182	0.	-73.963
13472	8.3077	3.8182	5.e-002	-6.4488e-007
13473	8.3077	3.5455	0.	-74.18
13474	8.2154	3.6364	0.	-77.036
13475	8.3077	3.6364	5.e-002	-5.3442e-007
13476	8.3077	3.3636	0.	-76.035
13477	8.2154	3.4545	0.	-79.363
13478	8.3077	3.4545	5.e-002	1.5545e-006
13479	8.3077	3.1818	0.	-77.155
13480	8.2154	3.2727	0.	-80.925
13481	8.3077	3.2727	5.e-002	-2.185e-007
13482	8.3077	3.	0.	-77.529
13483	8.2154	3.0909	0.	-81.71
13484	8.3077	3.0909	5.e-002	-7.2248e-008
13485	8.3077	2.8182	0.	-77.155
13486	8.2154	2.9091	0.	-81.71
13487	8.3077	2.9091	5.e-002	7.1948e-008
13488	8.3077	2.6364	0.	-76.035
13489	8.2154	2.7273	0.	-80.925
13490	8.3077	2.7273	5.e-002	1.165e-006
13491	8.3077	2.4545	0.	-74.18
13492	8.2154	2.5455	0.	-79.363
13493	8.3077	2.5455	5.e-002	1.3095e-006
13494	8.3077	2.2727	0.	-71.604
13495	8.2154	2.3636	0.	-77.036
13496	8.3077	2.3636	5.e-002	1.5034e-006
13497	8.3077	2.0909	0.	-68.33
13498	8.2154	2.1818	0.	-73.963
13499	8.3077	2.1818	5.e-002	2.5485e-006
13500	8.3077	1.9091	0.	-64.383
13501	8.2154	2.	0.	-70.171
13502	8.3077	2.	5.e-002	1.6059e-006
13503	8.3077	1.7273	0.	-59.798
13504	8.2154	1.8182	0.	-65.69
13505	8.3077	1.8182	5.e-002	1.9983e-006
13506	8.3077	1.5455	0.	-54.609
13507	8.2154	1.6364	0.	-60.558
13508	8.3077	1.6364	5.e-002	1.8877e-006
13509	8.3077	1.3636	0.	-48.86
13510	8.2154	1.4545	0.	-54.814
13511	8.3077	1.4545	5.e-002	1.8572e-006
13512	8.3077	1.1818	0.	-42.596
13513	8.2154	1.2727	0.	-48.507
13514	8.3077	1.2727	5.e-002	2.7967e-006
13515	8.3077	1.	0.	-35.865
13516	8.2154	1.0909	0.	-41.684
13517	8.3077	1.0909	5.e-002	2.623e-006
13518	8.3077	0.81818	0.	-28.719
13519	8.2154	0.90909	0.	-34.399
13520	8.3077	0.90909	5.e-002	2.2478e-006
13521	8.3077	0.63636	0.	-21.213
13522	8.2154	0.72727	0.	-26.709
13523	8.3077	0.72727	5.e-002	2.8796e-006
13524	8.3077	0.45455	0.	-13.374
13525	8.2154	0.54545	0.	-18.669
13526	8.3077	0.54545	5.e-002	3.5337e-006
13527	8.3077	0.27273	0.	-4.9381
13528	8.2154	0.36364	0.	-10.287
13529	8.3077	0.36364	5.e-002	3.4356e-006
13530	8.2154	0.18182	0.	-1.2242
13531	8.3077	0.18182	5.e-002	1.9003e-005
13532	8.3077	9.0909e-002	0.	-0.15701
13533	8.1231	5.7273	0.	-6.4117
13534	8.0308	5.8182	0.	-2.2675
13535	8.1231	5.8182	5.e-002	-2.706e-005
13536	8.1231	5.9091	0.	-0.37478
13537	8.1231	5.5455	0.	-15.595
13538	8.0308	5.6364	0.	-12.194
13539	8.1231	5.6364	5.e-002	-9.7352e-007
13540	8.1231	5.3636	0.	-24.177
13541	8.0308	5.4545	0.	-21.359
13542	8.1231	5.4545	5.e-002	-5.9041e-007
13543	8.1231	5.1818	0.	-32.399
13544	8.0308	5.2727	0.	-30.157
13545	8.1231	5.2727	5.e-002	-1.3371e-006
13546	8.1231	5.	0.	-40.228
13547	8.0308	5.0909	0.	-38.576
13548	8.1231	5.0909	5.e-002	-8.3897e-007
13549	8.1231	4.8182	0.	-47.604
13550	8.0308	4.9091	0.	-46.552
13551	8.1231	4.9091	5.e-002	-1.6309e-006
13552	8.1231	4.6364	0.	-54.469
13553	8.0308	4.7273	0.	-54.024
13554	8.1231	4.7273	5.e-002	-1.3833e-006
13555	8.1231	4.4545	0.	-60.77
13556	8.0308	4.5455	0.	-60.932
13557	8.1231	4.5455	5.e-002	-1.1374e-006
13558	8.1231	4.2727	0.	-66.457
13559	8.0308	4.3636	0.	-67.223
13560	8.1231	4.3636	5.e-002	-1.0458e-006
13561	8.1231	4.0909	0.	-71.484
13562	8.0308	4.1818	0.	-72.846
13563	8.1231	4.1818	5.e-002	-1.8573e-006
13564	8.1231	3.9091	0.	-75.811
13565	8.0308	4.	0.	-77.755
13566	8.1231	4.	5.e-002	-9.7147e-007
13567	8.1231	3.7273	0.	-79.401
13568	8.0308	3.8182	0.	-81.91
13569	8.1231	3.8182	5.e-002	-7.1359e-007
13570	8.1231	3.5455	0.	-82.224
13571	8.0308	3.6364	0.	-85.277
13572	8.1231	3.6364	5.e-002	3.8427e-007
13573	8.1231	3.3636	0.	-84.258
13574	8.0308	3.4545	0.	-87.827
13575	8.1231	3.4545	5.e-002	-3.7784e-007
13576	8.1231	3.1818	0.	-85.486
13577	8.0308	3.2727	0.	-89.539
13578	8.1231	3.2727	5.e-002	-2.4033e-007
13579	8.1231	3.	0.	-85.896
13580	8.0308	3.0909	0.	-90.399
13581	8.1231	3.0909	5.e-002	1.8265e-006
13582	8.1231	2.8182	0.	-85.486
13583	8.0308	2.9091	0.	-90.399
13584	8.1231	2.9091	5.e-002	1.0326e-006
13585	8.1231	2.6364	0.	-84.258
13586	8.0308	2.7273	0.	-89.539
13587	8.1231	2.7273	5.e-002	1.1937e-006
13588	8.1231	2.4545	0.	-82.224
13589	8.0308	2.5455	0.	-87.827
13590	8.1231	2.5455	5.e-002	2.2707e-006
13591	8.1231	2.2727	0.	-79.401
13592	8.0308	2.3636	0.	-85.277
13593	8.1231	2.3636	5.e-002	5.4996e-007
13594	8.1231	2.0909	0.	-75.811
13595	8.0308	2.1818	0.	-81.91
13596	8.1231	2.1818	5.e-002	2.6395e-006
13597	8.1231	1.9091	0.	-71.484
13598	8.0308	2.	0.	-77.755
13599	8.1231	2.	5.e-002	9.7919e-007
13600	8.1231	1.7273	0.	-66.457
13601	8.0308	1.8182	0.	-72.846
13602	8.1231	1.8182	5.e-002	1.7828e-006
13603	8.1231	1.5455	0.	-60.77
13604	8.0308	1.6364	0.	-67.223
13605	8.1231	1.6364	5.e-002	1.343e-006
13606	8.1231	1.3636	0.	-54.469
13607	8.0308	1.4545	0.	-60.932
13608	8.1231	1.4545	5.e-002	2.8711e-006
13609	8.1231	1.1818	0.	-47.604
13610	8.0308	1.2727	0.	-54.024
13611	8.1231	1.2727	5.e-002	1.301e-006
13612	8.1231	1.	0.	-40.228
13613	8.0308	1.0909	0.	-46.552
13614	8.1231	1.0909	5.e-002	3.7064e-006
13615	8.1231	0.81818	0.	-32.399
13616	8.0308	0.90909	0.	-38.576
13617	8.1231	0.90909	5.e-002	2.254e-006
13618	8.1231	0.63636	0.	-24.177
13619	8.0308	0.72727	0.	-30.157
13620	8.1231	0.72727	5.e-002	3.6929e-006
13621	8.1231	0.45455	0.	-15.595
13622	8.0308	0.54545	0.	-21.359
13623	8.1231	0.54545	5.e-002	3.1995e-006
13624	8.1231	0.27273	0.	-6.4117
13625	8.0308	0.36364	0.	-12.194
13626	8.1231	0.36364	5.e-002	3.2001e-006
13627	8.0308	0.18182	0.	-2.2675
13628	8.1231	0.18182	5.e-002	1.9546e-005
13629	8.1231	9.0909e-002	0.	-0.37477
13630	7.9385	5.7273	0.	-7.9811
13631	7.8462	5.8182	0.	-3.4383
13632	7.9385	5.8182	5.e-002	-1.831e-005
13633	7.9385	5.9091	0.	-0.84398
13634	7.9385	5.5455	0.	-17.969
13635	7.8462	5.6364	0.	-14.229
13636	7.9385	5.6364	5.e-002	-1.9042e-006
13637	7.9385	5.3636	0.	-27.35
13638	7.8462	5.4545	0.	-24.238
13639	7.9385	5.4545	5.e-002	-1.4269e-006
13640	7.9385	5.1818	0.	-36.344
13641	7.8462	5.2727	0.	-33.853
13642	7.9385	5.2727	5.e-002	-1.4791e-006
13643	7.9385	5.	0.	-44.909
13644	7.8462	5.0909	0.	-43.058
13645	7.9385	5.0909	5.e-002	-7.1935e-007
13646	7.9385	4.8182	0.	-52.98
13647	7.8462	4.9091	0.	-51.779
13648	7.9385	4.9091	5.e-002	-2.084e-006
13649	7.9385	4.6364	0.	-60.494
13650	7.8462	4.7273	0.	-59.951
13651	7.9385	4.7273	5.e-002	-1.3778e-006
13652	7.9385	4.4545	0.	-67.392
13653	7.8462	4.5455	0.	-67.509
13654	7.9385	4.5455	5.e-002	-1.4838e-006
13655	7.9385	4.2727	0.	-73.618
13656	7.8462	4.3636	0.	-74.393
13657	7.9385	4.3636	5.e-002	-2.4551e-006
13658	7.9385	4.0909	0.	-79.123
13659	7.8462	4.1818	0.	-80.546
13660	7.9385	4.1818	5.e-002	-1.078e-006
13661	7.9385	3.9091	0.	-83.86
13662	7.8462	4.	0.	-85.919
13663	7.9385	4.	5.e-002	-1.0927e-006
13664	7.9385	3.7273	0.	-87.792
13665	7.8462	3.8182	0.	-90.467
13666	7.9385	3.8182	5.e-002	-7.0319e-007
13667	7.9385	3.5455	0.	-90.884
13668	7.8462	3.6364	0.	-94.152
13669	7.9385	3.6364	5.e-002	1.8809e-007
13670	7.9385	3.3636	0.	-93.112
13671	7.8462	3.4545	0.	-96.944
13672	7.9385	3.4545	5.e-002	-4.4067e-007
13673	7.9385	3.1818	0.	-94.457
13674	7.8462	3.2727	0.	-98.818
13675	7.9385	3.2727	5.e-002	-2.5816e-007
13676	7.9385	3.	0.	-94.906
13677	7.8462	3.0909	0.	-99.76
13678	7.9385	3.0909	5.e-002	-8.6708e-008
13679	7.9385	2.8182	0.	-94.457
13680	7.8462	2.9091	0.	-99.76
13681	7.9385	2.9091	5.e-002	1.9929e-006
13682	7.9385	2.6364	0.	-93.112
13683	7.8462	2.7273	0.	-98.818
13684	7.9385	2.7273	5.e-002	2.5385e-007
13685	7.9385	2.4545	0.	-90.884
13686	7.8462	2.5455	0.	-96.944
13687	7.9385	2.5455	5.e-002	4.3355e-007
13688	7.9385	2.2727	0.	-87.792
13689	7.8462	2.3636	0.	-94.152
13690	7.9385	2.3636	5.e-002	1.6108e-006
13691	7.9385	2.0909	0.	-83.86
13692	7.8462	2.1818	0.	-90.467
13693	7.9385	2.1818	5.e-002	1.6542e-006
13694	7.9385	1.9091	0.	-79.123
13695	7.8462	2.	0.	-85.919
13696	7.9385	2.	5.e-002	2.6252e-006
13697	7.9385	1.7273	0.	-73.618
13698	7.8462	1.8182	0.	-80.546
13699	7.9385	1.8182	5.e-002	1.9306e-006
13700	7.9385	1.5455	0.	-67.392
13701	7.8462	1.6364	0.	-74.393
13702	7.9385	1.6364	5.e-002	2.5343e-006
13703	7.9385	1.3636	0.	-60.494
13704	7.8462	1.4545	0.	-67.509
13705	7.9385	1.4545	5.e-002	1.2239e-006
13706	7.9385	1.1818	0.	-52.98
13707	7.8462	1.2727	0.	-59.951
13708	7.9385	1.2727	5.e-002	1.0701e-006
13709	7.9385	1.	0.	-44.909
13710	7.8462	1.0909	0.	-51.779
13711	7.9385	1.0909	5.e-002	1.9968e-006
13712	7.9385	0.81818	0.	-36.344
13713	7.8462	0.90909	0.	-43.058
13714	7.9385	0.90909	5.e-002	3.0725e-006
13715	7.9385	0.63636	0.	-27.35
13716	7.8462	0.72727	0.	-33.853
13717	7.9385	0.72727	5.e-002	9.2318e-007
13718	7.9385	0.45455	0.	-17.969
13719	7.8462	0.54545	0.	-24.238
13720	7.9385	0.54545	5.e-002	3.3057e-006
13721	7.9385	0.27273	0.	-7.9811
13722	7.8462	0.36364	0.	-14.229
13723	7.9385	0.36364	5.e-002	3.5877e-006
13724	7.8462	0.18182	0.	-3.4383
13725	7.9385	0.18182	5.e-002	1.9894e-005
13726	7.9385	9.0909e-002	0.	-0.84398
13727	7.7538	5.7273	0.	-9.652
13728	7.6615	5.8182	0.	-4.6999
13729	7.7538	5.8182	5.e-002	-2.8253e-005
13730	7.7538	5.9091	0.	-1.4845
13731	7.7538	5.5455	0.	-20.508
13732	7.6615	5.6364	0.	-16.401
13733	7.7538	5.6364	5.e-002	-2.3598e-006
13734	7.7538	5.3636	0.	-30.75
13735	7.6615	5.4545	0.	-27.319
13736	7.7538	5.4545	5.e-002	-1.8474e-006
13737	7.7538	5.1818	0.	-40.575
13738	7.6615	5.2727	0.	-37.817
13739	7.7538	5.2727	5.e-002	-1.3735e-006
13740	7.7538	5.	0.	-49.935
13741	7.6615	5.0909	0.	-47.868
13742	7.7538	5.0909	5.e-002	-2.6074e-006
13743	7.7538	4.8182	0.	-58.757
13744	7.6615	4.9091	0.	-57.396
13745	7.7538	4.9091	5.e-002	-1.7385e-006
13746	7.7538	4.6364	0.	-66.973
13747	7.6615	4.7273	0.	-66.326
13748	7.7538	4.7273	5.e-002	-3.0849e-006
13749	7.7538	4.4545	0.	-74.516
13750	7.6615	4.5455	0.	-74.586
13751	7.7538	4.5455	5.e-002	-2.0786e-006
13752	7.7538	4.2727	0.	-81.325
13753	7.6615	4.3636	0.	-82.11
13754	7.7538	4.3636	5.e-002	-9.5142e-007
13755	7.7538	4.0909	0.	-87.347
13756	7.6615	4.1818	0.	-88.838
13757	7.7538	4.1818	5.e-002	-2.7374e-006
13758	7.7538	3.9091	0.	-92.53
13759	7.6615	4.	0.	-94.714
13760	7.7538	4.	5.e-002	-1.2986e-006
13761	7.7538	3.7273	0.	-96.832
13762	7.6615	3.8182	0.	-99.688
13763	7.7538	3.8182	5.e-002	-7.8664e-007
13764	7.7538	3.5455	0.	-100.22
13765	7.6615	3.6364	0.	-103.72
13766	7.7538	3.6364	5.e-002	-6.4555e-007
13767	7.7538	3.3636	0.	-102.65
13768	7.6615	3.4545	0.	-106.77
13769	7.7538	3.4545	5.e-002	4.7658e-007
13770	7.7538	3.1818	0.	-104.13
13771	7.6615	3.2727	0.	-108.82
13772	7.7538	3.2727	5.e-002	-2.7716e-007
13773	7.7538	3.	0.	-104.62
13774	7.6615	3.0909	0.	-109.85
13775	7.7538	3.0909	5.e-002	-9.1887e-008
13776	7.7538	2.8182	0.	-104.13
13777	7.6615	2.9091	0.	-109.85
13778	7.7538	2.9091	5.e-002	1.0459e-006
13779	7.7538	2.6364	0.	-102.65
13780	7.6615	2.7273	0.	-108.82
13781	7.7538	2.7273	5.e-002	1.2211e-006
13782	7.7538	2.4545	0.	-100.22
13783	7.6615	2.5455	0.	-106.77
13784	7.7538	2.5455	5.e-002	1.4118e-006
13785	7.7538	2.2727	0.	-96.832
13786	7.6615	2.3636	0.	-103.72
13787	7.7538	2.3636	5.e-002	6.4555e-007
13788	7.7538	2.0909	0.	-92.53
13789	7.6615	2.1818	0.	-99.688
13790	7.7538	2.1818	5.e-002	2.7699e-006
13791	7.7538	1.9091	0.	-87.347
13792	7.6615	2.	0.	-94.714
13793	7.7538	2.	5.e-002	1.2986e-006
13794	7.7538	1.7273	0.	-81.325
13795	7.6615	1.8182	0.	-88.838
13796	7.7538	1.8182	5.e-002	9.1896e-007
13797	7.7538	1.5455	0.	-74.516
13798	7.6615	1.6364	0.	-82.11
13799	7.7538	1.6364	5.e-002	1.9837e-006
13800	7.7538	1.3636	0.	-66.973
13801	7.6615	1.4545	0.	-74.586
13802	7.7538	1.4545	5.e-002	2.0786e-006
13803	7.7538	1.1818	0.	-58.757
13804	7.6615	1.2727	0.	-66.326
13805	7.7538	1.2727	5.e-002	2.1428e-006
13806	7.7538	1.	0.	-49.935
13807	7.6615	1.0909	0.	-57.396
13808	7.7538	1.0909	5.e-002	3.1492e-006
13809	7.7538	0.81818	0.	-40.575
13810	7.6615	0.90909	0.	-47.868
13811	7.7538	0.90909	5.e-002	3.31e-006
13812	7.7538	0.63636	0.	-30.75
13813	7.6615	0.72727	0.	-37.817
13814	7.7538	0.72727	5.e-002	2.0634e-006
13815	7.7538	0.45455	0.	-20.508
13816	7.6615	0.54545	0.	-27.319
13817	7.7538	0.54545	5.e-002	3.7428e-006
13818	7.7538	0.27273	0.	-9.652
13819	7.6615	0.36364	0.	-16.401
13820	7.7538	0.36364	5.e-002	2.3844e-006
13821	7.6615	0.18182	0.	-4.6999
13822	7.7538	0.18182	5.e-002	2.0786e-005
13823	7.7538	9.0909e-002	0.	-1.4845
13824	7.5692	5.7273	0.	-11.43
13825	7.4769	5.8182	0.	-6.0443
13826	7.5692	5.8182	5.e-002	-1.8869e-005
13827	7.5692	5.9091	0.	-2.2102
13828	7.5692	5.5455	0.	-23.222
13829	7.4769	5.6364	0.	-18.719
13830	7.5692	5.6364	5.e-002	-1.6719e-006
13831	7.5692	5.3636	0.	-34.394
13832	7.4769	5.4545	0.	-30.619
13833	7.5692	5.4545	5.e-002	-2.0492e-006
13834	7.5692	5.1818	0.	-45.117
13835	7.4769	5.2727	0.	-42.069
13836	7.5692	5.2727	5.e-002	-1.5438e-006
13837	7.5692	5.	0.	-55.336
13838	7.4769	5.0909	0.	-53.036
13839	7.5692	5.0909	5.e-002	-3.2913e-006
13840	7.5692	4.8182	0.	-64.97
13841	7.4769	4.9091	0.	-63.435
13842	7.5692	4.9091	5.e-002	-2.481e-006
13843	7.5692	4.6364	0.	-73.944
13844	7.4769	4.7273	0.	-73.184
13845	7.5692	4.7273	5.e-002	-2.33e-006
13846	7.5692	4.4545	0.	-82.185
13847	7.4769	4.5455	0.	-82.205
13848	7.5692	4.5455	5.e-002	-1.4104e-006
13849	7.5692	4.2727	0.	-89.627
13850	7.4769	4.3636	0.	-90.424
13851	7.5692	4.3636	5.e-002	-2.5819e-006
13852	7.5692	4.0909	0.	-96.209
13853	7.4769	4.1818	0.	-97.775
13854	7.5692	4.1818	5.e-002	-1.7068e-006
13855	7.5692	3.9091	0.	-101.88
13856	7.4769	4.	0.	-104.2
13857	7.5692	4.	5.e-002	-1.3861e-006
13858	7.5692	3.7273	0.	-106.58
13859	7.4769	3.8182	0.	-109.63
13860	7.5692	3.8182	5.e-002	-1.047e-006
13861	7.5692	3.5455	0.	-110.28
13862	7.4769	3.6364	0.	-114.04
13863	7.5692	3.6364	5.e-002	-8.0753e-007
13864	7.5692	3.3636	0.	-112.95
13865	7.4769	3.4545	0.	-117.38
13866	7.5692	3.4545	5.e-002	1.3528e-006
13867	7.5692	3.1818	0.	-114.56
13868	7.4769	3.2727	0.	-119.62
13869	7.5692	3.2727	5.e-002	-2.9181e-007
13870	7.5692	3.	0.	-115.09
13871	7.4769	3.0909	0.	-120.75
13872	7.5692	3.0909	5.e-002	-9.8858e-008
13873	7.5692	2.8182	0.	-114.56
13874	7.4769	2.9091	0.	-120.75
13875	7.5692	2.9091	5.e-002	9.843e-008
13876	7.5692	2.6364	0.	-112.95
13877	7.4769	2.7273	0.	-119.62
13878	7.5692	2.7273	5.e-002	2.9181e-007
13879	7.5692	2.4545	0.	-110.28
13880	7.4769	2.5455	0.	-117.38
13881	7.5692	2.5455	5.e-002	5.6064e-007
13882	7.5692	2.2727	0.	-106.58
13883	7.4769	2.3636	0.	-114.04
13884	7.5692	2.3636	5.e-002	1.7589e-006
13885	7.5692	2.0909	0.	-101.88
13886	7.4769	2.1818	0.	-109.63
13887	7.5692	2.1818	5.e-002	2.0268e-006
13888	7.5692	1.9091	0.	-96.209
13889	7.4769	2.	0.	-104.2
13890	7.5692	2.	5.e-002	2.1959e-006
13891	7.5692	1.7273	0.	-89.627
13892	7.4769	1.8182	0.	-97.775
13893	7.5692	1.8182	5.e-002	1.4716e-006
13894	7.5692	1.5455	0.	-82.185
13895	7.4769	1.6364	0.	-90.424
13896	7.5692	1.6364	5.e-002	1.7319e-006
13897	7.5692	1.3636	0.	-73.944
13898	7.4769	1.4545	0.	-82.205
13899	7.5692	1.4545	5.e-002	1.5146e-006
13900	7.5692	1.1818	0.	-64.97
13901	7.4769	1.2727	0.	-73.184
13902	7.5692	1.2727	5.e-002	4.9398e-006
13903	7.5692	1.	0.	-55.336
13904	7.4769	1.0909	0.	-63.435
13905	7.5692	1.0909	5.e-002	3.3848e-006
13906	7.5692	0.81818	0.	-45.117
13907	7.4769	0.90909	0.	-53.036
13908	7.5692	0.90909	5.e-002	3.6617e-006
13909	7.5692	0.63636	0.	-34.394
13910	7.4769	0.72727	0.	-42.069
13911	7.5692	0.72727	5.e-002	2.5204e-006
13912	7.5692	0.45455	0.	-23.222
13913	7.4769	0.54545	0.	-30.619
13914	7.5692	0.54545	5.e-002	4.0808e-006
13915	7.5692	0.27273	0.	-11.43
13916	7.4769	0.36364	0.	-18.719
13917	7.5692	0.36364	5.e-002	3.2989e-006
13918	7.4769	0.18182	0.	-6.0443
13919	7.5692	0.18182	5.e-002	2.6702e-005
13920	7.5692	9.0909e-002	0.	-2.2102
13921	7.3846	5.7273	0.	-13.322
13922	7.2923	5.8182	0.	-7.4702
13923	7.3846	5.8182	5.e-002	-3.9901e-005
13924	7.3846	5.9091	0.	-2.9944
13925	7.3846	5.5455	0.	-26.125
13926	7.2923	5.6364	0.	-21.194
13927	7.3846	5.6364	5.e-002	1.3884e-007
13928	7.3846	5.3636	0.	-38.301
13929	7.2923	5.4545	0.	-34.154
13930	7.3846	5.4545	5.e-002	-4.6282e-006
13931	7.3846	5.1818	0.	-49.994
13932	7.2923	5.2727	0.	-46.632
13933	7.3846	5.2727	5.e-002	5.174e-007
13934	7.3846	5.	0.	-61.141
13935	7.2923	5.0909	0.	-58.59
13936	7.3846	5.0909	5.e-002	-2.4574e-006
13937	7.3846	4.8182	0.	-71.654
13938	7.2923	4.9091	0.	-69.931
13939	7.3846	4.9091	5.e-002	-2.3788e-006
13940	7.3846	4.6364	0.	-81.449
13941	7.2923	4.7273	0.	-80.568
13942	7.3846	4.7273	5.e-002	-2.2649e-006
13943	7.3846	4.4545	0.	-90.447
13944	7.2923	4.5455	0.	-90.412
13945	7.3846	4.5455	5.e-002	-2.1179e-006
13946	7.3846	4.2727	0.	-98.575
13947	7.2923	4.3636	0.	-99.385
13948	7.3846	4.3636	5.e-002	-2.6523e-006
13949	7.3846	4.0909	0.	-105.76
13950	7.2923	4.1818	0.	-107.41
13951	7.3846	4.1818	5.e-002	-2.2021e-006
13952	7.3846	3.9091	0.	-111.96
13953	7.2923	4.	0.	-114.42
13954	7.3846	4.	5.e-002	-9.3814e-007
13955	7.3846	3.7273	0.	-117.1
13956	7.2923	3.8182	0.	-120.36
13957	7.3846	3.8182	5.e-002	-1.4139e-006
13958	7.3846	3.5455	0.	-121.14
13959	7.2923	3.6364	0.	-125.18
13960	7.3846	3.6364	5.e-002	-8.543e-007
13961	7.3846	3.3636	0.	-124.05
13962	7.2923	3.4545	0.	-128.83
13963	7.3846	3.4545	5.e-002	-4.9815e-007
13964	7.3846	3.1818	0.	-125.81
13965	7.2923	3.2727	0.	-131.28
13966	7.3846	3.2727	5.e-002	-3.1192e-007
13967	7.3846	3.	0.	-126.4
13968	7.2923	3.0909	0.	-132.51
13969	7.3846	3.0909	5.e-002	8.4885e-007
13970	7.3846	2.8182	0.	-125.81
13971	7.2923	2.9091	0.	-132.51
13972	7.3846	2.9091	5.e-002	1.0617e-007
13973	7.3846	2.6364	0.	-124.05
13974	7.2923	2.7273	0.	-131.28
13975	7.3846	2.7273	5.e-002	2.2182e-006
13976	7.3846	2.4545	0.	-121.14
13977	7.2923	2.5455	0.	-128.83
13978	7.3846	2.5455	5.e-002	1.4781e-006
13979	7.3846	2.2727	0.	-117.1
13980	7.2923	2.3636	0.	-125.18
13981	7.3846	2.3636	5.e-002	1.6418e-006
13982	7.3846	2.0909	0.	-111.96
13983	7.2923	2.1818	0.	-120.36
13984	7.3846	2.1818	5.e-002	3.3124e-006
13985	7.3846	1.9091	0.	-105.76
13986	7.2923	2.	0.	-114.42
13987	7.3846	2.	5.e-002	9.7723e-007
13988	7.3846	1.7273	0.	-98.575
13989	7.2923	1.8182	0.	-107.41
13990	7.3846	1.8182	5.e-002	2.2021e-006
13991	7.3846	1.5455	0.	-90.447
13992	7.2923	1.6364	0.	-99.385
13993	7.3846	1.6364	5.e-002	1.2286e-006
13994	7.3846	1.3636	0.	-81.449
13995	7.2923	1.4545	0.	-90.412
13996	7.3846	1.4545	5.e-002	1.1321e-006
13997	7.3846	1.1818	0.	-71.654
13998	7.2923	1.2727	0.	-80.568
13999	7.3846	1.2727	5.e-002	4.0168e-006
14000	7.3846	1.	0.	-61.141
14001	7.2923	1.0909	0.	-69.931
14002	7.3846	1.0909	5.e-002	2.59e-006
14003	7.3846	0.81818	0.	-49.994
14004	7.2923	0.90909	0.	-58.59
14005	7.3846	0.90909	5.e-002	2.3648e-006
14006	7.3846	0.63636	0.	-38.301
14007	7.2923	0.72727	0.	-46.632
14008	7.3846	0.72727	5.e-002	2.102e-006
14009	7.3846	0.45455	0.	-26.125
14010	7.2923	0.54545	0.	-34.154
14011	7.3846	0.54545	5.e-002	3.8978e-006
14012	7.3846	0.27273	0.	-13.322
14013	7.2923	0.36364	0.	-21.194
14014	7.3846	0.36364	5.e-002	1.4805e-006
14015	7.2923	0.18182	0.	-7.4702
14016	7.3846	0.18182	5.e-002	3.1423e-005
14017	7.3846	9.0909e-002	0.	-2.9944
14018	7.2	5.7273	0.	-15.334
14019	7.1077	5.8182	0.	-8.9785
14020	7.2	5.8182	5.e-002	-1.9433e-005
14021	7.2	5.9091	0.	-3.8293
14022	7.2	5.5455	0.	-29.23
14023	7.1077	5.6364	0.	-23.835
14024	7.2	5.6364	5.e-002	-4.6223e-006
14025	7.2	5.3636	0.	-42.491
14026	7.1077	5.4545	0.	-37.94
14027	7.2	5.4545	5.e-002	-4.4377e-006
14028	7.2	5.1818	0.	-55.233
14029	7.1077	5.2727	0.	-51.53
14030	7.2	5.2727	5.e-002	-3.9677e-006
14031	7.2	5.	0.	-67.384
14032	7.1077	5.0909	0.	-64.559
14033	7.2	5.0909	5.e-002	-3.9068e-006
14034	7.2	4.8182	0.	-78.848
14035	7.1077	4.9091	0.	-76.922
14036	7.2	4.9091	5.e-002	-2.549e-006
14037	7.2	4.6364	0.	-89.533
14038	7.1077	4.7273	0.	-88.519
14039	7.2	4.7273	5.e-002	-3.7733e-006
14040	7.2	4.4545	0.	-99.352
14041	7.1077	4.5455	0.	-99.258
14042	7.2	4.5455	5.e-002	-3.0402e-006
14043	7.2	4.2727	0.	-108.22
14044	7.1077	4.3636	0.	-109.05
14045	7.2	4.3636	5.e-002	-1.2218e-006
14046	7.2	4.0909	0.	-116.07
14047	7.1077	4.1818	0.	-117.81
14048	7.2	4.1818	5.e-002	-2.4455e-006
14049	7.2	3.9091	0.	-122.83
14050	7.1077	4.	0.	-125.46
14051	7.2	4.	5.e-002	-2.5223e-006
14052	7.2	3.7273	0.	-128.45
14053	7.1077	3.8182	0.	-131.95
14054	7.2	3.8182	5.e-002	-1.1824e-006
14055	7.2	3.5455	0.	-132.87
14056	7.1077	3.6364	0.	-137.21
14057	7.2	3.6364	5.e-002	-9.3047e-007
14058	7.2	3.3636	0.	-136.05
14059	7.1077	3.4545	0.	-141.19
14060	7.2	3.4545	5.e-002	-6.491e-007
14061	7.2	3.1818	0.	-137.97
14062	7.1077	3.2727	0.	-143.87
14063	7.2	3.2727	5.e-002	-3.3281e-007
14064	7.2	3.	0.	-138.62
14065	7.1077	3.0909	0.	-145.21
14066	7.2	3.0909	5.e-002	-1.1307e-007
14067	7.2	2.8182	0.	-137.97
14068	7.1077	2.9091	0.	-145.21
14069	7.2	2.9091	5.e-002	1.1307e-007
14070	7.2	2.6364	0.	-136.05
14071	7.1077	2.7273	0.	-143.87
14072	7.2	2.7273	5.e-002	3.3886e-007
14073	7.2	2.4545	0.	-132.87
14074	7.1077	2.5455	0.	-141.19
14075	7.2	2.5455	5.e-002	6.5912e-007
14076	7.2	2.2727	0.	-128.45
14077	7.1077	2.3636	0.	-137.21
14078	7.2	2.3636	5.e-002	2.6372e-006
14079	7.2	2.0909	0.	-122.83
14080	7.1077	2.1818	0.	-131.95
14081	7.2	2.1818	5.e-002	1.2882e-006
14082	7.2	1.9091	0.	-116.07
14083	7.1077	2.	0.	-125.46
14084	7.2	2.	5.e-002	3.5108e-006
14085	7.2	1.7273	0.	-108.22
14086	7.1077	1.8182	0.	-117.81
14087	7.2	1.8182	5.e-002	2.7812e-006
14088	7.2	1.5455	0.	-99.352
14089	7.1077	1.6364	0.	-109.05
14090	7.2	1.6364	5.e-002	2.0513e-006
14091	7.2	1.3636	0.	-89.533
14092	7.1077	1.4545	0.	-99.258
14093	7.2	1.4545	5.e-002	4.2233e-006
14094	7.2	1.1818	0.	-78.848
14095	7.1077	1.2727	0.	-88.519
14096	7.2	1.2727	5.e-002	3.6219e-006
14097	7.2	1.	0.	-67.384
14098	7.1077	1.0909	0.	-76.922
14099	7.2	1.0909	5.e-002	3.3377e-006
14100	7.2	0.81818	0.	-55.233
14101	7.1077	0.90909	0.	-64.559
14102	7.2	0.90909	5.e-002	4.0436e-006
14103	7.2	0.63636	0.	-42.491
14104	7.1077	0.72727	0.	-51.53
14105	7.2	0.72727	5.e-002	4.7227e-006
14106	7.2	0.45455	0.	-29.23
14107	7.1077	0.54545	0.	-37.94
14108	7.2	0.54545	5.e-002	6.286e-006
14109	7.2	0.27273	0.	-15.334
14110	7.1077	0.36364	0.	-23.835
14111	7.2	0.36364	5.e-002	5.3026e-006
14112	7.1077	0.18182	0.	-8.9785
14113	7.2	0.18182	5.e-002	2.295e-005
14114	7.2	9.0909e-002	0.	-3.8293
14115	7.0154	5.7273	0.	-17.472
14116	6.9231	5.8182	0.	-10.57
14117	7.0154	5.8182	5.e-002	-1.983e-005
14118	7.0154	5.9091	0.	-4.7123
14119	7.0154	5.5455	0.	-32.55
14120	6.9231	5.6364	0.	-26.652
14121	7.0154	5.6364	5.e-002	-2.5622e-006
14122	7.0154	5.3636	0.	-46.984
14123	6.9231	5.4545	0.	-41.994
14124	7.0154	5.4545	5.e-002	-7.2687e-006
14125	7.0154	5.1818	0.	-60.86
14126	6.9231	5.2727	0.	-56.789
14127	7.0154	5.2727	5.e-002	2.3545e-007
14128	7.0154	5.	0.	-74.099
14129	6.9231	5.0909	0.	-70.977
14130	7.0154	5.0909	5.e-002	-3.1664e-006
14131	7.0154	4.8182	0.	-86.595
14132	6.9231	4.9091	0.	-84.446
14133	7.0154	4.9091	5.e-002	-3.7658e-006
14134	7.0154	4.6364	0.	-98.245
14135	6.9231	4.7273	0.	-97.086
14136	7.0154	4.7273	5.e-002	-2.8769e-006
14137	7.0154	4.4545	0.	-108.95
14138	6.9231	4.5455	0.	-108.79
14139	7.0154	4.5455	5.e-002	-2.4055e-006
14140	7.0154	4.2727	0.	-118.63
14141	6.9231	4.3636	0.	-119.47
14142	7.0154	4.3636	5.e-002	-3.2367e-006
14143	7.0154	4.0909	0.	-127.2
14144	6.9231	4.1818	0.	-129.03
14145	7.0154	4.1818	5.e-002	-2.1143e-006
14146	7.0154	3.9091	0.	-134.58
14147	6.9231	4.	0.	-137.39
14148	7.0154	4.	5.e-002	-1.6766e-006
14149	7.0154	3.7273	0.	-140.71
14150	6.9231	3.8182	0.	-144.47
14151	7.0154	3.8182	5.e-002	-1.3702e-006
14152	7.0154	3.5455	0.	-145.54
14153	6.9231	3.6364	0.	-150.21
14154	7.0154	3.6364	5.e-002	1.1011e-006
14155	7.0154	3.3636	0.	-149.01
14156	6.9231	3.4545	0.	-154.56
14157	7.0154	3.4545	5.e-002	-5.8693e-007
14158	7.0154	3.1818	0.	-151.11
14159	6.9231	3.2727	0.	-157.48
14160	7.0154	3.2727	5.e-002	-3.5777e-007
14161	7.0154	3.	0.	-151.81
14162	6.9231	3.0909	0.	-158.95
14163	7.0154	3.0909	5.e-002	-1.2185e-007
14164	7.0154	2.8182	0.	-151.11
14165	6.9231	2.9091	0.	-158.95
14166	7.0154	2.9091	5.e-002	1.2157e-007
14167	7.0154	2.6364	0.	-149.01
14168	6.9231	2.7273	0.	-157.48
14169	7.0154	2.7273	5.e-002	3.6106e-007
14170	7.0154	2.4545	0.	-145.54
14171	6.9231	2.5455	0.	-154.56
14172	7.0154	2.5455	5.e-002	5.978e-007
14173	7.0154	2.2727	0.	-140.71
14174	6.9231	2.3636	0.	-150.21
14175	7.0154	2.3636	5.e-002	7.9856e-007
14176	7.0154	2.0909	0.	-134.58
14177	6.9231	2.1818	0.	-144.47
14178	7.0154	2.1818	5.e-002	1.3893e-006
14179	7.0154	1.9091	0.	-127.2
14180	6.9231	2.	0.	-137.39
14181	7.0154	2.	5.e-002	1.7226e-006
14182	7.0154	1.7273	0.	-118.63
14183	6.9231	1.8182	0.	-129.03
14184	7.0154	1.8182	5.e-002	2.2209e-006
14185	7.0154	1.5455	0.	-108.95
14186	6.9231	1.6364	0.	-119.47
14187	7.0154	1.6364	5.e-002	3.357e-006
14188	7.0154	1.3636	0.	-98.245
14189	6.9231	1.4545	0.	-108.79
14190	7.0154	1.4545	5.e-002	3.4732e-006
14191	7.0154	1.1818	0.	-86.595
14192	6.9231	1.2727	0.	-97.086
14193	7.0154	1.2727	5.e-002	2.3753e-006
14194	7.0154	1.	0.	-74.099
14195	6.9231	1.0909	0.	-84.446
14196	7.0154	1.0909	5.e-002	5.4668e-006
14197	7.0154	0.81818	0.	-60.86
14198	6.9231	0.90909	0.	-70.977
14199	7.0154	0.90909	5.e-002	4.3896e-006
14200	7.0154	0.63636	0.	-46.984
14201	6.9231	0.72727	0.	-56.789
14202	7.0154	0.72727	5.e-002	1.608e-006
14203	7.0154	0.45455	0.	-32.55
14204	6.9231	0.54545	0.	-41.994
14205	7.0154	0.54545	5.e-002	5.6116e-006
14206	7.0154	0.27273	0.	-17.472
14207	6.9231	0.36364	0.	-26.652
14208	7.0154	0.36364	5.e-002	3.9343e-006
14209	6.9231	0.18182	0.	-10.57
14210	7.0154	0.18182	5.e-002	2.0774e-005
14211	7.0154	9.0909e-002	0.	-4.7123
14212	6.8308	5.7273	0.	-19.742
14213	6.7385	5.8182	0.	-12.247
14214	6.8308	5.8182	5.e-002	-2.3043e-005
14215	6.8308	5.9091	0.	-5.6423
14216	6.8308	5.5455	0.	-36.1
14217	6.7385	5.6364	0.	-29.656
14218	6.8308	5.6364	5.e-002	-2.5809e-006
14219	6.8308	5.3636	0.	-51.802
14220	6.7385	5.4545	0.	-46.336
14221	6.8308	5.4545	5.e-002	-1.0175e-005
14222	6.8308	5.1818	0.	-66.907
14223	6.7385	5.2727	0.	-62.433
14224	6.8308	5.2727	5.e-002	-1.9439e-006
14225	6.8308	5.	0.	-81.324
14226	6.7385	5.0909	0.	-77.877
14227	6.8308	5.0909	5.e-002	-3.0569e-006
14228	6.8308	4.8182	0.	-94.937
14229	6.7385	4.9091	0.	-92.545
14230	6.8308	4.9091	5.e-002	-3.269e-006
14231	6.8308	4.6364	0.	-107.63
14232	6.7385	4.7273	0.	-106.32
14233	6.8308	4.7273	5.e-002	-4.9162e-006
14234	6.8308	4.4545	0.	-119.31
14235	6.7385	4.5455	0.	-119.08
14236	6.8308	4.5455	5.e-002	-3.3385e-006
14237	6.8308	4.2727	0.	-129.87
14238	6.7385	4.3636	0.	-130.72
14239	6.8308	4.3636	5.e-002	-3.7438e-006
14240	6.8308	4.0909	0.	-139.22
14241	6.7385	4.1818	0.	-141.15
14242	6.8308	4.1818	5.e-002	-1.2684e-006
14243	6.8308	3.9091	0.	-147.27
14244	6.7385	4.	0.	-150.26
14245	6.8308	4.	5.e-002	-2.5385e-006
14246	6.8308	3.7273	0.	-153.96
14247	6.7385	3.8182	0.	-157.99
14248	6.8308	3.8182	5.e-002	-1.5193e-006
14249	6.8308	3.5455	0.	-159.23
14250	6.7385	3.6364	0.	-164.26
14251	6.8308	3.6364	5.e-002	7.5444e-007
14252	6.8308	3.3636	0.	-163.03
14253	6.7385	3.4545	0.	-169.01
14254	6.8308	3.4545	5.e-002	-6.3583e-007
14255	6.8308	3.1818	0.	-165.32
14256	6.7385	3.2727	0.	-172.2
14257	6.8308	3.2727	5.e-002	-3.8766e-007
14258	6.8308	3.	0.	-166.09
14259	6.7385	3.0909	0.	-173.8
14260	6.8308	3.0909	5.e-002	-1.3115e-007
14261	6.8308	2.8182	0.	-165.32
14262	6.7385	2.9091	0.	-173.8
14263	6.8308	2.9091	5.e-002	1.3144e-007
14264	6.8308	2.6364	0.	-163.03
14265	6.7385	2.7273	0.	-172.2
14266	6.8308	2.7273	5.e-002	3.8765e-007
14267	6.8308	2.4545	0.	-159.23
14268	6.7385	2.5455	0.	-169.01
14269	6.8308	2.5455	5.e-002	2.5385e-006
14270	6.8308	2.2727	0.	-153.96
14271	6.7385	2.3636	0.	-164.26
14272	6.8308	2.3636	5.e-002	1.1603e-006
14273	6.8308	2.0909	0.	-147.27
14274	6.7385	2.1818	0.	-157.99
14275	6.8308	2.1818	5.e-002	1.5193e-006
14276	6.8308	1.9091	0.	-139.22
14277	6.7385	2.	0.	-150.26
14278	6.8308	2.	5.e-002	1.9161e-006
14279	6.8308	1.7273	0.	-129.87
14280	6.7385	1.8182	0.	-141.15
14281	6.8308	1.8182	5.e-002	3.2628e-006
14282	6.8308	1.5455	0.	-119.31
14283	6.7385	1.6364	0.	-130.72
14284	6.8308	1.6364	5.e-002	2.4571e-006
14285	6.8308	1.3636	0.	-107.63
14286	6.7385	1.4545	0.	-119.08
14287	6.8308	1.4545	5.e-002	3.7846e-006
14288	6.8308	1.1818	0.	-94.937
14289	6.7385	1.2727	0.	-106.32
14290	6.8308	1.2727	5.e-002	5.6877e-006
14291	6.8308	1.	0.	-81.324
14292	6.7385	1.0909	0.	-92.545
14293	6.8308	1.0909	5.e-002	3.436e-006
14294	6.8308	0.81818	0.	-66.907
14295	6.7385	0.90909	0.	-77.877
14296	6.8308	0.90909	5.e-002	4.3301e-006
14297	6.8308	0.63636	0.	-51.802
14298	6.7385	0.72727	0.	-62.433
14299	6.8308	0.72727	5.e-002	3.1332e-006
14300	6.8308	0.45455	0.	-36.1
14301	6.7385	0.54545	0.	-46.336
14302	6.8308	0.54545	5.e-002	1.2457e-005
14303	6.8308	0.27273	0.	-19.742
14304	6.7385	0.36364	0.	-29.656
14305	6.8308	0.36364	5.e-002	3.3584e-006
14306	6.7385	0.18182	0.	-12.247
14307	6.8308	0.18182	5.e-002	2.0892e-005
14308	6.8308	9.0909e-002	0.	-5.6423
14309	6.6462	5.7273	0.	-22.149
14310	6.5538	5.8182	0.	-14.009
14311	6.6462	5.8182	5.e-002	-1.0263e-005
14312	6.6462	5.9091	0.	-6.6188
14313	6.6462	5.5455	0.	-39.893
14314	6.5538	5.6364	0.	-32.855
14315	6.6462	5.6364	5.e-002	-6.2727e-006
14316	6.6462	5.3636	0.	-56.968
14317	6.5538	5.4545	0.	-50.984
14318	6.6462	5.4545	5.e-002	-2.951e-006
14319	6.6462	5.1818	0.	-73.403
14320	6.5538	5.2727	0.	-68.49
14321	6.6462	5.2727	5.e-002	-9.57e-006
14322	6.6462	5.	0.	-89.097
14323	6.5538	5.0909	0.	-85.296
14324	6.6462	5.0909	5.e-002	-3.8681e-006
14325	6.6462	4.8182	0.	-103.92
14326	6.5538	4.9091	0.	-101.26
14327	6.6462	4.9091	5.e-002	-3.6957e-006
14328	6.6462	4.6364	0.	-117.76
14329	6.5538	4.7273	0.	-116.26
14330	6.6462	4.7273	5.e-002	-1.5972e-006
14331	6.6462	4.4545	0.	-130.49
14332	6.5538	4.5455	0.	-130.17
14333	6.6462	4.5455	5.e-002	-6.2131e-007
14334	6.6462	4.2727	0.	-142.
14335	6.5538	4.3636	0.	-142.86
14336	6.6462	4.3636	5.e-002	-2.7555e-006
14337	6.6462	4.0909	0.	-152.19
14338	6.5538	4.1818	0.	-154.23
14339	6.6462	4.1818	5.e-002	-3.2441e-006
14340	6.6462	3.9091	0.	-160.98
14341	6.5538	4.	0.	-164.18
14342	6.6462	4.	5.e-002	-2.0769e-006
14343	6.6462	3.7273	0.	-168.28
14344	6.5538	3.8182	0.	-172.61
14345	6.6462	3.8182	5.e-002	-2.193e-006
14346	6.6462	3.5455	0.	-174.04
14347	6.5538	3.6364	0.	-179.45
14348	6.6462	3.6364	5.e-002	-1.2453e-006
14349	6.6462	3.3636	0.	-178.18
14350	6.5538	3.4545	0.	-184.64
14351	6.6462	3.4545	5.e-002	-8.5e-007
14352	6.6462	3.1818	0.	-180.68
14353	6.5538	3.2727	0.	-188.12
14354	6.6462	3.2727	5.e-002	-4.1377e-007
14355	6.6462	3.	0.	-181.52
14356	6.5538	3.0909	0.	-189.87
14357	6.6462	3.0909	5.e-002	-1.405e-007
14358	6.6462	2.8182	0.	-180.68
14359	6.5538	2.9091	0.	-189.87
14360	6.6462	2.9091	5.e-002	2.0476e-006
14361	6.6462	2.6364	0.	-178.18
14362	6.5538	2.7273	0.	-188.12
14363	6.6462	2.7273	5.e-002	4.1473e-007
14364	6.6462	2.4545	0.	-174.04
14365	6.5538	2.5455	0.	-184.64
14366	6.6462	2.5455	5.e-002	8.5637e-007
14367	6.6462	2.2727	0.	-168.28
14368	6.5538	2.3636	0.	-179.45
14369	6.6462	2.3636	5.e-002	2.8235e-006
14370	6.6462	2.0909	0.	-160.98
14371	6.5538	2.1818	0.	-172.61
14372	6.6462	2.1818	5.e-002	3.5632e-006
14373	6.6462	1.9091	0.	-152.19
14374	6.5538	2.	0.	-164.18
14375	6.6462	2.	5.e-002	3.9597e-006
14376	6.6462	1.7273	0.	-142.
14377	6.5538	1.8182	0.	-154.23
14378	6.6462	1.8182	5.e-002	1.4321e-006
14379	6.6462	1.5455	0.	-130.49
14380	6.5538	1.6364	0.	-142.86
14381	6.6462	1.6364	5.e-002	2.7555e-006
14382	6.6462	1.3636	0.	-117.76
14383	6.5538	1.4545	0.	-130.17
14384	6.6462	1.4545	5.e-002	1.5491e-006
14385	6.6462	1.1818	0.	-103.92
14386	6.5538	1.2727	0.	-116.26
14387	6.6462	1.2727	5.e-002	3.2752e-006
14388	6.6462	1.	0.	-89.097
14389	6.5538	1.0909	0.	-101.26
14390	6.6462	1.0909	5.e-002	3.5157e-006
14391	6.6462	0.81818	0.	-73.403
14392	6.5538	0.90909	0.	-85.296
14393	6.6462	0.90909	5.e-002	3.8681e-006
14394	6.6462	0.63636	0.	-56.968
14395	6.5538	0.72727	0.	-68.49
14396	6.6462	0.72727	5.e-002	1.0025e-005
14397	6.6462	0.45455	0.	-39.893
14398	6.5538	0.54545	0.	-50.984
14399	6.6462	0.54545	5.e-002	5.2169e-006
14400	6.6462	0.27273	0.	-22.149
14401	6.5538	0.36364	0.	-32.855
14402	6.6462	0.36364	5.e-002	5.1562e-006
14403	6.5538	0.18182	0.	-14.009
14404	6.6462	0.18182	5.e-002	1.2266e-005
14405	6.6462	9.0909e-002	0.	-6.6188
14406	6.4615	5.7273	0.	-24.7
14407	6.3692	5.8182	0.	-15.857
14408	6.4615	5.8182	5.e-002	-2.019e-005
14409	6.4615	5.9091	0.	-7.6408
14410	6.4615	5.5455	0.	-43.945
14411	6.3692	5.6364	0.	-36.261
14412	6.4615	5.6364	5.e-002	-3.6892e-006
14413	6.4615	5.3636	0.	-62.505
14414	6.3692	5.4545	0.	-55.957
14415	6.4615	5.4545	5.e-002	-6.1313e-006
14416	6.4615	5.1818	0.	-80.381
14417	6.3692	5.2727	0.	-74.989
14418	6.4615	5.2727	5.e-002	-3.4127e-006
14419	6.4615	5.	0.	-97.46
14420	6.3692	5.0909	0.	-93.271
14421	6.4615	5.0909	5.e-002	-1.0281e-005
14422	6.4615	4.8182	0.	-113.6
14423	6.3692	4.9091	0.	-110.65
14424	6.4615	4.9091	5.e-002	-4.0766e-006
14425	6.4615	4.6364	0.	-128.67
14426	6.3692	4.7273	0.	-126.98
14427	6.4615	4.7273	5.e-002	-6.2823e-006
14428	6.4615	4.4545	0.	-142.54
14429	6.3692	4.5455	0.	-142.13
14430	6.4615	4.5455	5.e-002	-1.5848e-006
14431	6.4615	4.2727	0.	-155.09
14432	6.3692	4.3636	0.	-155.97
14433	6.4615	4.3636	5.e-002	-6.3541e-006
14434	6.4615	4.0909	0.	-166.21
14435	6.3692	4.1818	0.	-168.37
14436	6.4615	4.1818	5.e-002	-2.7295e-006
14437	6.4615	3.9091	0.	-175.8
14438	6.3692	4.	0.	-179.21
14439	6.4615	4.	5.e-002	-1.3782e-006
14440	6.4615	3.7273	0.	-183.77
14441	6.3692	3.8182	0.	-188.41
14442	6.4615	3.8182	5.e-002	-1.1962e-006
14443	6.4615	3.5455	0.	-190.05
14444	6.3692	3.6364	0.	-195.88
14445	6.4615	3.6364	5.e-002	-1.3654e-006
14446	6.4615	3.3636	0.	-194.57
14447	6.3692	3.4545	0.	-201.54
14448	6.4615	3.4545	5.e-002	-9.2972e-007
14449	6.4615	3.1818	0.	-197.31
14450	6.3692	3.2727	0.	-205.35
14451	6.4615	3.2727	5.e-002	-4.4498e-007
14452	6.4615	3.	0.	-198.22
14453	6.3692	3.0909	0.	-207.26
14454	6.4615	3.0909	5.e-002	-1.51e-007
14455	6.4615	2.8182	0.	-197.31
14456	6.3692	2.9091	0.	-207.26
14457	6.4615	2.9091	5.e-002	1.5089e-007
14458	6.4615	2.6364	0.	-194.57
14459	6.3692	2.7273	0.	-205.35
14460	6.4615	2.7273	5.e-002	4.4732e-007
14461	6.4615	2.4545	0.	-190.05
14462	6.3692	2.5455	0.	-201.54
14463	6.4615	2.5455	5.e-002	7.3235e-007
14464	6.4615	2.2727	0.	-183.77
14465	6.3692	2.3636	0.	-195.88
14466	6.4615	2.3636	5.e-002	1.3868e-006
14467	6.4615	2.0909	0.	-175.8
14468	6.3692	2.1818	0.	-188.41
14469	6.4615	2.1818	5.e-002	1.2204e-006
14470	6.4615	1.9091	0.	-166.21
14471	6.3692	2.	0.	-179.21
14472	6.4615	2.	5.e-002	1.4072e-006
14473	6.4615	1.7273	0.	-155.09
14474	6.3692	1.8182	0.	-168.37
14475	6.4615	1.8182	5.e-002	1.5277e-006
14476	6.4615	1.5455	0.	-142.54
14477	6.3692	1.6364	0.	-155.97
14478	6.4615	1.6364	5.e-002	6.3919e-006
14479	6.4615	1.3636	0.	-128.67
14480	6.3692	1.4545	0.	-142.13
14481	6.4615	1.4545	5.e-002	1.6682e-006
14482	6.4615	1.1818	0.	-113.6
14483	6.3692	1.2727	0.	-126.98
14484	6.4615	1.2727	5.e-002	6.1014e-006
14485	6.4615	1.	0.	-97.46
14486	6.3692	1.0909	0.	-110.65
14487	6.4615	1.0909	5.e-002	5.086e-006
14488	6.4615	0.81818	0.	-80.381
14489	6.3692	0.90909	0.	-93.271
14490	6.4615	0.90909	5.e-002	1.0281e-005
14491	6.4615	0.63636	0.	-62.505
14492	6.3692	0.72727	0.	-74.989
14493	6.4615	0.72727	5.e-002	4.1017e-006
14494	6.4615	0.45455	0.	-43.945
14495	6.3692	0.54545	0.	-55.957
14496	6.4615	0.54545	5.e-002	9.0497e-006
14497	6.4615	0.27273	0.	-24.7
14498	6.3692	0.36364	0.	-36.261
14499	6.4615	0.36364	5.e-002	4.5821e-006
14500	6.3692	0.18182	0.	-15.857
14501	6.4615	0.18182	5.e-002	2.2787e-005
14502	6.4615	9.0909e-002	0.	-7.6408
14503	6.2769	5.7273	0.	-27.398
14504	6.1846	5.8182	0.	-17.789
14505	6.2769	5.8182	5.e-002	-2.1365e-005
14506	6.2769	5.9091	0.	-8.7072
14507	6.2769	5.5455	0.	-48.27
14508	6.1846	5.6364	0.	-39.884
14509	6.2769	5.6364	5.e-002	-4.7848e-006
14510	6.2769	5.3636	0.	-68.438
14511	6.1846	5.4545	0.	-61.275
14512	6.2769	5.4545	5.e-002	-8.6593e-006
14513	6.2769	5.1818	0.	-87.875
14514	6.1846	5.2727	0.	-81.961
14515	6.2769	5.2727	5.e-002	-1.2431e-005
14516	6.2769	5.	0.	-106.46
14517	6.1846	5.0909	0.	-101.84
14518	6.2769	5.0909	5.e-002	-1.5354e-006
14519	6.2769	4.8182	0.	-124.03
14520	6.1846	4.9091	0.	-120.75
14521	6.2769	4.9091	5.e-002	-7.7536e-006
14522	6.2769	4.6364	0.	-140.44
14523	6.1846	4.7273	0.	-138.54
14524	6.2769	4.7273	5.e-002	-1.7004e-006
14525	6.2769	4.4545	0.	-155.55
14526	6.1846	4.5455	0.	-155.04
14527	6.2769	4.5455	5.e-002	-3.9668e-006
14528	6.2769	4.2727	0.	-169.24
14529	6.1846	4.3636	0.	-170.12
14530	6.2769	4.3636	5.e-002	-3.5211e-006
14531	6.2769	4.0909	0.	-181.36
14532	6.1846	4.1818	0.	-183.63
14533	6.2769	4.1818	5.e-002	-4.4705e-006
14534	6.2769	3.9091	0.	-191.82
14535	6.1846	4.	0.	-195.47
14536	6.2769	4.	5.e-002	-1.458e-006
14537	6.2769	3.7273	0.	-200.52
14538	6.1846	3.8182	0.	-205.5
14539	6.2769	3.8182	5.e-002	-3.1548e-006
14540	6.2769	3.5455	0.	-207.37
14541	6.1846	3.6364	0.	-213.65
14542	6.2769	3.6364	5.e-002	-1.0468e-006
14543	6.2769	3.3636	0.	-212.31
14544	6.1846	3.4545	0.	-219.84
14545	6.2769	3.4545	5.e-002	-7.7672e-007
14546	6.2769	3.1818	0.	-215.3
14547	6.1846	3.2727	0.	-223.99
14548	6.2769	3.2727	5.e-002	-6.5006e-007
14549	6.2769	3.	0.	-216.3
14550	6.1846	3.0909	0.	-226.08
14551	6.2769	3.0909	5.e-002	-1.7164e-007
14552	6.2769	2.8182	0.	-215.3
14553	6.1846	2.9091	0.	-226.08
14554	6.2769	2.9091	5.e-002	1.6193e-007
14555	6.2769	2.6364	0.	-212.31
14556	6.1846	2.7273	0.	-223.99
14557	6.2769	2.7273	5.e-002	6.5455e-007
14558	6.2769	2.4545	0.	-207.37
14559	6.1846	2.5455	0.	-219.84
14560	6.2769	2.5455	5.e-002	7.8787e-007
14561	6.2769	2.2727	0.	-200.52
14562	6.1846	2.3636	0.	-213.65
14563	6.2769	2.3636	5.e-002	1.0648e-006
14564	6.2769	2.0909	0.	-191.82
14565	6.1846	2.1818	0.	-205.5
14566	6.2769	2.1818	5.e-002	1.3031e-006
14567	6.2769	1.9091	0.	-181.36
14568	6.1846	2.	0.	-195.47
14569	6.2769	2.	5.e-002	1.5049e-006
14570	6.2769	1.7273	0.	-169.24
14571	6.1846	1.8182	0.	-183.63
14572	6.2769	1.8182	5.e-002	6.3962e-006
14573	6.2769	1.5455	0.	-155.55
14574	6.1846	1.6364	0.	-170.12
14575	6.2769	1.6364	5.e-002	3.5821e-006
14576	6.2769	1.3636	0.	-140.44
14577	6.1846	1.4545	0.	-155.04
14578	6.2769	1.4545	5.e-002	3.6307e-006
14579	6.2769	1.1818	0.	-124.03
14580	6.1846	1.2727	0.	-138.54
14581	6.2769	1.2727	5.e-002	1.749e-006
14582	6.2769	1.	0.	-106.46
14583	6.1846	1.0909	0.	-120.75
14584	6.2769	1.0909	5.e-002	8.7635e-006
14585	6.2769	0.81818	0.	-87.875
14586	6.1846	0.90909	0.	-101.84
14587	6.2769	0.90909	5.e-002	1.5354e-006
14588	6.2769	0.63636	0.	-68.438
14589	6.1846	0.72727	0.	-81.961
14590	6.2769	0.72727	5.e-002	1.3785e-005
14591	6.2769	0.45455	0.	-48.27
14592	6.1846	0.54545	0.	-61.275
14593	6.2769	0.54545	5.e-002	9.7874e-006
14594	6.2769	0.27273	0.	-27.398
14595	6.1846	0.36364	0.	-39.884
14596	6.2769	0.36364	5.e-002	6.1103e-006
14597	6.1846	0.18182	0.	-17.789
14598	6.2769	0.18182	5.e-002	2.1322e-005
14599	6.2769	9.0909e-002	0.	-8.7072
14600	6.0923	5.7273	0.	-30.248
14601	6.	5.8182	0.	-19.803
14602	6.0923	5.8182	5.e-002	-2.0186e-005
14603	6.0923	5.9091	0.	-9.816
14604	6.0923	5.5455	0.	-52.882
14605	6.	5.6364	0.	-43.732
14606	6.0923	5.6364	5.e-002	-1.0632e-005
14607	6.0923	5.3636	0.	-74.792
14608	6.	5.4545	0.	-66.958
14609	6.0923	5.4545	5.e-002	-4.4015e-006
14610	6.0923	5.1818	0.	-95.921
14611	6.	5.2727	0.	-89.435
14612	6.0923	5.2727	5.e-002	-1.004e-005
14613	6.0923	5.	0.	-116.13
14614	6.	5.0909	0.	-111.05
14615	6.0923	5.0909	5.e-002	-9.492e-006
14616	6.0923	4.8182	0.	-135.26
14617	6.	4.9091	0.	-131.63
14618	6.0923	4.9091	5.e-002	-4.3494e-006
14619	6.0923	4.6364	0.	-153.13
14620	6.	4.7273	0.	-150.99
14621	6.0923	4.7273	5.e-002	-4.8906e-006
14622	6.0923	4.4545	0.	-169.6
14623	6.	4.5455	0.	-168.96
14624	6.0923	4.5455	5.e-002	-9.6127e-006
14625	6.0923	4.2727	0.	-184.51
14626	6.	4.3636	0.	-185.39
14627	6.0923	4.3636	5.e-002	-1.7703e-006
14628	6.0923	4.0909	0.	-197.73
14629	6.	4.1818	0.	-200.13
14630	6.0923	4.1818	5.e-002	-3.3602e-006
14631	6.0923	3.9091	0.	-209.15
14632	6.	4.	0.	-213.04
14633	6.0923	4.	5.e-002	-4.0313e-006
14634	6.0923	3.7273	0.	-218.64
14635	6.	3.8182	0.	-223.99
14636	6.0923	3.8182	5.e-002	-1.3475e-006
14637	6.0923	3.5455	0.	-226.12
14638	6.	3.6364	0.	-232.88
14639	6.0923	3.6364	5.e-002	7.928e-007
14640	6.0923	3.3636	0.	-231.51
14641	6.	3.4545	0.	-239.63
14642	6.0923	3.4545	5.e-002	-8.1764e-007
14643	6.0923	3.1818	0.	-234.77
14644	6.	3.2727	0.	-244.17
14645	6.0923	3.2727	5.e-002	-6.0534e-007
14646	6.0923	3.	0.	-235.86
14647	6.	3.0909	0.	-246.45
14648	6.0923	3.0909	5.e-002	-1.724e-007
14649	6.0923	2.8182	0.	-234.77
14650	6.	2.9091	0.	-246.45
14651	6.0923	2.9091	5.e-002	1.722e-007
14652	6.0923	2.6364	0.	-231.51
14653	6.	2.7273	0.	-244.17
14654	6.0923	2.7273	5.e-002	5.0907e-007
14655	6.0923	2.4545	0.	-226.12
14656	6.	2.5455	0.	-239.63
14657	6.0923	2.5455	5.e-002	8.4169e-007
14658	6.0923	2.2727	0.	-218.64
14659	6.	2.3636	0.	-232.88
14660	6.0923	2.3636	5.e-002	3.0108e-006
14661	6.0923	2.0909	0.	-209.15
14662	6.	2.1818	0.	-223.99
14663	6.0923	2.1818	5.e-002	1.4037e-006
14664	6.0923	1.9091	0.	-197.73
14665	6.	2.	0.	-213.04
14666	6.0923	2.	5.e-002	4.0818e-006
14667	6.0923	1.7273	0.	-184.51
14668	6.	1.8182	0.	-200.13
14669	6.0923	1.8182	5.e-002	3.4185e-006
14670	6.0923	1.5455	0.	-169.6
14671	6.	1.6364	0.	-185.39
14672	6.0923	1.6364	5.e-002	1.9014e-006
14673	6.0923	1.3636	0.	-153.13
14674	6.	1.4545	0.	-168.96
14675	6.0923	1.4545	5.e-002	7.0761e-006
14676	6.0923	1.1818	0.	-135.26
14677	6.	1.2727	0.	-150.99
14678	6.0923	1.2727	5.e-002	4.9297e-006
14679	6.0923	1.	0.	-116.13
14680	6.	1.0909	0.	-131.63
14681	6.0923	1.0909	5.e-002	5.248e-006
14682	6.0923	0.81818	0.	-95.921
14683	6.	0.90909	0.	-111.05
14684	6.0923	0.90909	5.e-002	9.492e-006
14685	6.0923	0.63636	0.	-74.792
14686	6.	0.72727	0.	-89.435
14687	6.0923	0.72727	5.e-002	1.1048e-005
14688	6.0923	0.45455	0.	-52.882
14689	6.	0.54545	0.	-66.958
14690	6.0923	0.54545	5.e-002	7.042e-006
14691	6.0923	0.27273	0.	-30.248
14692	6.	0.36364	0.	-43.732
14693	6.0923	0.36364	5.e-002	1.1334e-005
14694	6.	0.18182	0.	-19.803
14695	6.0923	0.18182	5.e-002	2.1374e-005
14696	6.0923	9.0909e-002	0.	-9.816
14697	5.9077	5.7273	0.	-33.254
14698	5.8154	5.8182	0.	-21.896
14699	5.9077	5.8182	5.e-002	-4.1315e-005
14700	5.9077	5.9091	0.	-10.964
14701	5.9077	5.5455	0.	-57.798
14702	5.8154	5.6364	0.	-47.815
14703	5.9077	5.6364	5.e-002	-1.6724e-005
14704	5.9077	5.3636	0.	-81.593
14705	5.8154	5.4545	0.	-73.027
14706	5.9077	5.4545	5.e-002	-1.2043e-005
14707	5.9077	5.1818	0.	-104.56
14708	5.8154	5.2727	0.	-97.445
14709	5.9077	5.2727	5.e-002	-1.6451e-005
14710	5.9077	5.	0.	-126.54
14711	5.8154	5.0909	0.	-120.95
14712	5.9077	5.0909	5.e-002	-1.6763e-006
14713	5.9077	4.8182	0.	-147.35
14714	5.8154	4.9091	0.	-143.33
14715	5.9077	4.9091	5.e-002	-5.9232e-006
14716	5.9077	4.6364	0.	-166.81
14717	5.8154	4.7273	0.	-164.4
14718	5.9077	4.7273	5.e-002	-5.4655e-006
14719	5.9077	4.4545	0.	-184.75
14720	5.8154	4.5455	0.	-183.98
14721	5.9077	4.5455	5.e-002	-4.9608e-006
14722	5.9077	4.2727	0.	-201.01
14723	5.8154	4.3636	0.	-201.89
14724	5.9077	4.3636	5.e-002	-6.8415e-006
14725	5.9077	4.0909	0.	-215.43
14726	5.8154	4.1818	0.	-217.96
14727	5.9077	4.1818	5.e-002	-5.617e-006
14728	5.9077	3.9091	0.	-227.88
14729	5.8154	4.	0.	-232.03
14730	5.9077	4.	5.e-002	-3.1397e-006
14731	5.9077	3.7273	0.	-238.24
14732	5.8154	3.8182	0.	-243.99
14733	5.9077	3.8182	5.e-002	-2.4456e-006
14734	5.9077	3.5455	0.	-246.4
14735	5.8154	3.6364	0.	-253.69
14736	5.9077	3.6364	5.e-002	-1.8127e-006
14737	5.9077	3.3636	0.	-252.29
14738	5.8154	3.4545	0.	-261.06
14739	5.9077	3.4545	5.e-002	-8.8955e-007
14740	5.9077	3.1818	0.	-255.85
14741	5.8154	3.2727	0.	-266.02
14742	5.9077	3.2727	5.e-002	-7.7848e-007
14743	5.9077	3.	0.	-257.04
14744	5.8154	3.0909	0.	-268.51
14745	5.9077	3.0909	5.e-002	3.6285e-006
14746	5.9077	2.8182	0.	-255.85
14747	5.8154	2.9091	0.	-268.51
14748	5.9077	2.9091	5.e-002	2.0915e-006
14749	5.9077	2.6364	0.	-252.29
14750	5.8154	2.7273	0.	-266.02
14751	5.9077	2.7273	5.e-002	5.4869e-007
14752	5.9077	2.4545	0.	-246.4
14753	5.8154	2.5455	0.	-261.06
14754	5.9077	2.5455	5.e-002	2.7955e-006
14755	5.9077	2.2727	0.	-238.24
14756	5.8154	2.3636	0.	-253.69
14757	5.9077	2.3636	5.e-002	1.1941e-006
14758	5.9077	2.0909	0.	-227.88
14759	5.8154	2.1818	0.	-243.99
14760	5.9077	2.1818	5.e-002	3.3562e-006
14761	5.9077	1.9091	0.	-215.43
14762	5.8154	2.	0.	-232.03
14763	5.9077	2.	5.e-002	1.7365e-006
14764	5.9077	1.7273	0.	-201.01
14765	5.8154	1.8182	0.	-217.96
14766	5.9077	1.8182	5.e-002	1.9206e-006
14767	5.9077	1.5455	0.	-184.75
14768	5.8154	1.6364	0.	-201.89
14769	5.9077	1.6364	5.e-002	6.9353e-006
14770	5.9077	1.3636	0.	-166.81
14771	5.8154	1.4545	0.	-183.98
14772	5.9077	1.4545	5.e-002	5.0639e-006
14773	5.9077	1.1818	0.	-147.35
14774	5.8154	1.2727	0.	-164.4
14775	5.9077	1.2727	5.e-002	5.5491e-006
14776	5.9077	1.	0.	-126.54
14777	5.8154	1.0909	0.	-143.33
14778	5.9077	1.0909	5.e-002	1.9023e-006
14779	5.9077	0.81818	0.	-104.56
14780	5.8154	0.90909	0.	-120.95
14781	5.9077	0.90909	5.e-002	1.7233e-006
14782	5.9077	0.63636	0.	-81.593
14783	5.8154	0.72727	0.	-97.445
14784	5.9077	0.72727	5.e-002	1.2388e-005
14785	5.9077	0.45455	0.	-57.798
14786	5.8154	0.54545	0.	-73.027
14787	5.9077	0.54545	5.e-002	1.1907e-005
14788	5.9077	0.27273	0.	-33.254
14789	5.8154	0.36364	0.	-47.815
14790	5.9077	0.36364	5.e-002	1.9169e-005
14791	5.8154	0.18182	0.	-21.896
14792	5.9077	0.18182	5.e-002	4.2564e-005
14793	5.9077	9.0909e-002	0.	-10.964
14794	5.7231	5.7273	0.	-36.416
14795	5.6308	5.8182	0.	-24.061
14796	5.7231	5.8182	5.e-002	-4.1658e-005
14797	5.7231	5.9091	0.	-12.148
14798	5.7231	5.5455	0.	-63.031
14799	5.6308	5.6364	0.	-52.14
14800	5.7231	5.6364	5.e-002	-2.0503e-005
14801	5.7231	5.3636	0.	-88.868
14802	5.6308	5.4545	0.	-79.502
14803	5.7231	5.4545	5.e-002	-5.7517e-006
14804	5.7231	5.1818	0.	-113.82
14805	5.6308	5.2727	0.	-106.02
14806	5.7231	5.2727	5.e-002	-1.3038e-005
14807	5.7231	5.	0.	-137.72
14808	5.6308	5.0909	0.	-131.57
14809	5.7231	5.0909	5.e-002	-1.6708e-005
14810	5.7231	4.8182	0.	-160.37
14811	5.6308	4.9091	0.	-155.92
14812	5.7231	4.9091	5.e-002	-6.6429e-006
14813	5.7231	4.6364	0.	-181.56
14814	5.6308	4.7273	0.	-178.85
14815	5.7231	4.7273	5.e-002	-6.1042e-006
14816	5.7231	4.4545	0.	-201.11
14817	5.6308	4.5455	0.	-200.18
14818	5.7231	4.5455	5.e-002	-5.6667e-006
14819	5.7231	4.2727	0.	-218.83
14820	5.6308	4.3636	0.	-219.69
14821	5.7231	4.3636	5.e-002	-4.9481e-006
14822	5.7231	4.0909	0.	-234.55
14823	5.6308	4.1818	0.	-237.22
14824	5.7231	4.1818	5.e-002	-6.3478e-006
14825	5.7231	3.9091	0.	-248.14
14826	5.6308	4.	0.	-252.57
14827	5.7231	4.	5.e-002	-6.7814e-006
14828	5.7231	3.7273	0.	-259.44
14829	5.6308	3.8182	0.	-265.62
14830	5.7231	3.8182	5.e-002	-2.7109e-006
14831	5.7231	3.5455	0.	-268.36
14832	5.6308	3.6364	0.	-276.21
14833	5.7231	3.6364	5.e-002	-2.0525e-006
14834	5.7231	3.3636	0.	-274.79
14835	5.6308	3.4545	0.	-284.26
14836	5.7231	3.4545	5.e-002	-1.3215e-006
14837	5.7231	3.1818	0.	-278.67
14838	5.6308	3.2727	0.	-289.67
14839	5.7231	3.2727	5.e-002	-5.9081e-007
14840	5.7231	3.	0.	-279.97
14841	5.6308	3.0909	0.	-292.39
14842	5.7231	3.0909	5.e-002	-2.0065e-007
14843	5.7231	2.8182	0.	-278.67
14844	5.6308	2.9091	0.	-292.39
14845	5.7231	2.9091	5.e-002	1.9876e-007
14846	5.7231	2.6364	0.	-274.79
14847	5.6308	2.7273	0.	-289.67
14848	5.7231	2.7273	5.e-002	5.8519e-007
14849	5.7231	2.4545	0.	-268.36
14850	5.6308	2.5455	0.	-284.26
14851	5.7231	2.5455	5.e-002	1.3401e-006
14852	5.7231	2.2727	0.	-259.44
14853	5.6308	2.3636	0.	-276.21
14854	5.7231	2.3636	5.e-002	1.31e-006
14855	5.7231	2.0909	0.	-248.14
14856	5.6308	2.1818	0.	-265.62
14857	5.7231	2.1818	5.e-002	2.7758e-006
14858	5.7231	1.9091	0.	-234.55
14859	5.6308	2.	0.	-252.57
14860	5.7231	2.	5.e-002	3.5291e-006
14861	5.7231	1.7273	0.	-218.83
14862	5.6308	1.8182	0.	-237.22
14863	5.7231	1.8182	5.e-002	8.1853e-006
14864	5.7231	1.5455	0.	-201.11
14865	5.6308	1.6364	0.	-219.69
14866	5.7231	1.6364	5.e-002	4.9481e-006
14867	5.7231	1.3636	0.	-181.56
14868	5.6308	1.4545	0.	-200.18
14869	5.7231	1.4545	5.e-002	5.6667e-006
14870	5.7231	1.1818	0.	-160.37
14871	5.6308	1.2727	0.	-178.85
14872	5.7231	1.2727	5.e-002	7.765e-006
14873	5.7231	1.	0.	-137.72
14874	5.6308	1.0909	0.	-155.92
14875	5.7231	1.0909	5.e-002	6.7064e-006
14876	5.7231	0.81818	0.	-113.82
14877	5.6308	0.90909	0.	-131.57
14878	5.7231	0.90909	5.e-002	1.3215e-005
14879	5.7231	0.63636	0.	-88.868
14880	5.6308	0.72727	0.	-106.02
14881	5.7231	0.72727	5.e-002	1.3125e-005
14882	5.7231	0.45455	0.	-63.031
14883	5.6308	0.54545	0.	-79.502
14884	5.7231	0.54545	5.e-002	8.3579e-006
14885	5.7231	0.27273	0.	-36.416
14886	5.6308	0.36364	0.	-52.14
14887	5.7231	0.36364	5.e-002	2.0928e-005
14888	5.6308	0.18182	0.	-24.061
14889	5.7231	0.18182	5.e-002	4.2091e-005
14890	5.7231	9.0909e-002	0.	-12.148
14891	5.5385	5.7273	0.	-39.735
14892	5.4462	5.8182	0.	-26.292
14893	5.5385	5.8182	5.e-002	-2.1148e-005
14894	5.5385	5.9091	0.	-13.362
14895	5.5385	5.5455	0.	-68.595
14896	5.4462	5.6364	0.	-56.715
14897	5.5385	5.6364	5.e-002	-2.3243e-005
14898	5.5385	5.3636	0.	-96.644
14899	5.4462	5.4545	0.	-86.405
14900	5.5385	5.4545	5.e-002	-2.2568e-005
14901	5.5385	5.1818	0.	-123.76
14902	5.4462	5.2727	0.	-115.21
14903	5.5385	5.2727	5.e-002	-2.1349e-005
14904	5.5385	5.	0.	-149.74
14905	5.4462	5.0909	0.	-142.97
14906	5.5385	5.0909	5.e-002	-7.9877e-006
14907	5.5385	4.8182	0.	-174.39
14908	5.4462	4.9091	0.	-169.45
14909	5.5385	4.9091	5.e-002	-7.5257e-006
14910	5.5385	4.6364	0.	-197.46
14911	5.4462	4.7273	0.	-194.42
14912	5.5385	4.7273	5.e-002	-2.0903e-005
14913	5.5385	4.4545	0.	-218.75
14914	5.4462	4.5455	0.	-217.65
14915	5.5385	4.5455	5.e-002	-2.237e-006
14916	5.5385	4.2727	0.	-238.07
14917	5.4462	4.3636	0.	-238.92
14918	5.5385	4.3636	5.e-002	-5.417e-006
14919	5.5385	4.0909	0.	-255.23
14920	5.4462	4.1818	0.	-258.02
14921	5.5385	4.1818	5.e-002	-4.6844e-006
14922	5.5385	3.9091	0.	-270.05
14923	5.4462	4.	0.	-274.78
14924	5.5385	4.	5.e-002	-3.8369e-006
14925	5.5385	3.7273	0.	-282.39
14926	5.4462	3.8182	0.	-289.02
14927	5.5385	3.8182	5.e-002	-4.2666e-006
14928	5.5385	3.5455	0.	-292.12
14929	5.4462	3.6364	0.	-300.59
14930	5.5385	3.6364	5.e-002	-2.1534e-006
14931	5.5385	3.3636	0.	-299.14
14932	5.4462	3.4545	0.	-309.37
14933	5.5385	3.4545	5.e-002	-1.0393e-006
14934	5.5385	3.1818	0.	-303.39
14935	5.4462	3.2727	0.	-315.28
14936	5.5385	3.2727	5.e-002	-6.2948e-007
14937	5.5385	3.	0.	-304.81
14938	5.4462	3.0909	0.	-318.25
14939	5.5385	3.0909	5.e-002	-2.1488e-007
14940	5.5385	2.8182	0.	-303.39
14941	5.4462	2.9091	0.	-318.25
14942	5.5385	2.9091	5.e-002	2.1488e-007
14943	5.5385	2.6364	0.	-299.14
14944	5.4462	2.7273	0.	-315.28
14945	5.5385	2.7273	5.e-002	6.2948e-007
14946	5.5385	2.4545	0.	-292.12
14947	5.4462	2.5455	0.	-309.37
14948	5.5385	2.5455	5.e-002	1.0393e-006
14949	5.5385	2.2727	0.	-282.39
14950	5.4462	2.3636	0.	-300.59
14951	5.5385	2.3636	5.e-002	2.2086e-006
14952	5.5385	2.0909	0.	-270.05
14953	5.4462	2.1818	0.	-289.02
14954	5.5385	2.1818	5.e-002	4.3363e-006
14955	5.5385	1.9091	0.	-255.23
14956	5.4462	2.	0.	-274.78
14957	5.5385	2.	5.e-002	3.8369e-006
14958	5.5385	1.7273	0.	-238.07
14959	5.4462	1.8182	0.	-258.02
14960	5.5385	1.8182	5.e-002	2.109e-006
14961	5.5385	1.5455	0.	-218.75
14962	5.4462	1.6364	0.	-238.92
14963	5.5385	1.6364	5.e-002	2.2547e-006
14964	5.5385	1.3636	0.	-197.46
14965	5.4462	1.4545	0.	-217.65
14966	5.5385	1.4545	5.e-002	2.3547e-006
14967	5.5385	1.1818	0.	-174.39
14968	5.4462	1.2727	0.	-194.42
14969	5.5385	1.2727	5.e-002	1.609e-005
14970	5.5385	1.	0.	-149.74
14971	5.4462	1.0909	0.	-169.45
14972	5.5385	1.0909	5.e-002	2.1603e-006
14973	5.5385	0.81818	0.	-123.76
14974	5.4462	0.90909	0.	-142.97
14975	5.5385	0.90909	5.e-002	7.7038e-006
14976	5.5385	0.63636	0.	-96.644
14977	5.4462	0.72727	0.	-115.21
14978	5.5385	0.72727	5.e-002	2.3125e-005
14979	5.5385	0.45455	0.	-68.595
14980	5.4462	0.54545	0.	-86.405
14981	5.5385	0.54545	5.e-002	1.5593e-005
14982	5.5385	0.27273	0.	-39.735
14983	5.4462	0.36364	0.	-56.715
14984	5.5385	0.36364	5.e-002	2.3719e-005
14985	5.4462	0.18182	0.	-26.292
14986	5.5385	0.18182	5.e-002	2.2227e-005
14987	5.5385	9.0909e-002	0.	-13.362
14988	5.3538	5.7273	0.	-43.211
14989	5.2615	5.8182	0.	-28.577
14990	5.3538	5.8182	5.e-002	-1.0173e-005
14991	5.3538	5.9091	0.	-14.6
14992	5.3538	5.5455	0.	-74.504
14993	5.2615	5.6364	0.	-61.545
14994	5.3538	5.6364	5.e-002	-8.3184e-006
14995	5.3538	5.3636	0.	-104.95
14996	5.2615	5.4545	0.	-93.755
14997	5.3538	5.4545	5.e-002	-1.6616e-005
14998	5.3538	5.1818	0.	-134.4
14999	5.2615	5.2727	0.	-125.03
15000	5.3538	5.2727	5.e-002	-1.688e-005
15001	5.3538	5.	0.	-162.66
15002	5.2615	5.0909	0.	-155.2
15003	5.3538	5.0909	5.e-002	-1.5817e-005
15004	5.3538	4.8182	0.	-189.47
15005	5.2615	4.9091	0.	-184.01
15006	5.3538	4.9091	5.e-002	-1.8993e-005
15007	5.3538	4.6364	0.	-214.59
15008	5.2615	4.7273	0.	-211.19
15009	5.3538	4.7273	5.e-002	-8.0696e-006
15010	5.3538	4.4545	0.	-237.8
15011	5.2615	4.5455	0.	-236.49
15012	5.3538	4.5455	5.e-002	-1.1392e-005
15013	5.3538	4.2727	0.	-258.86
15014	5.2615	4.3636	0.	-259.67
15015	5.3538	4.3636	5.e-002	-6.048e-006
15016	5.3538	4.0909	0.	-277.57
15017	5.2615	4.1818	0.	-280.51
15018	5.3538	4.1818	5.e-002	-5.0119e-006
15019	5.3538	3.9091	0.	-293.74
15020	5.2615	4.	0.	-298.79
15021	5.3538	4.	5.e-002	-4.3525e-006
15022	5.3538	3.7273	0.	-307.21
15023	5.2615	3.8182	0.	-314.33
15024	5.3538	3.8182	5.e-002	-4.8637e-006
15025	5.3538	3.5455	0.	-317.84
15026	5.2615	3.6364	0.	-326.96
15027	5.3538	3.6364	5.e-002	-3.334e-006
15028	5.3538	3.3636	0.	-325.51
15029	5.2615	3.4545	0.	-336.56
15030	5.3538	3.4545	5.e-002	-1.0732e-006
15031	5.3538	3.1818	0.	-330.15
15032	5.2615	3.2727	0.	-343.01
15033	5.3538	3.2727	5.e-002	-6.7642e-007
15034	5.3538	3.	0.	-331.7
15035	5.2615	3.0909	0.	-346.26
15036	5.3538	3.0909	5.e-002	-2.3533e-007
15037	5.3538	2.8182	0.	-330.15
15038	5.2615	2.9091	0.	-346.26
15039	5.3538	2.9091	5.e-002	2.3533e-007
15040	5.3538	2.6364	0.	-325.51
15041	5.2615	2.7273	0.	-343.01
15042	5.3538	2.7273	5.e-002	7.0244e-007
15043	5.3538	2.4545	0.	-317.84
15044	5.2615	2.5455	0.	-336.56
15045	5.3538	2.5455	5.e-002	1.1162e-006
15046	5.3538	2.2727	0.	-307.21
15047	5.2615	2.3636	0.	-326.96
15048	5.3538	2.3636	5.e-002	3.5709e-006
15049	5.3538	2.0909	0.	-293.74
15050	5.2615	2.1818	0.	-314.33
15051	5.3538	2.1818	5.e-002	5.013e-006
15052	5.3538	1.9091	0.	-277.57
15053	5.2615	2.	0.	-298.79
15054	5.3538	2.	5.e-002	4.3525e-006
15055	5.3538	1.7273	0.	-258.86
15056	5.2615	1.8182	0.	-280.51
15057	5.3538	1.8182	5.e-002	5.0119e-006
15058	5.3538	1.5455	0.	-237.8
15059	5.2615	1.6364	0.	-259.67
15060	5.3538	1.6364	5.e-002	2.521e-006
15061	5.3538	1.3636	0.	-214.59
15062	5.2615	1.4545	0.	-236.49
15063	5.3538	1.4545	5.e-002	7.3268e-006
15064	5.3538	1.1818	0.	-189.47
15065	5.2615	1.2727	0.	-211.19
15066	5.3538	1.2727	5.e-002	8.0696e-006
15067	5.3538	1.	0.	-162.66
15068	5.2615	1.0909	0.	-184.01
15069	5.3538	1.0909	5.e-002	1.4857e-005
15070	5.3538	0.81818	0.	-134.4
15071	5.2615	0.90909	0.	-155.2
15072	5.3538	0.90909	5.e-002	8.9625e-006
15073	5.3538	0.63636	0.	-104.95
15074	5.2615	0.72727	0.	-125.03
15075	5.3538	0.72727	5.e-002	9.3794e-006
15076	5.3538	0.45455	0.	-74.504
15077	5.2615	0.54545	0.	-93.755
15078	5.3538	0.54545	5.e-002	1.7443e-005
15079	5.3538	0.27273	0.	-43.211
15080	5.2615	0.36364	0.	-61.545
15081	5.3538	0.36364	5.e-002	9.7139e-006
15082	5.2615	0.18182	0.	-28.577
15083	5.3538	0.18182	5.e-002	1.1566e-005
15084	5.3538	9.0909e-002	0.	-14.6
15085	5.1692	5.7273	0.	-46.839
15086	5.0769	5.8182	0.	-30.903
15087	5.1692	5.8182	5.e-002	-3.4125e-007
15088	5.1692	5.9091	0.	-15.852
15089	5.1692	5.5455	0.	-80.77
15090	5.0769	5.6364	0.	-66.635
15091	5.1692	5.6364	5.e-002	-2.0305e-005
15092	5.1692	5.3636	0.	-113.81
15093	5.0769	5.4545	0.	-101.57
15094	5.1692	5.4545	5.e-002	-2.8056e-005
15095	5.1692	5.1818	0.	-145.81
15096	5.0769	5.2727	0.	-135.53
15097	5.1692	5.2727	5.e-002	-9.8539e-006
15098	5.1692	5.	0.	-176.53
15099	5.0769	5.0909	0.	-168.32
15100	5.1692	5.0909	5.e-002	-1.6182e-005
15101	5.1692	4.8182	0.	-205.7
15102	5.0769	4.9091	0.	-199.65
15103	5.1692	4.9091	5.e-002	-9.4334e-006
15104	5.1692	4.6364	0.	-233.06
15105	5.0769	4.7273	0.	-229.24
15106	5.1692	4.7273	5.e-002	-1.4848e-005
15107	5.1692	4.4545	0.	-258.34
15108	5.0769	4.5455	0.	-256.8
15109	5.1692	4.5455	5.e-002	-6.4167e-006
15110	5.1692	4.2727	0.	-281.31
15111	5.0769	4.3636	0.	-282.07
15112	5.1692	4.3636	5.e-002	-6.7459e-006
15113	5.1692	4.0909	0.	-301.72
15114	5.0769	4.1818	0.	-304.8
15115	5.1692	4.1818	5.e-002	-2.4058e-006
15116	5.1692	3.9091	0.	-319.37
15117	5.0769	4.	0.	-324.75
15118	5.1692	4.	5.e-002	-4.8295e-006
15119	5.1692	3.7273	0.	-334.08
15120	5.0769	3.8182	0.	-341.71
15121	5.1692	3.8182	5.e-002	-3.8447e-006
15122	5.1692	3.5455	0.	-345.68
15123	5.0769	3.6364	0.	-355.5
15124	5.1692	3.6364	5.e-002	-2.6876e-006
15125	5.1692	3.3636	0.	-354.06
15126	5.0769	3.4545	0.	-365.98
15127	5.1692	3.4545	5.e-002	-1.1973e-006
15128	5.1692	3.1818	0.	-359.13
15129	5.0769	3.2727	0.	-373.04
15130	5.1692	3.2727	5.e-002	-7.4001e-007
15131	5.1692	3.	0.	-360.82
15132	5.0769	3.0909	0.	-376.58
15133	5.1692	3.0909	5.e-002	-2.5033e-007
15134	5.1692	2.8182	0.	-359.13
15135	5.0769	2.9091	0.	-376.58
15136	5.1692	2.9091	5.e-002	2.5033e-007
15137	5.1692	2.6364	0.	-354.06
15138	5.0769	2.7273	0.	-373.04
15139	5.1692	2.7273	5.e-002	7.4001e-007
15140	5.1692	2.4545	0.	-345.68
15141	5.0769	2.5455	0.	-365.98
15142	5.1692	2.5455	5.e-002	1.2433e-006
15143	5.1692	2.2727	0.	-334.08
15144	5.0769	2.3636	0.	-355.5
15145	5.1692	2.3636	5.e-002	1.5866e-006
15146	5.1692	2.0909	0.	-319.37
15147	5.0769	2.1818	0.	-341.71
15148	5.1692	2.1818	5.e-002	3.8447e-006
15149	5.1692	1.9091	0.	-301.72
15150	5.0769	2.	0.	-324.75
15151	5.1692	2.	5.e-002	2.2867e-006
15152	5.1692	1.7273	0.	-281.31
15153	5.0769	1.8182	0.	-304.8
15154	5.1692	1.8182	5.e-002	2.6245e-006
15155	5.1692	1.5455	0.	-258.34
15156	5.0769	1.6364	0.	-282.07
15157	5.1692	1.6364	5.e-002	2.6858e-006
15158	5.1692	1.3636	0.	-233.06
15159	5.0769	1.4545	0.	-256.8
15160	5.1692	1.4545	5.e-002	2.4015e-006
15161	5.1692	1.1818	0.	-205.7
15162	5.0769	1.2727	0.	-229.24
15163	5.1692	1.2727	5.e-002	1.5135e-005
15164	5.1692	1.	0.	-176.53
15165	5.0769	1.0909	0.	-199.65
15166	5.1692	1.0909	5.e-002	9.7373e-006
15167	5.1692	0.81818	0.	-145.81
15168	5.0769	0.90909	0.	-168.32
15169	5.1692	0.90909	5.e-002	1.7845e-005
15170	5.1692	0.63636	0.	-113.81
15171	5.0769	0.72727	0.	-135.53
15172	5.1692	0.72727	5.e-002	9.8539e-006
15173	5.1692	0.45455	0.	-80.77
15174	5.0769	0.54545	0.	-101.57
15175	5.1692	0.54545	5.e-002	2.9677e-005
15176	5.1692	0.27273	0.	-46.839
15177	5.0769	0.36364	0.	-66.635
15178	5.1692	0.36364	5.e-002	2.0934e-005
15179	5.0769	0.18182	0.	-30.903
15180	5.1692	0.18182	5.e-002	9.3405e-007
15181	5.1692	9.0909e-002	0.	-15.852
15182	4.9846	5.7273	0.	-50.614
15183	4.8923	5.8182	0.	-33.254
15184	4.9846	5.8182	5.e-002	-4.2429e-005
15185	4.9846	5.9091	0.	-17.108
15186	4.9846	5.5455	0.	-87.407
15187	4.8923	5.6364	0.	-71.987
15188	4.9846	5.6364	5.e-002	-2.2279e-005
15189	4.9846	5.3636	0.	-123.26
15190	4.8923	5.4545	0.	-109.88
15191	4.9846	5.4545	5.e-002	-2.1748e-005
15192	4.9846	5.1818	0.	-158.01
15193	4.8923	5.2727	0.	-146.74
15194	4.9846	5.2727	5.e-002	-2.8808e-005
15195	4.9846	5.	0.	-191.41
15196	4.8923	5.0909	0.	-182.38
15197	4.9846	5.0909	5.e-002	-2.9291e-005
15198	4.9846	4.8182	0.	-223.16
15199	4.8923	4.9091	0.	-216.46
15200	4.9846	4.9091	5.e-002	-1.0535e-005
15201	4.9846	4.6364	0.	-252.95
15202	4.8923	4.7273	0.	-248.67
15203	4.9846	4.7273	5.e-002	-1.0026e-005
15204	4.9846	4.4545	0.	-280.51
15205	4.8923	4.5455	0.	-278.69
15206	4.9846	4.5455	5.e-002	-2.2653e-006
15207	4.9846	4.2727	0.	-305.55
15208	4.8923	4.3636	0.	-306.24
15209	4.9846	4.3636	5.e-002	-6.9967e-006
15210	4.9846	4.0909	0.	-327.82
15211	4.8923	4.1818	0.	-331.03
15212	4.9846	4.1818	5.e-002	-2.5629e-006
15213	4.9846	3.9091	0.	-347.08
15214	4.8923	4.	0.	-352.8
15215	4.9846	4.	5.e-002	-1.0777e-005
15216	4.9846	3.7273	0.	-363.14
15217	4.8923	3.8182	0.	-371.32
15218	4.9846	3.8182	5.e-002	-2.0505e-006
15219	4.9846	3.5455	0.	-375.81
15220	4.8923	3.6364	0.	-386.39
15221	4.9846	3.6364	5.e-002	-3.0305e-006
15222	4.9846	3.3636	0.	-384.97
15223	4.8923	3.4545	0.	-397.83
15224	4.9846	3.4545	5.e-002	-1.332e-006
15225	4.9846	3.1818	0.	-390.5
15226	4.8923	3.2727	0.	-405.54
15227	4.9846	3.2727	5.e-002	-1.0798e-006
15228	4.9846	3.	0.	-392.35
15229	4.8923	3.0909	0.	-409.41
15230	4.9846	3.0909	5.e-002	-2.7098e-007
15231	4.9846	2.8182	0.	-390.5
15232	4.8923	2.9091	0.	-409.41
15233	4.9846	2.9091	5.e-002	2.7098e-007
15234	4.9846	2.6364	0.	-384.97
15235	4.8923	2.7273	0.	-405.54
15236	4.9846	2.7273	5.e-002	7.4842e-007
15237	4.9846	2.4545	0.	-375.81
15238	4.8923	2.5455	0.	-397.83
15239	4.9846	2.5455	5.e-002	1.2333e-006
15240	4.9846	2.2727	0.	-363.14
15241	4.8923	2.3636	0.	-386.39
15242	4.9846	2.3636	5.e-002	1.7659e-006
15243	4.9846	2.0909	0.	-347.08
15244	4.8923	2.1818	0.	-371.32
15245	4.9846	2.1818	5.e-002	5.7385e-006
15246	4.9846	1.9091	0.	-327.82
15247	4.8923	2.	0.	-352.8
15248	4.9846	2.	5.e-002	1.1183e-005
15249	4.9846	1.7273	0.	-305.55
15250	4.8923	1.8182	0.	-331.03
15251	4.9846	1.8182	5.e-002	2.5629e-006
15252	4.9846	1.5455	0.	-280.51
15253	4.8923	1.6364	0.	-306.24
15254	4.9846	1.6364	5.e-002	1.1023e-005
15255	4.9846	1.3636	0.	-252.95
15256	4.8923	1.4545	0.	-278.69
15257	4.9846	1.4545	5.e-002	2.2653e-006
15258	4.9846	1.1818	0.	-223.16
15259	4.8923	1.2727	0.	-248.67
15260	4.9846	1.2727	5.e-002	1.0026e-005
15261	4.9846	1.	0.	-191.41
15262	4.8923	1.0909	0.	-216.46
15263	4.9846	1.0909	5.e-002	1.0535e-005
15264	4.9846	0.81818	0.	-158.01
15265	4.8923	0.90909	0.	-182.38
15266	4.9846	0.90909	5.e-002	2.0423e-005
15267	4.9846	0.63636	0.	-123.26
15268	4.8923	0.72727	0.	-146.74
15269	4.9846	0.72727	5.e-002	2.9716e-005
15270	4.9846	0.45455	0.	-87.407
15271	4.8923	0.54545	0.	-109.88
15272	4.9846	0.54545	5.e-002	1.2165e-005
15273	4.9846	0.27273	0.	-50.614
15274	4.8923	0.36364	0.	-71.987
15275	4.9846	0.36364	5.e-002	2.3485e-005
15276	4.8923	0.18182	0.	-33.254
15277	4.9846	0.18182	5.e-002	3.1988e-005
15278	4.9846	9.0909e-002	0.	-17.108
15279	4.8	5.7273	0.	-54.526
15280	4.7077	5.8182	0.	-35.609
15281	4.8	5.8182	5.e-002	-4.1809e-005
15282	4.8	5.9091	0.	-18.355
15283	4.8	5.5455	0.	-94.423
15284	4.7077	5.6364	0.	-77.601
15285	4.8	5.6364	5.e-002	-3.7756e-005
15286	4.8	5.3636	0.	-133.33
15287	4.7077	5.4545	0.	-118.69
15288	4.8	5.4545	5.e-002	-2.4154e-005
15289	4.8	5.1818	0.	-171.08
15290	4.7077	5.2727	0.	-158.72
15291	4.8	5.2727	5.e-002	-1.3129e-005
15292	4.8	5.	0.	-207.39
15293	4.7077	5.0909	0.	-197.44
15294	4.8	5.0909	5.e-002	-3.2952e-005
15295	4.8	4.8182	0.	-241.94
15296	4.7077	4.9091	0.	-234.51
15297	4.8	4.9091	5.e-002	-1.1745e-005
15298	4.8	4.6364	0.	-274.38
15299	4.7077	4.7273	0.	-269.58
15300	4.8	4.7273	5.e-002	-1.8449e-005
15301	4.8	4.4545	0.	-304.41
15302	4.7077	4.5455	0.	-302.3
15303	4.8	4.5455	5.e-002	-9.1861e-006
15304	4.8	4.2727	0.	-331.72
15305	4.7077	4.3636	0.	-332.33
15306	4.8	4.3636	5.e-002	-1.9028e-005
15307	4.8	4.0909	0.	-356.02
15308	4.7077	4.1818	0.	-359.37
15309	4.8	4.1818	5.e-002	-1.1857e-005
15310	4.8	3.9091	0.	-377.04
15311	4.7077	4.	0.	-383.13
15312	4.8	4.	5.e-002	-8.8291e-006
15313	4.8	3.7273	0.	-394.58
15314	4.7077	3.8182	0.	-403.35
15315	4.8	3.8182	5.e-002	-4.5074e-006
15316	4.8	3.5455	0.	-408.42
15317	4.7077	3.6364	0.	-419.8
15318	4.8	3.6364	5.e-002	-1.7419e-006
15319	4.8	3.3636	0.	-418.42
15320	4.7077	3.4545	0.	-432.3
15321	4.8	3.4545	5.e-002	-2.1292e-006
15322	4.8	3.1818	0.	-424.46
15323	4.7077	3.2727	0.	-440.72
15324	4.8	3.2727	5.e-002	2.932e-006
15325	4.8	3.	0.	-426.49
15326	4.7077	3.0909	0.	-444.95
15327	4.8	3.0909	5.e-002	-2.8753e-007
15328	4.8	2.8182	0.	-424.46
15329	4.7077	2.9091	0.	-444.95
15330	4.8	2.9091	5.e-002	2.8753e-007
15331	4.8	2.6364	0.	-418.42
15332	4.7077	2.7273	0.	-440.72
15333	4.8	2.7273	5.e-002	8.0125e-007
15334	4.8	2.4545	0.	-408.42
15335	4.7077	2.5455	0.	-432.3
15336	4.8	2.5455	5.e-002	2.0237e-006
15337	4.8	2.2727	0.	-394.58
15338	4.7077	2.3636	0.	-419.8
15339	4.8	2.3636	5.e-002	1.7419e-006
15340	4.8	2.0909	0.	-377.04
15341	4.7077	2.1818	0.	-403.35
15342	4.8	2.1818	5.e-002	4.5074e-006
15343	4.8	1.9091	0.	-356.02
15344	4.7077	2.	0.	-383.13
15345	4.8	2.	5.e-002	1.0129e-005
15346	4.8	1.7273	0.	-331.72
15347	4.7077	1.8182	0.	-359.37
15348	4.8	1.8182	5.e-002	1.1857e-005
15349	4.8	1.5455	0.	-304.41
15350	4.7077	1.6364	0.	-332.33
15351	4.8	1.6364	5.e-002	1.9579e-005
15352	4.8	1.3636	0.	-274.38
15353	4.7077	1.4545	0.	-302.3
15354	4.8	1.4545	5.e-002	9.1861e-006
15355	4.8	1.1818	0.	-241.94
15356	4.7077	1.2727	0.	-269.58
15357	4.8	1.2727	5.e-002	2.1767e-005
15358	4.8	1.	0.	-207.39
15359	4.7077	1.0909	0.	-234.51
15360	4.8	1.0909	5.e-002	1.337e-005
15361	4.8	0.81818	0.	-171.08
15362	4.7077	0.90909	0.	-197.44
15363	4.8	0.90909	5.e-002	3.0831e-005
15364	4.8	0.63636	0.	-133.33
15365	4.7077	0.72727	0.	-158.72
15366	4.8	0.72727	5.e-002	1.4695e-005
15367	4.8	0.45455	0.	-94.423
15368	4.7077	0.54545	0.	-118.69
15369	4.8	0.54545	5.e-002	2.4925e-005
15370	4.8	0.27273	0.	-54.526
15371	4.7077	0.36364	0.	-77.601
15372	4.8	0.36364	5.e-002	3.9281e-005
15373	4.7077	0.18182	0.	-35.609
15374	4.8	0.18182	5.e-002	4.3678e-005
15375	4.8	9.0909e-002	0.	-18.355
15376	4.6154	5.7273	0.	-58.565
15377	4.5231	5.8182	0.	-37.942
15378	4.6154	5.8182	5.e-002	-3.3096e-005
15379	4.6154	5.9091	0.	-19.575
15380	4.6154	5.5455	0.	-101.83
15381	4.5231	5.6364	0.	-83.476
15382	4.6154	5.6364	5.e-002	-2.7757e-005
15383	4.6154	5.3636	0.	-144.04
15384	4.5231	5.4545	0.	-128.04
15385	4.6154	5.4545	5.e-002	-5.3415e-005
15386	4.6154	5.1818	0.	-185.04
15387	4.5231	5.2727	0.	-171.48
15388	4.6154	5.2727	5.e-002	-3.9267e-005
15389	4.6154	5.	0.	-224.53
15390	4.5231	5.0909	0.	-213.57
15391	4.6154	5.0909	5.e-002	-2.5641e-005
15392	4.6154	4.8182	0.	-262.12
15393	4.5231	4.9091	0.	-253.9
15394	4.6154	4.9091	5.e-002	-2.8485e-006
15395	4.6154	4.6364	0.	-297.46
15396	4.5231	4.7273	0.	-292.08
15397	4.6154	4.7273	5.e-002	-1.1702e-005
15398	4.6154	4.4545	0.	-330.2
15399	4.5231	4.5455	0.	-327.73
15400	4.6154	4.5455	5.e-002	-3.167e-006
15401	4.6154	4.2727	0.	-359.97
15402	4.5231	4.3636	0.	-360.48
15403	4.6154	4.3636	5.e-002	-9.2916e-006
15404	4.6154	4.0909	0.	-386.49
15405	4.5231	4.1818	0.	-389.98
15406	4.6154	4.1818	5.e-002	-7.6855e-006
15407	4.6154	3.9091	0.	-409.44
15408	4.5231	4.	0.	-415.91
15409	4.6154	4.	5.e-002	-1.0358e-005
15410	4.6154	3.7273	0.	-428.58
15411	4.5231	3.8182	0.	-437.98
15412	4.6154	3.8182	5.e-002	-2.3308e-006
15413	4.6154	3.5455	0.	-443.7
15414	4.5231	3.6364	0.	-455.94
15415	4.6154	3.6364	5.e-002	-3.9771e-006
15416	4.6154	3.3636	0.	-454.62
15417	4.5231	3.4545	0.	-469.59
15418	4.6154	3.4545	5.e-002	-1.3528e-006
15419	4.6154	3.1818	0.	-461.22
15420	4.5231	3.2727	0.	-478.78
15421	4.6154	3.2727	5.e-002	-9.25e-007
15422	4.6154	3.	0.	-463.43
15423	4.5231	3.0909	0.	-483.4
15424	4.6154	3.0909	5.e-002	-3.4008e-007
15425	4.6154	2.8182	0.	-461.22
15426	4.5231	2.9091	0.	-483.4
15427	4.6154	2.9091	5.e-002	3.0747e-007
15428	4.6154	2.6364	0.	-454.62
15429	4.5231	2.7273	0.	-478.78
15430	4.6154	2.7273	5.e-002	9.5926e-007
15431	4.6154	2.4545	0.	-443.7
15432	4.5231	2.5455	0.	-469.59
15433	4.6154	2.5455	5.e-002	1.5783e-006
15434	4.6154	2.2727	0.	-428.58
15435	4.5231	2.3636	0.	-455.94
15436	4.6154	2.3636	5.e-002	1.8583e-006
15437	4.6154	2.0909	0.	-409.44
15438	4.5231	2.1818	0.	-437.98
15439	4.6154	2.1818	5.e-002	2.3308e-006
15440	4.6154	1.9091	0.	-386.49
15441	4.5231	2.	0.	-415.91
15442	4.6154	2.	5.e-002	1.0819e-005
15443	4.6154	1.7273	0.	-359.97
15444	4.5231	1.8182	0.	-389.98
15445	4.6154	1.8182	5.e-002	8.2112e-006
15446	4.6154	1.5455	0.	-330.2
15447	4.5231	1.6364	0.	-360.48
15448	4.6154	1.6364	5.e-002	1.3291e-005
15449	4.6154	1.3636	0.	-297.46
15450	4.5231	1.4545	0.	-327.73
15451	4.6154	1.4545	5.e-002	2.5336e-006
15452	4.6154	1.1818	0.	-262.12
15453	4.5231	1.2727	0.	-292.08
15454	4.6154	1.2727	5.e-002	1.2379e-005
15455	4.6154	1.	0.	-224.53
15456	4.5231	1.0909	0.	-253.9
15457	4.6154	1.0909	5.e-002	2.1364e-006
15458	4.6154	0.81818	0.	-185.04
15459	4.5231	0.90909	0.	-213.57
15460	4.6154	0.90909	5.e-002	1.4304e-005
15461	4.6154	0.63636	0.	-144.04
15462	4.5231	0.72727	0.	-171.48
15463	4.6154	0.72727	5.e-002	4.0023e-005
15464	4.6154	0.45455	0.	-101.83
15465	4.5231	0.54545	0.	-128.04
15466	4.6154	0.54545	5.e-002	4.1005e-005
15467	4.6154	0.27273	0.	-58.565
15468	4.5231	0.36364	0.	-83.476
15469	4.6154	0.36364	5.e-002	2.8501e-005
15470	4.5231	0.18182	0.	-37.942
15471	4.6154	0.18182	5.e-002	2.1823e-005
15472	4.6154	9.0909e-002	0.	-19.575
15473	4.4308	5.7273	0.	-62.713
15474	4.3385	5.8182	0.	-40.223
15475	4.4308	5.8182	5.e-002	-2.1729e-005
15476	4.4308	5.9091	0.	-20.75
15477	4.4308	5.5455	0.	-109.63
15478	4.3385	5.6364	0.	-89.606
15479	4.4308	5.6364	5.e-002	-4.5777e-005
15480	4.4308	5.3636	0.	-155.43
15481	4.3385	5.4545	0.	-137.92
15482	4.4308	5.4545	5.e-002	-4.6697e-005
15483	4.4308	5.1818	0.	-199.97
15484	4.3385	5.2727	0.	-185.09
15485	4.4308	5.2727	5.e-002	-2.7694e-005
15486	4.4308	5.	0.	-242.9
15487	4.3385	5.0909	0.	-230.84
15488	4.4308	5.0909	5.e-002	-2.7077e-005
15489	4.4308	4.8182	0.	-283.82
15490	4.3385	4.9091	0.	-274.72
15491	4.4308	4.9091	5.e-002	-2.6037e-005
15492	4.4308	4.6364	0.	-322.32
15493	4.3385	4.7273	0.	-316.3
15494	4.4308	4.7273	5.e-002	-1.4429e-005
15495	4.4308	4.4545	0.	-358.
15496	4.3385	4.5455	0.	-355.15
15497	4.4308	4.5455	5.e-002	-1.2054e-005
15498	4.4308	4.2727	0.	-390.48
15499	4.3385	4.3636	0.	-390.86
15500	4.4308	4.3636	5.e-002	-3.2596e-005
15501	4.4308	4.0909	0.	-419.4
15502	4.3385	4.1818	0.	-423.04
15503	4.4308	4.1818	5.e-002	-9.0786e-006
15504	4.4308	3.9091	0.	-444.45
15505	4.3385	4.	0.	-451.33
15506	4.4308	4.	5.e-002	-7.2472e-006
15507	4.4308	3.7273	0.	-465.35
15508	4.3385	3.8182	0.	-475.41
15509	4.4308	3.8182	5.e-002	-1.0682e-005
15510	4.4308	3.5455	0.	-481.85
15511	4.3385	3.6364	0.	-495.01
15512	4.4308	3.6364	5.e-002	-4.0266e-006
15513	4.4308	3.3636	0.	-493.78
15514	4.3385	3.4545	0.	-509.92
15515	4.4308	3.4545	5.e-002	-1.5625e-006
15516	4.4308	3.1818	0.	-500.99
15517	4.3385	3.2727	0.	-519.95
15518	4.4308	3.2727	5.e-002	-9.5046e-007
15519	4.4308	3.	0.	-503.4
15520	4.3385	3.0909	0.	-524.99
15521	4.4308	3.0909	5.e-002	-3.1902e-007
15522	4.4308	2.8182	0.	-500.99
15523	4.3385	2.9091	0.	-524.99
15524	4.4308	2.9091	5.e-002	3.3743e-007
15525	4.4308	2.6364	0.	-493.78
15526	4.3385	2.7273	0.	-519.95
15527	4.4308	2.7273	5.e-002	9.5046e-007
15528	4.4308	2.4545	0.	-481.85
15529	4.3385	2.5455	0.	-509.92
15530	4.4308	2.5455	5.e-002	1.5625e-006
15531	4.4308	2.2727	0.	-465.35
15532	4.3385	2.3636	0.	-495.01
15533	4.4308	2.3636	5.e-002	4.1915e-006
15534	4.4308	2.0909	0.	-444.45
15535	4.3385	2.1818	0.	-475.41
15536	4.4308	2.1818	5.e-002	1.2334e-005
15537	4.4308	1.9091	0.	-419.4
15538	4.3385	2.	0.	-451.33
15539	4.4308	2.	5.e-002	7.2472e-006
15540	4.4308	1.7273	0.	-390.48
15541	4.3385	1.8182	0.	-423.04
15542	4.4308	1.8182	5.e-002	8.5219e-006
15543	4.4308	1.5455	0.	-358.
15544	4.3385	1.6364	0.	-390.86
15545	4.4308	1.6364	5.e-002	3.1364e-005
15546	4.4308	1.3636	0.	-322.32
15547	4.3385	1.4545	0.	-355.15
15548	4.4308	1.4545	5.e-002	1.1387e-005
15549	4.4308	1.1818	0.	-283.82
15550	4.3385	1.2727	0.	-316.3
15551	4.4308	1.2727	5.e-002	2.8425e-006
15552	4.4308	1.	0.	-242.9
15553	4.3385	1.0909	0.	-274.72
15554	4.4308	1.0909	5.e-002	2.6037e-005
15555	4.4308	0.81818	0.	-199.97
15556	4.3385	0.90909	0.	-230.84
15557	4.4308	0.90909	5.e-002	4.6111e-006
15558	4.4308	0.63636	0.	-155.43
15559	4.3385	0.72727	0.	-185.09
15560	4.4308	0.72727	5.e-002	3.009e-005
15561	4.4308	0.45455	0.	-109.63
15562	4.3385	0.54545	0.	-137.92
15563	4.4308	0.54545	5.e-002	4.7514e-005
15564	4.4308	0.27273	0.	-62.713
15565	4.3385	0.36364	0.	-89.606
15566	4.4308	0.36364	5.e-002	3.2365e-005
15567	4.3385	0.18182	0.	-40.223
15568	4.4308	0.18182	5.e-002	2.2123e-005
15569	4.4308	9.0909e-002	0.	-20.75
15570	4.2462	5.7273	0.	-66.951
15571	4.1538	5.8182	0.	-42.416
15572	4.2462	5.8182	5.e-002	-2.2053e-005
15573	4.2462	5.9091	0.	-21.855
15574	4.2462	5.5455	0.	-117.84
15575	4.1538	5.6364	0.	-95.983
15576	4.2462	5.6364	5.e-002	-6.964e-005
15577	4.2462	5.3636	0.	-167.53
15578	4.1538	5.4545	0.	-148.38
15579	4.2462	5.4545	5.e-002	-1.6485e-005
15580	4.2462	5.1818	0.	-215.91
15581	4.1538	5.2727	0.	-199.59
15582	4.2462	5.2727	5.e-002	-1.5514e-005
15583	4.2462	5.	0.	-262.61
15584	4.1538	5.0909	0.	-249.32
15585	4.2462	5.0909	5.e-002	-4.4595e-005
15586	4.2462	4.8182	0.	-307.15
15587	4.1538	4.9091	0.	-297.07
15588	4.2462	4.9091	5.e-002	-4.3562e-005
15589	4.2462	4.6364	0.	-349.09
15590	4.1538	4.7273	0.	-342.36
15591	4.2462	4.7273	5.e-002	-3.7329e-005
15592	4.2462	4.4545	0.	-387.99
15593	4.1538	4.5455	0.	-384.7
15594	4.2462	4.5455	5.e-002	-3.371e-005
15595	4.2462	4.2727	0.	-423.41
15596	4.1538	4.3636	0.	-423.64
15597	4.2462	4.3636	5.e-002	-1.2057e-005
15598	4.2462	4.0909	0.	-454.96
15599	4.1538	4.1818	0.	-458.73
15600	4.2462	4.1818	5.e-002	-3.5279e-006
15601	4.2462	3.9091	0.	-482.29
15602	4.1538	4.	0.	-489.59
15603	4.2462	4.	5.e-002	-1.8276e-005
15604	4.2462	3.7273	0.	-505.1
15605	4.1538	3.8182	0.	-515.87
15606	4.2462	3.8182	5.e-002	-9.45e-006
15607	4.2462	3.5455	0.	-523.11
15608	4.1538	3.6364	0.	-537.25
15609	4.2462	3.6364	5.e-002	-3.8872e-006
15610	4.2462	3.3636	0.	-536.12
15611	4.1538	3.4545	0.	-553.51
15612	4.2462	3.4545	5.e-002	-3.7703e-006
15613	4.2462	3.1818	0.	-543.99
15614	4.1538	3.2727	0.	-564.46
15615	4.2462	3.2727	5.e-002	-1.0899e-006
15616	4.2462	3.	0.	-546.62
15617	4.1538	3.0909	0.	-569.96
15618	4.2462	3.0909	5.e-002	-3.9229e-007
15619	4.2462	2.8182	0.	-543.99
15620	4.1538	2.9091	0.	-569.96
15621	4.2462	2.9091	5.e-002	3.5946e-007
15622	4.2462	2.6364	0.	-536.12
15623	4.1538	2.7273	0.	-564.46
15624	4.2462	2.7273	5.e-002	1.051e-006
15625	4.2462	2.4545	0.	-523.11
15626	4.1538	2.5455	0.	-553.51
15627	4.2462	2.5455	5.e-002	1.5345e-006
15628	4.2462	2.2727	0.	-505.1
15629	4.1538	2.3636	0.	-537.25
15630	4.2462	2.3636	5.e-002	2.4531e-006
15631	4.2462	2.0909	0.	-482.29
15632	4.1538	2.1818	0.	-515.87
15633	4.2462	2.1818	5.e-002	2.6286e-006
15634	4.2462	1.9091	0.	-454.96
15635	4.1538	2.	0.	-489.59
15636	4.2462	2.	5.e-002	1.2357e-005
15637	4.2462	1.7273	0.	-423.41
15638	4.1538	1.8182	0.	-458.73
15639	4.2462	1.8182	5.e-002	3.5279e-006
15640	4.2462	1.5455	0.	-387.99
15641	4.1538	1.6364	0.	-423.64
15642	4.2462	1.6364	5.e-002	1.1408e-005
15643	4.2462	1.3636	0.	-349.09
15644	4.1538	1.4545	0.	-384.7
15645	4.2462	1.4545	5.e-002	2.2473e-005
15646	4.2462	1.1818	0.	-307.15
15647	4.1538	1.2727	0.	-342.36
15648	4.2462	1.2727	5.e-002	2.7368e-005
15649	4.2462	1.	0.	-262.61
15650	4.1538	1.0909	0.	-297.07
15651	4.2462	1.0909	5.e-002	1.6081e-005
15652	4.2462	0.81818	0.	-215.91
15653	4.1538	0.90909	0.	-249.32
15654	4.2462	0.90909	5.e-002	1.756e-005
15655	4.2462	0.63636	0.	-167.53
15656	4.1538	0.72727	0.	-199.59
15657	4.2462	0.72727	5.e-002	1.5514e-005
15658	4.2462	0.45455	0.	-117.84
15659	4.1538	0.54545	0.	-148.38
15660	4.2462	0.54545	5.e-002	1.6485e-005
15661	4.2462	0.27273	0.	-66.951
15662	4.1538	0.36364	0.	-95.983
15663	4.2462	0.36364	5.e-002	5.1382e-005
15664	4.1538	0.18182	0.	-42.416
15665	4.2462	0.18182	5.e-002	2.1329e-005
15666	4.2462	9.0909e-002	0.	-21.855
15667	4.0615	5.7273	0.	-71.254
15668	3.9692	5.8182	0.	-44.477
15669	4.0615	5.8182	5.e-002	-4.5876e-005
15670	4.0615	5.9091	0.	-22.862
15671	4.0615	5.5455	0.	-126.45
15672	3.9692	5.6364	0.	-102.6
15673	4.0615	5.6364	5.e-002	-5.6638e-005
15674	4.0615	5.3636	0.	-180.38
15675	3.9692	5.4545	0.	-159.42
15676	4.0615	5.4545	5.e-002	-5.3784e-005
15677	4.0615	5.1818	0.	-232.94
15678	3.9692	5.2727	0.	-215.04
15679	4.0615	5.2727	5.e-002	-3.4665e-005
15680	4.0615	5.	0.	-283.73
15681	3.9692	5.0909	0.	-269.11
15682	4.0615	5.0909	5.e-002	-2.1072e-005
15683	4.0615	4.8182	0.	-332.23
15684	3.9692	4.9091	0.	-321.08
15685	4.0615	4.9091	5.e-002	-1.7781e-005
15686	4.0615	4.6364	0.	-377.93
15687	3.9692	4.7273	0.	-370.41
15688	4.0615	4.7273	5.e-002	-2.8827e-005
15689	4.0615	4.4545	0.	-420.32
15690	3.9692	4.5455	0.	-416.56
15691	4.0615	4.5455	5.e-002	-1.3997e-005
15692	4.0615	4.2727	0.	-458.95
15693	3.9692	4.3636	0.	-459.
15694	4.0615	4.3636	5.e-002	-2.7283e-006
15695	4.0615	4.0909	0.	-493.36
15696	3.9692	4.1818	0.	-497.27
15697	4.0615	4.1818	5.e-002	-3.7167e-006
15698	4.0615	3.9091	0.	-523.18
15699	3.9692	4.	0.	-530.92
15700	4.0615	4.	5.e-002	-1.4843e-005
15701	4.0615	3.7273	0.	-548.05
15702	3.9692	3.8182	0.	-559.57
15703	4.0615	3.8182	5.e-002	-1.0479e-005
15704	4.0615	3.5455	0.	-567.69
15705	3.9692	3.6364	0.	-582.89
15706	4.0615	3.6364	5.e-002	-2.9718e-006
15707	4.0615	3.3636	0.	-581.89
15708	3.9692	3.4545	0.	-600.61
15709	4.0615	3.4545	5.e-002	-2.8911e-006
15710	4.0615	3.1818	0.	-590.47
15711	3.9692	3.2727	0.	-612.54
15712	4.0615	3.2727	5.e-002	-1.6203e-006
15713	4.0615	3.	0.	-593.34
15714	3.9692	3.0909	0.	-618.54
15715	4.0615	3.0909	5.e-002	-4.1997e-007
15716	4.0615	2.8182	0.	-590.47
15717	3.9692	2.9091	0.	-618.54
15718	4.0615	2.9091	5.e-002	3.7507e-007
15719	4.0615	2.6364	0.	-581.89
15720	3.9692	2.7273	0.	-612.54
15721	4.0615	2.7273	5.e-002	1.0751e-006
15722	4.0615	2.4545	0.	-567.69
15723	3.9692	2.5455	0.	-600.61
15724	4.0615	2.5455	5.e-002	2.0359e-006
15725	4.0615	2.2727	0.	-548.05
15726	3.9692	2.3636	0.	-582.89
15727	4.0615	2.3636	5.e-002	2.6003e-006
15728	4.0615	2.0909	0.	-523.18
15729	3.9692	2.1818	0.	-559.57
15730	4.0615	2.1818	5.e-002	1.0943e-005
15731	4.0615	1.9091	0.	-493.36
15732	3.9692	2.	0.	-530.92
15733	4.0615	2.	5.e-002	8.2413e-006
15734	4.0615	1.7273	0.	-458.95
15735	3.9692	1.8182	0.	-497.27
15736	4.0615	1.8182	5.e-002	2.4778e-006
15737	4.0615	1.5455	0.	-420.32
15738	3.9692	1.6364	0.	-459.
15739	4.0615	1.6364	5.e-002	4.0925e-006
15740	4.0615	1.3636	0.	-377.93
15741	3.9692	1.4545	0.	-416.56
15742	4.0615	1.4545	5.e-002	1.6936e-005
15743	4.0615	1.1818	0.	-332.23
15744	3.9692	1.2727	0.	-370.41
15745	4.0615	1.2727	5.e-002	3.0383e-005
15746	4.0615	1.	0.	-283.73
15747	3.9692	1.0909	0.	-321.08
15748	4.0615	1.0909	5.e-002	1.6156e-005
15749	4.0615	0.81818	0.	-232.94
15750	3.9692	0.90909	0.	-269.11
15751	4.0615	0.90909	5.e-002	1.6036e-005
15752	4.0615	0.63636	0.	-180.38
15753	3.9692	0.72727	0.	-215.04
15754	4.0615	0.72727	5.e-002	3.8105e-005
15755	4.0615	0.45455	0.	-126.45
15756	3.9692	0.54545	0.	-159.42
15757	4.0615	0.54545	5.e-002	5.8617e-005
15758	4.0615	0.27273	0.	-71.254
15759	3.9692	0.36364	0.	-102.6
15760	4.0615	0.36364	5.e-002	3.8341e-005
15761	3.9692	0.18182	0.	-44.477
15762	4.0615	0.18182	5.e-002	4.4423e-005
15763	4.0615	9.0909e-002	0.	-22.862
15764	3.8769	5.7273	0.	-75.592
15765	3.7846	5.8182	0.	-46.357
15766	3.8769	5.8182	5.e-002	-3.2128e-005
15767	3.8769	5.9091	0.	-23.74
15768	3.8769	5.5455	0.	-135.48
15769	3.7846	5.6364	0.	-109.44
15770	3.8769	5.6364	5.e-002	-4.0333e-005
15771	3.8769	5.3636	0.	-194.01
15772	3.7846	5.4545	0.	-171.07
15773	3.8769	5.4545	5.e-002	-8.3488e-005
15774	3.8769	5.1818	0.	-251.13
15775	3.7846	5.2727	0.	-231.48
15776	3.8769	5.2727	5.e-002	-5.9711e-005
15777	3.8769	5.	0.	-306.39
15778	3.7846	5.0909	0.	-290.29
15779	3.8769	5.0909	5.e-002	-5.8906e-005
15780	3.8769	4.8182	0.	-359.2
15781	3.7846	4.9091	0.	-346.87
15782	3.8769	4.9091	5.e-002	-5.2108e-005
15783	3.8769	4.6364	0.	-408.99
15784	3.7846	4.7273	0.	-400.61
15785	3.8769	4.7273	5.e-002	-3.3645e-005
15786	3.8769	4.4545	0.	-455.21
15787	3.7846	4.5455	0.	-450.91
15788	3.8769	4.5455	5.e-002	-2.9388e-005
15789	3.8769	4.2727	0.	-497.32
15790	3.7846	4.3636	0.	-497.18
15791	3.8769	4.3636	5.e-002	-2.347e-005
15792	3.8769	4.0909	0.	-534.84
15793	3.7846	4.1818	0.	-538.89
15794	3.8769	4.1818	5.e-002	-2.603e-006
15795	3.8769	3.9091	0.	-567.34
15796	3.7846	4.	0.	-575.56
15797	3.8769	4.	5.e-002	-8.4873e-006
15798	3.8769	3.7273	0.	-594.45
15799	3.7846	3.8182	0.	-606.77
15800	3.8769	3.8182	5.e-002	-2.9356e-006
15801	3.8769	3.5455	0.	-615.86
15802	3.7846	3.6364	0.	-632.17
15803	3.8769	3.6364	5.e-002	-2.7488e-006
15804	3.8769	3.3636	0.	-631.32
15805	3.7846	3.4545	0.	-651.47
15806	3.8769	3.4545	5.e-002	-3.4291e-006
15807	3.8769	3.1818	0.	-640.67
15808	3.7846	3.2727	0.	-664.45
15809	3.8769	3.2727	5.e-002	-1.4017e-006
15810	3.8769	3.	0.	-643.8
15811	3.7846	3.0909	0.	-670.97
15812	3.8769	3.0909	5.e-002	-4.0484e-007
15813	3.8769	2.8182	0.	-640.67
15814	3.7846	2.9091	0.	-670.97
15815	3.8769	2.9091	5.e-002	3.9012e-007
15816	3.8769	2.6364	0.	-631.32
15817	3.7846	2.7273	0.	-664.45
15818	3.8769	2.7273	5.e-002	1.0513e-006
15819	3.8769	2.4545	0.	-615.86
15820	3.7846	2.5455	0.	-651.47
15821	3.8769	2.5455	5.e-002	3.1418e-006
15822	3.8769	2.2727	0.	-594.45
15823	3.7846	2.3636	0.	-632.17
15824	3.8769	2.3636	5.e-002	9.2544e-006
15825	3.8769	2.0909	0.	-567.34
15826	3.7846	2.1818	0.	-606.77
15827	3.8769	2.1818	5.e-002	3.4249e-006
15828	3.8769	1.9091	0.	-534.84
15829	3.7846	2.	0.	-575.56
15830	3.8769	2.	5.e-002	1.079e-005
15831	3.8769	1.7273	0.	-497.32
15832	3.7846	1.8182	0.	-538.89
15833	3.8769	1.8182	5.e-002	2.603e-006
15834	3.8769	1.5455	0.	-455.21
15835	3.7846	1.6364	0.	-497.18
15836	3.8769	1.6364	5.e-002	2.6328e-005
15837	3.8769	1.3636	0.	-408.99
15838	3.7846	1.4545	0.	-450.91
15839	3.8769	1.4545	5.e-002	2.7854e-005
15840	3.8769	1.1818	0.	-359.2
15841	3.7846	1.2727	0.	-400.61
15842	3.8769	1.2727	5.e-002	3.3645e-005
15843	3.8769	1.	0.	-306.39
15844	3.7846	1.0909	0.	-346.87
15845	3.8769	1.0909	5.e-002	3.4176e-005
15846	3.8769	0.81818	0.	-251.13
15847	3.7846	0.90909	0.	-290.29
15848	3.8769	0.90909	5.e-002	5.7169e-005
15849	3.8769	0.63636	0.	-194.01
15850	3.7846	0.72727	0.	-231.48
15851	3.8769	0.72727	5.e-002	5.9711e-005
15852	3.8769	0.45455	0.	-135.48
15853	3.7846	0.54545	0.	-171.07
15854	3.8769	0.54545	5.e-002	6.3066e-005
15855	3.8769	0.27273	0.	-75.592
15856	3.7846	0.36364	0.	-109.44
15857	3.8769	0.36364	5.e-002	4.2127e-005
15858	3.7846	0.18182	0.	-46.357
15859	3.8769	0.18182	5.e-002	2.3138e-005
15860	3.8769	9.0909e-002	0.	-23.74
15861	3.6923	5.7273	0.	-79.931
15862	3.6	5.8182	0.	-47.998
15863	3.6923	5.8182	5.e-002	-3.2883e-005
15864	3.6923	5.9091	0.	-24.448
15865	3.6923	5.5455	0.	-144.93
15866	3.6	5.6364	0.	-116.49
15867	3.6923	5.6364	5.e-002	-4.6201e-005
15868	3.6923	5.3636	0.	-208.47
15869	3.6	5.4545	0.	-183.36
15870	3.6923	5.4545	5.e-002	-4.5289e-005
15871	3.6923	5.1818	0.	-270.56
15872	3.6	5.2727	0.	-249.
15873	3.6923	5.2727	5.e-002	-6.4388e-005
15874	3.6923	5.	0.	-330.7
15875	3.6	5.0909	0.	-312.99
15876	3.6923	5.0909	5.e-002	-2.529e-005
15877	3.6923	4.8182	0.	-388.22
15878	3.6	4.9091	0.	-374.61
15879	3.6923	4.9091	5.e-002	-3.9698e-005
15880	3.6923	4.6364	0.	-442.48
15881	3.6	4.7273	0.	-433.16
15882	3.6923	4.7273	5.e-002	-4.9857e-005
15883	3.6923	4.4545	0.	-492.85
15884	3.6	4.5455	0.	-487.97
15885	3.6923	4.5455	5.e-002	-3.0868e-005
15886	3.6923	4.2727	0.	-538.74
15887	3.6	4.3636	0.	-538.39
15888	3.6923	4.3636	5.e-002	-4.0506e-005
15889	3.6923	4.0909	0.	-579.62
15890	3.6	4.1818	0.	-583.83
15891	3.6923	4.1818	5.e-002	-3.1603e-005
15892	3.6923	3.9091	0.	-615.03
15893	3.6	4.	0.	-623.76
15894	3.6923	4.	5.e-002	-1.1744e-005
15895	3.6923	3.7273	0.	-644.54
15896	3.6	3.8182	0.	-657.73
15897	3.6923	3.8182	5.e-002	-1.2744e-005
15898	3.6923	3.5455	0.	-667.84
15899	3.6	3.6364	0.	-685.35
15900	3.6923	3.6364	5.e-002	-5.9193e-006
15901	3.6923	3.3636	0.	-684.66
15902	3.6	3.4545	0.	-706.32
15903	3.6923	3.4545	5.e-002	-2.1219e-006
15904	3.6923	3.1818	0.	-694.83
15905	3.6	3.2727	0.	-720.43
15906	3.6923	3.2727	5.e-002	-2.4543e-006
15907	3.6923	3.	0.	-698.23
15908	3.6	3.0909	0.	-727.52
15909	3.6923	3.0909	5.e-002	-4.2759e-007
15910	3.6923	2.8182	0.	-694.83
15911	3.6	2.9091	0.	-727.52
15912	3.6923	2.9091	5.e-002	4.3537e-007
15913	3.6923	2.6364	0.	-684.66
15914	3.6	2.7273	0.	-720.43
15915	3.6923	2.7273	5.e-002	1.2025e-006
15916	3.6923	2.4545	0.	-667.84
15917	3.6	2.5455	0.	-706.32
15918	3.6923	2.5455	5.e-002	2.1219e-006
15919	3.6923	2.2727	0.	-644.54
15920	3.6	2.3636	0.	-685.35
15921	3.6923	2.3636	5.e-002	5.9193e-006
15922	3.6923	2.0909	0.	-615.03
15923	3.6	2.1818	0.	-657.73
15924	3.6923	2.1818	5.e-002	1.3259e-005
15925	3.6923	1.9091	0.	-579.62
15926	3.6	2.	0.	-623.76
15927	3.6923	2.	5.e-002	9.327e-006
15928	3.6923	1.7273	0.	-538.74
15929	3.6	1.8182	0.	-583.83
15930	3.6923	1.8182	5.e-002	2.1068e-005
15931	3.6923	1.5455	0.	-492.85
15932	3.6	1.6364	0.	-538.39
15933	3.6923	1.6364	5.e-002	3.9013e-005
15934	3.6923	1.3636	0.	-442.48
15935	3.6	1.4545	0.	-487.97
15936	3.6923	1.4545	5.e-002	3.0868e-005
15937	3.6923	1.1818	0.	-388.22
15938	3.6	1.2727	0.	-433.16
15939	3.6923	1.2727	5.e-002	4.9857e-005
15940	3.6923	1.	0.	-330.7
15941	3.6	1.0909	0.	-374.61
15942	3.6923	1.0909	5.e-002	3.9698e-005
15943	3.6923	0.81818	0.	-270.56
15944	3.6	0.90909	0.	-312.99
15945	3.6923	0.90909	5.e-002	2.1712e-005
15946	3.6923	0.63636	0.	-208.47
15947	3.6	0.72727	0.	-249.
15948	3.6923	0.72727	5.e-002	6.6209e-005
15949	3.6923	0.45455	0.	-144.93
15950	3.6	0.54545	0.	-183.36
15951	3.6923	0.54545	5.e-002	5.0817e-005
15952	3.6923	0.27273	0.	-79.931
15953	3.6	0.36364	0.	-116.49
15954	3.6923	0.36364	5.e-002	2.2183e-005
15955	3.6	0.18182	0.	-47.998
15956	3.6923	0.18182	5.e-002	2.2313e-005
15957	3.6923	9.0909e-002	0.	-24.448
15958	3.5077	5.7273	0.	-84.231
15959	3.4154	5.8182	0.	-49.335
15960	3.5077	5.8182	5.e-002	-2.5168e-005
15961	3.5077	5.9091	0.	-24.942
15962	3.5077	5.5455	0.	-154.81
15963	3.4154	5.6364	0.	-123.74
15964	3.5077	5.6364	5.e-002	-4.8725e-005
15965	3.5077	5.3636	0.	-223.81
15966	3.4154	5.4545	0.	-196.33
15967	3.5077	5.4545	5.e-002	-5.0105e-005
15968	3.5077	5.1818	0.	-291.34
15969	3.4154	5.2727	0.	-267.69
15970	3.5077	5.2727	5.e-002	-4.7587e-005
15971	3.5077	5.	0.	-356.81
15972	3.4154	5.0909	0.	-337.34
15973	3.5077	5.0909	5.e-002	-3.3119e-005
15974	3.5077	4.8182	0.	-419.48
15975	3.4154	4.9091	0.	-404.46
15976	3.5077	4.9091	5.e-002	-4.3826e-005
15977	3.5077	4.6364	0.	-478.61
15978	3.4154	4.7273	0.	-468.28
15979	3.5077	4.7273	5.e-002	-2.1327e-005
15980	3.5077	4.4545	0.	-533.49
15981	3.4154	4.5455	0.	-528.
15982	3.5077	4.5455	5.e-002	-5.1136e-005
15983	3.5077	4.2727	0.	-583.48
15984	3.4154	4.3636	0.	-582.92
15985	3.5077	4.3636	5.e-002	-1.4355e-005
15986	3.5077	4.0909	0.	-627.99
15987	3.4154	4.1818	0.	-632.37
15988	3.5077	4.1818	5.e-002	-1.5886e-005
15989	3.5077	3.9091	0.	-666.5
15990	3.4154	4.	0.	-675.79
15991	3.5077	4.	5.e-002	-3.7945e-006
15992	3.5077	3.7273	0.	-698.59
15993	3.4154	3.8182	0.	-712.69
15994	3.5077	3.8182	5.e-002	-7.5171e-006
15995	3.5077	3.5455	0.	-723.9
15996	3.4154	3.6364	0.	-742.68
15997	3.5077	3.6364	5.e-002	4.6033e-006
15998	3.5077	3.3636	0.	-742.17
15999	3.4154	3.4545	0.	-765.43
16000	3.5077	3.4545	5.e-002	-1.5931e-006
16001	3.5077	3.1818	0.	-753.21
16002	3.4154	3.2727	0.	-780.72
16003	3.5077	3.2727	5.e-002	-1.2647e-006
16004	3.5077	3.	0.	-756.9
16005	3.4154	3.0909	0.	-788.4
16006	3.5077	3.0909	5.e-002	-4.5803e-007
16007	3.5077	2.8182	0.	-753.21
16008	3.4154	2.9091	0.	-788.4
16009	3.5077	2.9091	5.e-002	4.5803e-007
16010	3.5077	2.6364	0.	-742.17
16011	3.4154	2.7273	0.	-780.72
16012	3.5077	2.7273	5.e-002	1.4593e-006
16013	3.5077	2.4545	0.	-723.9
16014	3.4154	2.5455	0.	-765.43
16015	3.5077	2.5455	5.e-002	1.9117e-006
16016	3.5077	2.2727	0.	-698.59
16017	3.4154	2.3636	0.	-742.68
16018	3.5077	2.3636	5.e-002	2.6071e-006
16019	3.5077	2.0909	0.	-666.5
16020	3.4154	2.1818	0.	-712.69
16021	3.5077	2.1818	5.e-002	9.676e-006
16022	3.5077	1.9091	0.	-627.99
16023	3.4154	2.	0.	-675.79
16024	3.5077	2.	5.e-002	3.7945e-006
16025	3.5077	1.7273	0.	-583.48
16026	3.4154	1.8182	0.	-632.37
16027	3.5077	1.8182	5.e-002	1.304e-005
16028	3.5077	1.5455	0.	-533.49
16029	3.4154	1.6364	0.	-582.92
16030	3.5077	1.6364	5.e-002	1.9014e-005
16031	3.5077	1.3636	0.	-478.61
16032	3.4154	1.4545	0.	-528.
16033	3.5077	1.4545	5.e-002	4.543e-005
16034	3.5077	1.1818	0.	-419.48
16035	3.4154	1.2727	0.	-468.28
16036	3.5077	1.2727	5.e-002	2.1327e-005
16037	3.5077	1.	0.	-356.81
16038	3.4154	1.0909	0.	-404.46
16039	3.5077	1.0909	5.e-002	4.3826e-005
16040	3.5077	0.81818	0.	-291.34
16041	3.4154	0.90909	0.	-337.34
16042	3.5077	0.90909	5.e-002	2.2117e-005
16043	3.5077	0.63636	0.	-223.81
16044	3.4154	0.72727	0.	-267.69
16045	3.5077	0.72727	5.e-002	3.1235e-005
16046	3.5077	0.45455	0.	-154.81
16047	3.4154	0.54545	0.	-196.33
16048	3.5077	0.54545	5.e-002	3.2558e-005
16049	3.5077	0.27273	0.	-84.231
16050	3.4154	0.36364	0.	-123.74
16051	3.5077	0.36364	5.e-002	2.4935e-005
16052	3.4154	0.18182	0.	-49.335
16053	3.5077	0.18182	5.e-002	2.3696e-005
16054	3.5077	9.0909e-002	0.	-24.942
16055	3.3231	5.7273	0.	-88.447
16056	3.2308	5.8182	0.	-50.294
16057	3.3231	5.8182	5.e-002	-2.5564e-005
16058	3.3231	5.9091	0.	-25.17
16059	3.3231	5.5455	0.	-165.13
16060	3.2308	5.6364	0.	-131.16
16061	3.3231	5.6364	5.e-002	-8.0172e-005
16062	3.3231	5.3636	0.	-240.1
16063	3.2308	5.4545	0.	-210.01
16064	3.3231	5.4545	5.e-002	-1.1063e-004
16065	3.3231	5.1818	0.	-313.58
16066	3.2308	5.2727	0.	-287.64
16067	3.3231	5.2727	5.e-002	-7.8943e-005
16068	3.3231	5.	0.	-384.9
16069	3.2308	5.0909	0.	-363.51
16070	3.3231	5.0909	5.e-002	-7.3455e-005
16071	3.3231	4.8182	0.	-453.19
16072	3.2308	4.9091	0.	-436.67
16073	3.3231	4.9091	5.e-002	-8.9148e-005
16074	3.3231	4.6364	0.	-517.62
16075	3.2308	4.7273	0.	-506.22
16076	3.3231	4.7273	5.e-002	-2.0243e-015
16077	3.3231	4.4545	0.	-577.4
16078	3.2308	4.5455	0.	-571.28
16079	3.3231	4.5455	5.e-002	-5.455e-005
16080	3.3231	4.2727	0.	-631.81
16081	3.2308	4.3636	0.	-631.05
16082	3.3231	4.3636	5.e-002	-3.2209e-006
16083	3.3231	4.0909	0.	-680.21
16084	3.2308	4.1818	0.	-684.81
16085	3.3231	4.1818	5.e-002	-1.4227e-005
16086	3.3231	3.9091	0.	-722.04
16087	3.2308	4.	0.	-731.96
16088	3.3231	4.	5.e-002	-3.9564e-006
16089	3.3231	3.7273	0.	-756.86
16090	3.2308	3.8182	0.	-771.96
16091	3.3231	3.8182	5.e-002	-1.0414e-005
16092	3.3231	3.5455	0.	-784.3
16093	3.2308	3.6364	0.	-804.43
16094	3.3231	3.6364	5.e-002	-2.7265e-006
16095	3.3231	3.3636	0.	-804.08
16096	3.2308	3.4545	0.	-829.03
16097	3.3231	3.4545	5.e-002	-2.0007e-006
16098	3.3231	3.1818	0.	-816.03
16099	3.2308	3.2727	0.	-845.56
16100	3.3231	3.2727	5.e-002	-1.2223e-006
16101	3.3231	3.	0.	-820.02
16102	3.2308	3.0909	0.	-853.85
16103	3.3231	3.0909	5.e-002	-4.7965e-007
16104	3.3231	2.8182	0.	-816.03
16105	3.2308	2.9091	0.	-853.85
16106	3.3231	2.9091	5.e-002	4.7965e-007
16107	3.3231	2.6364	0.	-804.08
16108	3.2308	2.7273	0.	-845.56
16109	3.3231	2.7273	5.e-002	1.5279e-006
16110	3.3231	2.4545	0.	-784.3
16111	3.2308	2.5455	0.	-829.03
16112	3.3231	2.5455	5.e-002	2.0007e-006
16113	3.3231	2.2727	0.	-756.86
16114	3.2308	2.3636	0.	-804.43
16115	3.3231	2.3636	5.e-002	2.7265e-006
16116	3.3231	2.0909	0.	-722.04
16117	3.2308	2.1818	0.	-771.96
16118	3.3231	2.1818	5.e-002	4.5102e-006
16119	3.3231	1.9091	0.	-680.21
16120	3.2308	2.	0.	-731.96
16121	3.3231	2.	5.e-002	5.2752e-006
16122	3.3231	1.7273	0.	-631.81
16123	3.2308	1.8182	0.	-684.81
16124	3.3231	1.8182	5.e-002	4.44e-006
16125	3.3231	1.5455	0.	-577.4
16126	3.2308	1.6364	0.	-631.05
16127	3.3231	1.6364	5.e-002	3.2209e-006
16128	3.3231	1.3636	0.	-517.62
16129	3.2308	1.4545	0.	-571.28
16130	3.3231	1.4545	5.e-002	5.6261e-005
16131	3.3231	1.1818	0.	-453.19
16132	3.2308	1.2727	0.	-506.22
16133	3.3231	1.2727	5.e-002	1.0713e-005
16134	3.3231	1.	0.	-384.9
16135	3.2308	1.0909	0.	-436.67
16136	3.3231	1.0909	5.e-002	5.1921e-005
16137	3.3231	0.81818	0.	-313.58
16138	3.2308	0.90909	0.	-363.51
16139	3.3231	0.90909	5.e-002	7.7194e-005
16140	3.3231	0.63636	0.	-240.1
16141	3.2308	0.72727	0.	-287.64
16142	3.3231	0.72727	5.e-002	7.8943e-005
16143	3.3231	0.45455	0.	-165.13
16144	3.2308	0.54545	0.	-210.01
16145	3.3231	0.54545	5.e-002	1.1443e-004
16146	3.3231	0.27273	0.	-88.447
16147	3.2308	0.36364	0.	-131.16
16148	3.3231	0.36364	5.e-002	8.0172e-005
16149	3.2308	0.18182	0.	-50.294
16150	3.3231	0.18182	5.e-002	1.13e-005
16151	3.3231	9.0909e-002	0.	-25.17
16152	3.1385	5.7273	0.	-92.528
16153	3.0462	5.8182	0.	-50.791
16154	3.1385	5.8182	5.e-002	-3.4608e-005
16155	3.1385	5.9091	0.	-25.071
16156	3.1385	5.5455	0.	-175.9
16157	3.0462	5.6364	0.	-138.76
16158	3.1385	5.6364	5.e-002	-6.2394e-005
16159	3.1385	5.3636	0.	-257.43
16160	3.0462	5.4545	0.	-224.47
16161	3.1385	5.4545	5.e-002	-1.2095e-004
16162	3.1385	5.1818	0.	-337.45
16163	3.0462	5.2727	0.	-309.01
16164	3.1385	5.2727	5.e-002	-5.8069e-005
16165	3.1385	5.	0.	-415.18
16166	3.0462	5.0909	0.	-391.71
16167	3.1385	5.0909	5.e-002	-8.1095e-005
16168	3.1385	4.8182	0.	-489.62
16169	3.0462	4.9091	0.	-471.49
16170	3.1385	4.9091	5.e-002	-4.9213e-005
16171	3.1385	4.6364	0.	-559.82
16172	3.0462	4.7273	0.	-547.3
16173	3.1385	4.7273	5.e-002	-6.9145e-005
16174	3.1385	4.4545	0.	-624.91
16175	3.0462	4.5455	0.	-618.15
16176	3.1385	4.5455	5.e-002	-4.1094e-005
16177	3.1385	4.2727	0.	-684.06
16178	3.0462	4.3636	0.	-683.14
16179	3.1385	4.3636	5.e-002	-1.7253e-005
16180	3.1385	4.0909	0.	-736.6
16181	3.0462	4.1818	0.	-741.5
16182	3.1385	4.1818	5.e-002	-2.7813e-005
16183	3.1385	3.9091	0.	-781.94
16184	3.0462	4.	0.	-792.56
16185	3.1385	4.	5.e-002	-1.3388e-005
16186	3.1385	3.7273	0.	-819.62
16187	3.0462	3.8182	0.	-835.81
16188	3.1385	3.8182	5.e-002	-1.6418e-005
16189	3.1385	3.5455	0.	-849.27
16190	3.0462	3.6364	0.	-870.85
16191	3.1385	3.6364	5.e-002	-6.8565e-006
16192	3.1385	3.3636	0.	-870.63
16193	3.0462	3.4545	0.	-897.37
16194	3.1385	3.4545	5.e-002	-2.778e-006
16195	3.1385	3.1818	0.	-883.52
16196	3.0462	3.2727	0.	-915.15
16197	3.1385	3.2727	5.e-002	-1.4852e-006
16198	3.1385	3.	0.	-887.83
16199	3.0462	3.0909	0.	-924.08
16200	3.1385	3.0909	5.e-002	-5.8517e-007
16201	3.1385	2.8182	0.	-883.52
16202	3.0462	2.9091	0.	-924.08
16203	3.1385	2.9091	5.e-002	4.1401e-007
16204	3.1385	2.6364	0.	-870.63
16205	3.0462	2.7273	0.	-915.15
16206	3.1385	2.7273	5.e-002	1.4852e-006
16207	3.1385	2.4545	0.	-849.27
16208	3.0462	2.5455	0.	-897.37
16209	3.1385	2.5455	5.e-002	2.0835e-006
16210	3.1385	2.2727	0.	-819.62
16211	3.0462	2.3636	0.	-870.85
16212	3.1385	2.3636	5.e-002	7.3296e-006
16213	3.1385	2.0909	0.	-781.94
16214	3.0462	2.1818	0.	-835.81
16215	3.1385	2.1818	5.e-002	9.9682e-006
16216	3.1385	1.9091	0.	-736.6
16217	3.0462	2.	0.	-792.56
16218	3.1385	2.	5.e-002	1.3388e-005
16219	3.1385	1.7273	0.	-684.06
16220	3.0462	1.8182	0.	-741.5
16221	3.1385	1.8182	5.e-002	2.9347e-005
16222	3.1385	1.5455	0.	-624.91
16223	3.0462	1.6364	0.	-683.14
16224	3.1385	1.6364	5.e-002	6.6543e-006
16225	3.1385	1.3636	0.	-559.82
16226	3.0462	1.4545	0.	-618.15
16227	3.1385	1.4545	5.e-002	4.8137e-005
16228	3.1385	1.1818	0.	-489.62
16229	3.0462	1.2727	0.	-547.3
16230	3.1385	1.2727	5.e-002	6.9145e-005
16231	3.1385	1.	0.	-415.18
16232	3.0462	1.0909	0.	-471.49
16233	3.1385	1.0909	5.e-002	5.2956e-005
16234	3.1385	0.81818	0.	-337.45
16235	3.0462	0.90909	0.	-391.71
16236	3.1385	0.90909	5.e-002	8.1095e-005
16237	3.1385	0.63636	0.	-257.43
16238	3.0462	0.72727	0.	-309.01
16239	3.1385	0.72727	5.e-002	2.9034e-005
16240	3.1385	0.45455	0.	-175.9
16241	3.0462	0.54545	0.	-224.47
16242	3.1385	0.54545	5.e-002	1.2953e-004
16243	3.1385	0.27273	0.	-92.528
16244	3.0462	0.36364	0.	-138.76
16245	3.1385	0.36364	5.e-002	8.7873e-005
16246	3.0462	0.18182	0.	-50.791
16247	3.1385	0.18182	5.e-002	3.4608e-005
16248	3.1385	9.0909e-002	0.	-25.071
16249	2.9538	5.7273	0.	-96.422
16250	2.8615	5.8182	0.	-50.735
16251	2.9538	5.8182	5.e-002	-2.3664e-005
16252	2.9538	5.9091	0.	-24.575
16253	2.9538	5.5455	0.	-187.16
16254	2.8615	5.6364	0.	-146.51
16255	2.9538	5.6364	5.e-002	-1.0008e-004
16256	2.9538	5.3636	0.	-275.91
16257	2.8615	5.4545	0.	-239.8
16258	2.9538	5.4545	5.e-002	-3.7311e-005
16259	2.9538	5.1818	0.	-363.14
16260	2.8615	5.2727	0.	-331.98
16261	2.9538	5.2727	5.e-002	-3.5768e-005
16262	2.9538	5.	0.	-447.92
16263	2.8615	5.0909	0.	-422.23
16264	2.9538	5.0909	5.e-002	-6.3327e-005
16265	2.9538	4.8182	0.	-529.09
16266	2.8615	4.9091	0.	-509.28
16267	2.9538	4.9091	5.e-002	-5.4146e-005
16268	2.9538	4.6364	0.	-605.58
16269	2.8615	4.7273	0.	-591.92
16270	2.9538	4.7273	5.e-002	-7.9414e-005
16271	2.9538	4.4545	0.	-676.37
16272	2.8615	4.5455	0.	-669.03
16273	2.9538	4.5455	5.e-002	-4.4812e-005
16274	2.9538	4.2727	0.	-740.59
16275	2.8615	4.3636	0.	-739.59
16276	2.9538	4.3636	5.e-002	-5.4576e-005
16277	2.9538	4.0909	0.	-797.51
16278	2.8615	4.1818	0.	-802.79
16279	2.9538	4.1818	5.e-002	-1.6653e-005
16280	2.9538	3.9091	0.	-846.52
16281	2.8615	4.	0.	-857.95
16282	2.9538	4.	5.e-002	-4.249e-006
16283	2.9538	3.7273	0.	-887.16
16284	2.8615	3.8182	0.	-904.54
16285	2.9538	3.8182	5.e-002	-1.1835e-005
16286	2.9538	3.5455	0.	-919.08
16287	2.8615	3.6364	0.	-942.2
16288	2.9538	3.6364	5.e-002	-2.9389e-006
16289	2.9538	3.3636	0.	-942.04
16290	2.8615	3.4545	0.	-970.63
16291	2.9538	3.4545	5.e-002	-2.5169e-006
16292	2.9538	3.1818	0.	-955.87
16293	2.8615	3.2727	0.	-989.68
16294	2.9538	3.2727	5.e-002	-2.2482e-006
16295	2.9538	3.	0.	-960.49
16296	2.8615	3.0909	0.	-999.23
16297	2.9538	3.0909	5.e-002	-5.1712e-007
16298	2.9538	2.8182	0.	-955.87
16299	2.8615	2.9091	0.	-999.23
16300	2.9538	2.9091	5.e-002	5.3559e-007
16301	2.9538	2.6364	0.	-942.04
16302	2.8615	2.7273	0.	-989.68
16303	2.9538	2.7273	5.e-002	1.5376e-006
16304	2.9538	2.4545	0.	-919.08
16305	2.8615	2.5455	0.	-970.63
16306	2.9538	2.5455	5.e-002	2.8765e-006
16307	2.9538	2.2727	0.	-887.16
16308	2.8615	2.3636	0.	-942.2
16309	2.9538	2.3636	5.e-002	2.9389e-006
16310	2.9538	2.0909	0.	-846.52
16311	2.8615	2.1818	0.	-904.54
16312	2.9538	2.1818	5.e-002	1.0621e-005
16313	2.9538	1.9091	0.	-797.51
16314	2.8615	2.	0.	-857.95
16315	2.9538	2.	5.e-002	4.249e-006
16316	2.9538	1.7273	0.	-740.59
16317	2.8615	1.8182	0.	-802.79
16318	2.9538	1.8182	5.e-002	1.6653e-005
16319	2.9538	1.5455	0.	-676.37
16320	2.8615	1.6364	0.	-739.59
16321	2.9538	1.6364	5.e-002	4.0948e-005
16322	2.9538	1.3636	0.	-605.58
16323	2.8615	1.4545	0.	-669.03
16324	2.9538	1.4545	5.e-002	2.0602e-005
16325	2.9538	1.1818	0.	-529.09
16326	2.8615	1.2727	0.	-591.92
16327	2.9538	1.2727	5.e-002	7.9414e-005
16328	2.9538	1.	0.	-447.92
16329	2.8615	1.0909	0.	-509.28
16330	2.9538	1.0909	5.e-002	5.7936e-005
16331	2.9538	0.81818	0.	-363.14
16332	2.8615	0.90909	0.	-422.23
16333	2.9538	0.90909	5.e-002	6.3327e-005
16334	2.9538	0.63636	0.	-275.91
16335	2.8615	0.72727	0.	-331.98
16336	2.9538	0.72727	5.e-002	3.1958e-005
16337	2.9538	0.45455	0.	-187.16
16338	2.8615	0.54545	0.	-239.8
16339	2.9538	0.54545	5.e-002	7.0826e-005
16340	2.9538	0.27273	0.	-96.422
16341	2.8615	0.36364	0.	-146.51
16342	2.9538	0.36364	5.e-002	6.4181e-005
16343	2.8615	0.18182	0.	-50.735
16344	2.9538	0.18182	5.e-002	2.3664e-005
16345	2.9538	9.0909e-002	0.	-24.575
16346	2.7692	5.7273	0.	-100.07
16347	2.6769	5.8182	0.	-50.029
16348	2.7692	5.8182	5.e-002	-1.2206e-005
16349	2.7692	5.9091	0.	-23.603
16350	2.7692	5.5455	0.	-198.96
16351	2.6769	5.6364	0.	-154.43
16352	2.7692	5.6364	5.e-002	-7.03e-005
16353	2.7692	5.3636	0.	-295.71
16354	2.6769	5.4545	0.	-256.14
16355	2.7692	5.4545	5.e-002	-1.5086e-004
16356	2.7692	5.1818	0.	-390.92
16357	2.6769	5.2727	0.	-356.79
16358	2.7692	5.2727	5.e-002	-1.4788e-004
16359	2.7692	5.	0.	-483.47
16360	2.6769	5.0909	0.	-455.41
16361	2.7692	5.0909	5.e-002	-9.7957e-005
16362	2.7692	4.8182	0.	-572.03
16363	2.6769	4.9091	0.	-550.48
16364	2.7692	4.9091	5.e-002	-5.9344e-005
16365	2.7692	4.6364	0.	-655.32
16366	2.6769	4.7273	0.	-640.57
16367	2.7692	4.7273	5.e-002	-3.0012e-005
16368	2.7692	4.4545	0.	-732.24
16369	2.6769	4.5455	0.	-724.4
16370	2.7692	4.5455	5.e-002	-4.4929e-005
16371	2.7692	4.2727	0.	-801.83
16372	2.6769	4.3636	0.	-800.88
16373	2.7692	4.3636	5.e-002	-4.4052e-005
16374	2.7692	4.0909	0.	-863.3
16375	2.6769	4.1818	0.	-869.13
16376	2.7692	4.1818	5.e-002	-1.7834e-005
16377	2.7692	3.9091	0.	-916.08
16378	2.6769	4.	0.	-928.48
16379	2.7692	4.	5.e-002	-2.6051e-005
16380	2.7692	3.7273	0.	-959.72
16381	2.6769	3.8182	0.	-978.44
16382	2.7692	3.8182	5.e-002	-3.7502e-006
16383	2.7692	3.5455	0.	-993.92
16384	2.6769	3.6364	0.	-1018.7
16385	2.7692	3.6364	5.e-002	-7.6397e-006
16386	2.7692	3.3636	0.	-1018.5
16387	2.6769	3.4545	0.	-1049.
16388	2.7692	3.4545	5.e-002	-2.5892e-006
16389	2.7692	3.1818	0.	-1033.2
16390	2.6769	3.2727	0.	-1069.3
16391	2.7692	3.2727	5.e-002	-2.6745e-006
16392	2.7692	3.	0.	-1038.2
16393	2.6769	3.0909	0.	-1079.4
16394	2.7692	3.0909	5.e-002	-6.283e-007
16395	2.7692	2.8182	0.	-1033.2
16396	2.6769	2.9091	0.	-1079.4
16397	2.7692	2.9091	5.e-002	5.5042e-007
16398	2.7692	2.6364	0.	-1018.5
16399	2.6769	2.7273	0.	-1069.3
16400	2.7692	2.7273	5.e-002	1.5808e-006
16401	2.7692	2.4545	0.	-993.92
16402	2.6769	2.5455	0.	-1049.
16403	2.7692	2.5455	5.e-002	2.9591e-006
16404	2.7692	2.2727	0.	-959.72
16405	2.6769	2.3636	0.	-1018.7
16406	2.7692	2.3636	5.e-002	8.6481e-006
16407	2.7692	2.0909	0.	-916.08
16408	2.6769	2.1818	0.	-978.44
16409	2.7692	2.1818	5.e-002	5.0002e-006
16410	2.7692	1.9091	0.	-863.3
16411	2.6769	2.	0.	-928.48
16412	2.7692	2.	5.e-002	2.3136e-005
16413	2.7692	1.7273	0.	-801.83
16414	2.6769	1.8182	0.	-869.13
16415	2.7692	1.8182	5.e-002	1.4581e-005
16416	2.7692	1.5455	0.	-732.24
16417	2.6769	1.6364	0.	-800.88
16418	2.7692	1.6364	5.e-002	4.0545e-005
16419	2.7692	1.3636	0.	-655.32
16420	2.6769	1.4545	0.	-724.4
16421	2.7692	1.4545	5.e-002	5.2288e-005
16422	2.7692	1.1818	0.	-572.03
16423	2.6769	1.2727	0.	-640.57
16424	2.7692	1.2727	5.e-002	6.0024e-005
16425	2.7692	1.	0.	-483.47
16426	2.6769	1.0909	0.	-550.48
16427	2.7692	1.0909	5.e-002	6.3157e-005
16428	2.7692	0.81818	0.	-390.92
16429	2.6769	0.90909	0.	-455.41
16430	2.7692	0.90909	5.e-002	6.911e-005
16431	2.7692	0.63636	0.	-295.71
16432	2.6769	0.72727	0.	-356.79
16433	2.7692	0.72727	5.e-002	1.4033e-004
16434	2.7692	0.45455	0.	-198.96
16435	2.6769	0.54545	0.	-256.14
16436	2.7692	0.54545	5.e-002	1.4712e-004
16437	2.7692	0.27273	0.	-100.07
16438	2.6769	0.36364	0.	-154.43
16439	2.7692	0.36364	5.e-002	7.03e-005
16440	2.6769	0.18182	0.	-50.029
16441	2.7692	0.18182	5.e-002	1.2206e-005
16442	2.7692	9.0909e-002	0.	-23.603
16443	2.5846	5.7273	0.	-103.42
16444	2.4923	5.8182	0.	-48.572
16445	2.5846	5.8182	5.e-002	-1.2681e-005
16446	2.5846	5.9091	0.	-22.061
16447	2.5846	5.5455	0.	-211.39
16448	2.4923	5.6364	0.	-162.55
16449	2.5846	5.6364	5.e-002	-1.1916e-004
16450	2.5846	5.3636	0.	-317.04
16451	2.4923	5.4545	0.	-273.66
16452	2.5846	5.4545	5.e-002	-1.2079e-004
16453	2.5846	5.1818	0.	-421.13
16454	2.4923	5.2727	0.	-383.81
16455	2.5846	5.2727	5.e-002	-7.6791e-005
16456	2.5846	5.	0.	-522.29
16457	2.4923	5.0909	0.	-491.75
16458	2.5846	5.0909	5.e-002	-1.1086e-004
16459	2.5846	4.8182	0.	-618.93
16460	2.4923	4.9091	0.	-595.65
16461	2.5846	4.9091	5.e-002	-1.0095e-004
16462	2.5846	4.6364	0.	-709.6
16463	2.4923	4.7273	0.	-693.85
16464	2.5846	4.7273	5.e-002	-3.2349e-005
16465	2.5846	4.4545	0.	-793.04
16466	2.4923	4.5455	0.	-784.88
16467	2.5846	4.5455	5.e-002	-3.1807e-005
16468	2.5846	4.2727	0.	-868.24
16469	2.4923	4.3636	0.	-867.55
16470	2.5846	4.3636	5.e-002	-2.4628e-015
16471	2.5846	4.0909	0.	-934.4
16472	2.4923	4.1818	0.	-940.98
16473	2.5846	4.1818	5.e-002	-6.6573e-006
16474	2.5846	3.9091	0.	-990.97
16475	2.4923	4.	0.	-1004.5
16476	2.5846	4.	5.e-002	-1.7499e-005
16477	2.5846	3.7273	0.	-1037.6
16478	2.4923	3.8182	0.	-1057.8
16479	2.5846	3.8182	5.e-002	-5.119e-006
16480	2.5846	3.5455	0.	-1074.
16481	2.4923	3.6364	0.	-1100.5
16482	2.5846	3.6364	5.e-002	-3.0936e-006
16483	2.5846	3.3636	0.	-1100.
16484	2.4923	3.4545	0.	-1132.6
16485	2.5846	3.4545	5.e-002	-7.6356e-006
16486	2.5846	3.1818	0.	-1115.7
16487	2.4923	3.2727	0.	-1154.
16488	2.5846	3.2727	5.e-002	-2.5158e-006
16489	2.5846	3.	0.	-1120.9
16490	2.4923	3.0909	0.	-1164.7
16491	2.5846	3.0909	5.e-002	-6.4234e-007
16492	2.5846	2.8182	0.	-1115.7
16493	2.4923	2.9091	0.	-1164.7
16494	2.5846	2.9091	5.e-002	5.417e-007
16495	2.5846	2.6364	0.	-1100.
16496	2.4923	2.7273	0.	-1154.
16497	2.5846	2.7273	5.e-002	1.8427e-006
16498	2.5846	2.4545	0.	-1074.
16499	2.4923	2.5455	0.	-1132.6
16500	2.5846	2.5455	5.e-002	3.0218e-006
16501	2.5846	2.2727	0.	-1037.6
16502	2.4923	2.3636	0.	-1100.5
16503	2.5846	2.3636	5.e-002	3.0936e-006
16504	2.5846	2.0909	0.	-990.97
16505	2.4923	2.1818	0.	-1057.8
16506	2.5846	2.1818	5.e-002	5.119e-006
16507	2.5846	1.9091	0.	-934.4
16508	2.4923	2.	0.	-1004.5
16509	2.5846	2.	5.e-002	1.6006e-005
16510	2.5846	1.7273	0.	-868.24
16511	2.4923	1.8182	0.	-940.98
16512	2.5846	1.8182	5.e-002	6.6573e-006
16513	2.5846	1.5455	0.	-793.04
16514	2.4923	1.6364	0.	-867.55
16515	2.5846	1.6364	5.e-002	2.3532e-005
16516	2.5846	1.3636	0.	-709.6
16517	2.4923	1.4545	0.	-784.88
16518	2.5846	1.4545	5.e-002	2.8072e-005
16519	2.5846	1.1818	0.	-618.93
16520	2.4923	1.2727	0.	-693.85
16521	2.5846	1.2727	5.e-002	2.8543e-005
16522	2.5846	1.	0.	-522.29
16523	2.4923	1.0909	0.	-595.65
16524	2.5846	1.0909	5.e-002	6.8567e-005
16525	2.5846	0.81818	0.	-421.13
16526	2.4923	0.90909	0.	-491.75
16527	2.5846	0.90909	5.e-002	1.1086e-004
16528	2.5846	0.63636	0.	-317.04
16529	2.4923	0.72727	0.	-383.81
16530	2.5846	0.72727	5.e-002	7.6791e-005
16531	2.5846	0.45455	0.	-211.39
16532	2.4923	0.54545	0.	-273.66
16533	2.5846	0.54545	5.e-002	8.0529e-005
16534	2.5846	0.27273	0.	-103.42
16535	2.4923	0.36364	0.	-162.55
16536	2.5846	0.36364	5.e-002	7.6985e-005
16537	2.4923	0.18182	0.	-48.572
16538	2.5846	0.18182	5.e-002	1.2681e-005
16539	2.5846	9.0909e-002	0.	-22.061
16540	2.4	5.7273	0.	-106.43
16541	2.3077	5.8182	0.	-46.267
16542	2.4	5.8182	5.e-002	-3.9131e-005
16543	2.4	5.9091	0.	-19.846
16544	2.4	5.5455	0.	-224.57
16545	2.3077	5.6364	0.	-170.92
16546	2.4	5.6364	5.e-002	-1.685e-004
16547	2.4	5.3636	0.	-340.23
16548	2.3077	5.4545	0.	-292.66
16549	2.4	5.4545	5.e-002	-8.7861e-005
16550	2.4	5.1818	0.	-454.26
16551	2.3077	5.2727	0.	-413.52
16552	2.4	5.2727	5.e-002	-8.3719e-005
16553	2.4	5.	0.	-564.98
16554	2.3077	5.0909	0.	-531.89
16555	2.4	5.0909	5.e-002	-7.7729e-005
16556	2.4	4.8182	0.	-670.48
16557	2.3077	4.9091	0.	-645.56
16558	2.4	4.9091	5.e-002	-7.4086e-005
16559	2.4	4.6364	0.	-769.09
16560	2.3077	4.7273	0.	-752.55
16561	2.4	4.7273	5.e-002	-6.9358e-005
16562	2.4	4.4545	0.	-859.41
16563	2.3077	4.5455	0.	-851.2
16564	2.4	4.5455	5.e-002	-5.6108e-005
16565	2.4	4.2727	0.	-940.38
16566	2.3077	4.3636	0.	-940.27
16567	2.4	4.3636	5.e-002	-2.8573e-005
16568	2.4	4.0909	0.	-1011.2
16569	2.3077	4.1818	0.	-1018.9
16570	2.4	4.1818	5.e-002	-2.3309e-005
16571	2.4	3.9091	0.	-1071.5
16572	2.3077	4.	0.	-1086.5
16573	2.4	4.	5.e-002	-1.8182e-005
16574	2.4	3.7273	0.	-1120.9
16575	2.3077	3.8182	0.	-1142.8
16576	2.4	3.8182	5.e-002	-1.3418e-005
16577	2.4	3.5455	0.	-1159.4
16578	2.3077	3.6364	0.	-1187.8
16579	2.4	3.6364	5.e-002	-3.1398e-006
16580	2.4	3.3636	0.	-1186.8
16581	2.3077	3.4545	0.	-1221.4
16582	2.4	3.4545	5.e-002	-7.0375e-006
16583	2.4	3.1818	0.	-1203.2
16584	2.3077	3.2727	0.	-1243.8
16585	2.4	3.2727	5.e-002	-1.63e-006
16586	2.4	3.	0.	-1208.7
16587	2.3077	3.0909	0.	-1254.9
16588	2.4	3.0909	5.e-002	-6.4976e-007
16589	2.4	2.8182	0.	-1203.2
16590	2.3077	2.9091	0.	-1254.9
16591	2.4	2.9091	5.e-002	5.471e-007
16592	2.4	2.6364	0.	-1186.8
16593	2.3077	2.7273	0.	-1243.8
16594	2.4	2.7273	5.e-002	1.63e-006
16595	2.4	2.4545	0.	-1159.4
16596	2.3077	2.5455	0.	-1221.4
16597	2.4	2.5455	5.e-002	5.6226e-006
16598	2.4	2.2727	0.	-1120.9
16599	2.3077	2.3636	0.	-1187.8
16600	2.4	2.3636	5.e-002	2.0932e-006
16601	2.4	2.0909	0.	-1071.5
16602	2.3077	2.1818	0.	-1142.8
16603	2.4	2.1818	5.e-002	1.3418e-005
16604	2.4	1.9091	0.	-1011.2
16605	2.3077	2.	0.	-1086.5
16606	2.4	2.	5.e-002	1.8182e-005
16607	2.4	1.7273	0.	-940.38
16608	2.3077	1.8182	0.	-1018.9
16609	2.4	1.8182	5.e-002	1.9919e-005
16610	2.4	1.5455	0.	-859.41
16611	2.3077	1.6364	0.	-940.27
16612	2.4	1.6364	5.e-002	2.8573e-005
16613	2.4	1.3636	0.	-769.09
16614	2.3077	1.4545	0.	-851.2
16615	2.4	1.4545	5.e-002	5.2332e-005
16616	2.4	1.1818	0.	-670.48
16617	2.3077	1.2727	0.	-752.55
16618	2.4	1.2727	5.e-002	6.1729e-005
16619	2.4	1.	0.	-564.98
16620	2.3077	1.0909	0.	-645.56
16621	2.4	1.0909	5.e-002	7.7856e-005
16622	2.4	0.81818	0.	-454.26
16623	2.3077	0.90909	0.	-531.89
16624	2.4	0.90909	5.e-002	3.9762e-005
16625	2.4	0.63636	0.	-340.23
16626	2.3077	0.72727	0.	-413.52
16627	2.4	0.72727	5.e-002	9.0801e-005
16628	2.4	0.45455	0.	-224.57
16629	2.3077	0.54545	0.	-292.66
16630	2.4	0.54545	5.e-002	4.3931e-005
16631	2.4	0.27273	0.	-106.43
16632	2.3077	0.36364	0.	-170.92
16633	2.4	0.36364	5.e-002	1.2638e-004
16634	2.3077	0.18182	0.	-46.267
16635	2.4	0.18182	5.e-002	4.3772e-005
16636	2.4	9.0909e-002	0.	-19.846
16637	2.2154	5.7273	0.	-109.04
16638	2.1231	5.8182	0.	-43.042
16639	2.2154	5.8182	5.e-002	-1.4089e-005
16640	2.2154	5.9091	0.	-16.845
16641	2.2154	5.5455	0.	-238.71
16642	2.1231	5.6364	0.	-179.66
16643	2.2154	5.6364	5.e-002	-1.3806e-004
16644	2.2154	5.3636	0.	-365.71
16645	2.1231	5.4545	0.	-313.53
16646	2.2154	5.4545	5.e-002	-1.4941e-004
16647	2.2154	5.1818	0.	-490.96
16648	2.1231	5.2727	0.	-446.59
16649	2.2154	5.2727	5.e-002	-9.0815e-005
16650	2.2154	5.	0.	-612.34
16651	2.1231	5.0909	0.	-576.73
16652	2.2154	5.0909	5.e-002	-4.9146e-005
16653	2.2154	4.8182	0.	-727.55
16654	2.1231	4.9091	0.	-701.2
16655	2.2154	4.9091	5.e-002	-4.5348e-005
16656	2.2154	4.6364	0.	-834.65
16657	2.1231	4.7273	0.	-817.66
16658	2.2154	4.7273	5.e-002	-6.6278e-005
16659	2.2154	4.4545	0.	-932.11
16660	2.1231	4.5455	0.	-924.28
16661	2.2154	4.5455	5.e-002	-2.7887e-005
16662	2.2154	4.2727	0.	-1018.9
16663	2.1231	4.3636	0.	-1019.8
16664	2.2154	4.3636	5.e-002	-7.9655e-005
16665	2.2154	4.0909	0.	-1094.3
16666	2.1231	4.1818	0.	-1103.4
16667	2.2154	4.1818	5.e-002	-4.8923e-005
16668	2.2154	3.9091	0.	-1158.
16669	2.1231	4.	0.	-1174.7
16670	2.2154	4.	5.e-002	-2.5017e-005
16671	2.2154	3.7273	0.	-1209.9
16672	2.1231	3.8182	0.	-1233.8
16673	2.2154	3.8182	5.e-002	-1.7101e-005
16674	2.2154	3.5455	0.	-1250.1
16675	2.1231	3.6364	0.	-1280.6
16676	2.2154	3.6364	5.e-002	-3.1599e-006
16677	2.2154	3.3636	0.	-1278.7
16678	2.1231	3.4545	0.	-1315.4
16679	2.2154	3.4545	5.e-002	-2.6864e-006
16680	2.2154	3.1818	0.	-1295.8
16681	2.1231	3.2727	0.	-1338.5
16682	2.2154	3.2727	5.e-002	-2.5568e-006
16683	2.2154	3.	0.	-1301.5
16684	2.1231	3.0909	0.	-1350.
16685	2.2154	3.0909	5.e-002	-5.4691e-007
16686	2.2154	2.8182	0.	-1295.8
16687	2.1231	2.9091	0.	-1350.
16688	2.2154	2.9091	5.e-002	5.4691e-007
16689	2.2154	2.6364	0.	-1278.7
16690	2.1231	2.7273	0.	-1338.5
16691	2.2154	2.7273	5.e-002	1.8645e-006
16692	2.2154	2.4545	0.	-1250.1
16693	2.1231	2.5455	0.	-1315.4
16694	2.2154	2.5455	5.e-002	2.6864e-006
16695	2.2154	2.2727	0.	-1209.9
16696	2.1231	2.3636	0.	-1280.6
16697	2.2154	2.3636	5.e-002	2.1066e-006
16698	2.2154	2.0909	0.	-1158.
16699	2.1231	2.1818	0.	-1233.8
16700	2.2154	2.1818	5.e-002	2.6287e-006
16701	2.2154	1.9091	0.	-1094.3
16702	2.1231	2.	0.	-1174.7
16703	2.2154	2.	5.e-002	2.1748e-005
16704	2.2154	1.7273	0.	-1018.9
16705	2.1231	1.8182	0.	-1103.4
16706	2.2154	1.8182	5.e-002	4.142e-005
16707	2.2154	1.5455	0.	-932.11
16708	2.1231	1.6364	0.	-1019.8
16709	2.2154	1.6364	5.e-002	2.9853e-005
16710	2.2154	1.3636	0.	-834.65
16711	2.1231	1.4545	0.	-924.28
16712	2.2154	1.4545	5.e-002	3.1687e-005
16713	2.2154	1.1818	0.	-727.55
16714	2.1231	1.2727	0.	-817.66
16715	2.2154	1.2727	5.e-002	1.1082e-004
16716	2.2154	1.	0.	-612.34
16717	2.1231	1.0909	0.	-701.2
16718	2.2154	1.0909	5.e-002	-2.7832e-015
16719	2.2154	0.81818	0.	-490.96
16720	2.1231	0.90909	0.	-576.73
16721	2.2154	0.90909	5.e-002	8.4173e-005
16722	2.2154	0.63636	0.	-365.71
16723	2.1231	0.72727	0.	-446.59
16724	2.2154	0.72727	5.e-002	4.5407e-005
16725	2.2154	0.45455	0.	-238.71
16726	2.1231	0.54545	0.	-313.53
16727	2.2154	0.54545	5.e-002	9.5406e-005
16728	2.2154	0.27273	0.	-109.04
16729	2.1231	0.36364	0.	-179.66
16730	2.2154	0.36364	5.e-002	9.2042e-005
16731	2.1231	0.18182	0.	-43.042
16732	2.2154	0.18182	5.e-002	3.4607e-005
16733	2.2154	9.0909e-002	0.	-16.845
16734	2.0308	5.7273	0.	-111.25
16735	1.9385	5.8182	0.	-38.88
16736	2.0308	5.8182	5.e-002	-2.9571e-005
16737	2.0308	5.9091	0.	-12.953
16738	2.0308	5.5455	0.	-254.13
16739	1.9385	5.6364	0.	-188.96
16740	2.0308	5.6364	5.e-002	-2.0032e-004
16741	2.0308	5.3636	0.	-394.14
16742	1.9385	5.4545	0.	-336.88
16743	2.0308	5.4545	5.e-002	-1.0289e-004
16744	2.0308	5.1818	0.	-532.16
16745	1.9385	5.2727	0.	-484.01
16746	2.0308	5.2727	5.e-002	-2.9315e-015
16747	2.0308	5.	0.	-665.46
16748	1.9385	5.0909	0.	-627.49
16749	2.0308	5.0909	5.e-002	-9.0558e-005
16750	2.0308	4.8182	0.	-791.26
16751	1.9385	4.9091	0.	-763.89
16752	2.0308	4.9091	5.e-002	-4.7865e-005
16753	2.0308	4.6364	0.	-907.33
16754	1.9385	4.7273	0.	-890.47
16755	2.0308	4.7273	5.e-002	-1.0961e-004
16756	2.0308	4.4545	0.	-1012.
16757	1.9385	4.5455	0.	-1005.2
16758	2.0308	4.5455	5.e-002	-4.0846e-005
16759	2.0308	4.2727	0.	-1104.4
16760	1.9385	4.3636	0.	-1106.9
16761	2.0308	4.3636	5.e-002	-3.7108e-006
16762	2.0308	4.0909	0.	-1184.
16763	1.9385	4.1818	0.	-1195.1
16764	2.0308	4.1818	5.e-002	-2.124e-005
16765	2.0308	3.9091	0.	-1250.7
16766	1.9385	4.	0.	-1269.6
16767	2.0308	4.	5.e-002	-6.1948e-006
16768	2.0308	3.7273	0.	-1304.7
16769	1.9385	3.8182	0.	-1330.7
16770	2.0308	3.8182	5.e-002	-2.2128e-005
16771	2.0308	3.5455	0.	-1346.2
16772	1.9385	3.6364	0.	-1378.8
16773	2.0308	3.6364	5.e-002	-4.1999e-006
16774	2.0308	3.3636	0.	-1375.6
16775	1.9385	3.4545	0.	-1414.4
16776	2.0308	3.4545	5.e-002	-5.5896e-006
16777	2.0308	3.1818	0.	-1393.1
16778	1.9385	3.2727	0.	-1437.9
16779	2.0308	3.2727	5.e-002	-2.2908e-006
16780	2.0308	3.	0.	-1398.9
16781	1.9385	3.0909	0.	-1449.6
16782	2.0308	3.0909	5.e-002	-5.4057e-007
16783	2.0308	2.8182	0.	-1393.1
16784	1.9385	2.9091	0.	-1449.6
16785	2.0308	2.9091	5.e-002	5.4057e-007
16786	2.0308	2.6364	0.	-1375.6
16787	1.9385	2.7273	0.	-1437.9
16788	2.0308	2.7273	5.e-002	2.5215e-006
16789	2.0308	2.4545	0.	-1346.2
16790	1.9385	2.5455	0.	-1414.4
16791	2.0308	2.5455	5.e-002	5.5896e-006
16792	2.0308	2.2727	0.	-1304.7
16793	1.9385	2.3636	0.	-1378.8
16794	2.0308	2.3636	5.e-002	3.15e-006
16795	2.0308	2.0909	0.	-1250.7
16796	1.9385	2.1818	0.	-1330.7
16797	2.0308	2.1818	5.e-002	1.238e-005
16798	2.0308	1.9091	0.	-1184.
16799	1.9385	2.	0.	-1269.6
16800	2.0308	2.	5.e-002	3.0974e-006
16801	2.0308	1.7273	0.	-1104.4
16802	1.9385	1.8182	0.	-1195.1
16803	2.0308	1.8182	5.e-002	2.124e-005
16804	2.0308	1.5455	0.	-1012.
16805	1.9385	1.6364	0.	-1106.9
16806	2.0308	1.6364	5.e-002	2.7156e-005
16807	2.0308	1.3636	0.	-907.33
16808	1.9385	1.4545	0.	-1005.2
16809	2.0308	1.4545	5.e-002	2.941e-005
16810	2.0308	1.1818	0.	-791.26
16811	1.9385	1.2727	0.	-890.47
16812	2.0308	1.2727	5.e-002	4.2817e-005
16813	2.0308	1.	0.	-665.46
16814	1.9385	1.0909	0.	-763.89
16815	2.0308	1.0909	5.e-002	4.0671e-005
16816	2.0308	0.81818	0.	-532.16
16817	1.9385	0.90909	0.	-627.49
16818	2.0308	0.90909	5.e-002	9.0558e-005
16819	2.0308	0.63636	0.	-394.14
16820	1.9385	0.72727	0.	-484.01
16821	2.0308	0.72727	5.e-002	6.0839e-006
16822	2.0308	0.45455	0.	-254.13
16823	1.9385	0.54545	0.	-336.88
16824	2.0308	0.54545	5.e-002	5.1445e-005
16825	2.0308	0.27273	0.	-111.25
16826	1.9385	0.36364	0.	-188.96
16827	2.0308	0.36364	5.e-002	1.0016e-004
16828	1.9385	0.18182	0.	-38.88
16829	2.0308	0.18182	5.e-002	1.5144e-005
16830	2.0308	9.0909e-002	0.	-12.953
16831	1.8462	5.7273	0.	-113.08
16832	1.7538	5.8182	0.	-33.893
16833	1.8462	5.8182	5.e-002	-3.3147e-005
16834	1.8462	5.9091	0.	-8.1895
16835	1.8462	5.5455	0.	-271.31
16836	1.7538	5.6364	0.	-199.17
16837	1.8462	5.6364	5.e-002	-2.1635e-004
16838	1.8462	5.3636	0.	-426.47
16839	1.7538	5.4545	0.	-363.65
16840	1.8462	5.4545	5.e-002	-1.0988e-004
16841	1.8462	5.1818	0.	-579.14
16842	1.7538	5.2727	0.	-527.2
16843	1.8462	5.2727	5.e-002	-2.0911e-004
16844	1.8462	5.	0.	-725.81
16845	1.7538	5.0909	0.	-685.88
16846	1.8462	5.0909	5.e-002	-4.8324e-005
16847	1.8462	4.8182	0.	-863.09
16848	1.7538	4.9091	0.	-835.4
16849	1.8462	4.9091	5.e-002	-1.2965e-004
16850	1.8462	4.6364	0.	-988.44
16851	1.7538	4.7273	0.	-972.55
16852	1.8462	4.7273	5.e-002	-7.4353e-005
16853	1.8462	4.4545	0.	-1100.3
16854	1.7538	4.5455	0.	-1095.3
16855	1.8462	4.5455	5.e-002	-6.5056e-005
16856	1.8462	4.2727	0.	-1197.8
16857	1.7538	4.3636	0.	-1202.7
16858	1.8462	4.3636	5.e-002	-5.5569e-005
16859	1.8462	4.0909	0.	-1280.9
16860	1.7538	4.1818	0.	-1294.5
16861	1.8462	4.1818	5.e-002	-1.3905e-005
16862	1.8462	3.9091	0.	-1349.8
16863	1.7538	4.	0.	-1371.3
16864	1.8462	4.	5.e-002	-3.0913e-006
16865	1.8462	3.7273	0.	-1405.1
16866	1.7538	3.8182	0.	-1433.6
16867	1.8462	3.8182	5.e-002	-2.8732e-005
16868	1.8462	3.5455	0.	-1447.4
16869	1.7538	3.6364	0.	-1482.2
16870	1.8462	3.6364	5.e-002	-7.9951e-006
16871	1.8462	3.3636	0.	-1477.1
16872	1.7538	3.4545	0.	-1518.
16873	1.8462	3.4545	5.e-002	-2.9914e-006
16874	1.8462	3.1818	0.	-1494.7
16875	1.7538	3.2727	0.	-1541.5
16876	1.8462	3.2727	5.e-002	-1.3539e-006
16877	1.8462	3.	0.	-1500.6
16878	1.7538	3.0909	0.	-1553.1
16879	1.8462	3.0909	5.e-002	-5.0892e-007
16880	1.8462	2.8182	0.	-1494.7
16881	1.7538	2.9091	0.	-1553.1
16882	1.8462	2.9091	5.e-002	5.2777e-007
16883	1.8462	2.6364	0.	-1477.1
16884	1.7538	2.7273	0.	-1541.5
16885	1.8462	2.7273	5.e-002	1.1282e-006
16886	1.8462	2.4545	0.	-1447.4
16887	1.7538	2.5455	0.	-1518.
16888	1.8462	2.5455	5.e-002	2.9914e-006
16889	1.8462	2.2727	0.	-1405.1
16890	1.7538	2.3636	0.	-1482.2
16891	1.8462	2.3636	5.e-002	4.1419e-006
16892	1.8462	2.0909	0.	-1349.8
16893	1.7538	2.1818	0.	-1433.6
16894	1.8462	2.1818	5.e-002	3.0038e-005
16895	1.8462	1.9091	0.	-1280.9
16896	1.7538	2.	0.	-1371.3
16897	1.8462	2.	5.e-002	6.1826e-006
16898	1.8462	1.7273	0.	-1197.8
16899	1.7538	1.8182	0.	-1294.5
16900	1.8462	1.8182	5.e-002	3.4763e-006
16901	1.8462	1.5455	0.	-1100.3
16902	1.7538	1.6364	0.	-1202.7
16903	1.8462	1.6364	5.e-002	5.184e-005
16904	1.8462	1.3636	0.	-988.44
16905	1.7538	1.4545	0.	-1095.3
16906	1.8462	1.4545	5.e-002	6.887e-005
16907	1.8462	1.1818	0.	-863.09
16908	1.7538	1.2727	0.	-972.55
16909	1.8462	1.2727	5.e-002	8.9245e-005
16910	1.8462	1.	0.	-725.81
16911	1.7538	1.0909	0.	-835.4
16912	1.8462	1.0909	5.e-002	1.0031e-004
16913	1.8462	0.81818	0.	-579.14
16914	1.7538	0.90909	0.	-685.88
16915	1.8462	0.90909	5.e-002	6.1961e-006
16916	1.8462	0.63636	0.	-426.47
16917	1.7538	0.72727	0.	-527.2
16918	1.8462	0.72727	5.e-002	5.7627e-005
16919	1.8462	0.45455	0.	-271.31
16920	1.7538	0.54545	0.	-363.65
16921	1.8462	0.54545	5.e-002	9.1505e-006
16922	1.8462	0.27273	0.	-113.08
16923	1.7538	0.36364	0.	-199.17
16924	1.8462	0.36364	5.e-002	1.0817e-004
16925	1.7538	0.18182	0.	-33.893
16926	1.8462	0.18182	5.e-002	1.6574e-005
16927	1.8462	9.0909e-002	0.	-8.1895
16928	1.6615	5.7273	0.	-114.63
16929	1.5692	5.8182	0.	-28.448
16930	1.6615	5.8182	5.e-002	-3.7128e-005
16931	1.6615	5.9091	0.	-3.3967
16932	1.6615	5.5455	0.	-291.03
16933	1.5692	5.6364	0.	-210.87
16934	1.6615	5.6364	5.e-002	-1.7294e-004
16935	1.6615	5.3636	0.	-464.07
16936	1.5692	5.4545	0.	-395.27
16937	1.6615	5.4545	5.e-002	-1.7368e-004
16938	1.6615	5.1818	0.	-633.75
16939	1.5692	5.2727	0.	-578.26
16940	1.6615	5.2727	5.e-002	-2.2101e-004
16941	1.6615	5.	0.	-795.4
16942	1.5692	5.0909	0.	-754.31
16943	1.6615	5.0909	5.e-002	-1.5447e-004
16944	1.6615	4.8182	0.	-944.92
16945	1.5692	4.9091	0.	-918.05
16946	1.6615	4.9091	5.e-002	-3.5115e-015
16947	1.6615	4.6364	0.	-1079.6
16948	1.5692	4.7273	0.	-1065.9
16949	1.6615	4.7273	5.e-002	-7.7358e-005
16950	1.6615	4.4545	0.	-1197.9
16951	1.5692	4.5455	0.	-1196.
16952	1.6615	4.5455	5.e-002	-6.6559e-005
16953	1.6615	4.2727	0.	-1299.7
16954	1.5692	4.3636	0.	-1307.9
16955	1.6615	4.3636	5.e-002	-2.7938e-005
16956	1.6615	4.0909	0.	-1385.2
16957	1.5692	4.1818	0.	-1402.2
16958	1.6615	4.1818	5.e-002	-2.1193e-005
16959	1.6615	3.9091	0.	-1455.3
16960	1.5692	4.	0.	-1479.9
16961	1.6615	4.	5.e-002	-2.4493e-005
16962	1.6615	3.7273	0.	-1511.
16963	1.5692	3.8182	0.	-1542.2
16964	1.6615	3.8182	5.e-002	-2.5622e-006
16965	1.6615	3.5455	0.	-1553.2
16966	1.5692	3.6364	0.	-1590.4
16967	1.6615	3.6364	5.e-002	-3.0265e-006
16968	1.6615	3.3636	0.	-1582.7
16969	1.5692	3.4545	0.	-1625.6
16970	1.6615	3.4545	5.e-002	-5.1863e-006
16971	1.6615	3.1818	0.	-1600.1
16972	1.5692	3.2727	0.	-1648.6
16973	1.6615	3.2727	5.e-002	-1.3069e-006
16974	1.6615	3.	0.	-1605.9
16975	1.5692	3.0909	0.	-1659.9
16976	1.6615	3.0909	5.e-002	-4.5401e-007
16977	1.6615	2.8182	0.	-1600.1
16978	1.5692	2.9091	0.	-1659.9
16979	1.6615	2.9091	5.e-002	4.7217e-007
16980	1.6615	2.6364	0.	-1582.7
16981	1.5692	2.7273	0.	-1648.6
16982	1.6615	2.7273	5.e-002	1.5247e-006
16983	1.6615	2.4545	0.	-1553.2
16984	1.5692	2.5455	0.	-1625.6
16985	1.6615	2.5455	5.e-002	4.4617e-006
16986	1.6615	2.2727	0.	-1511.
16987	1.5692	2.3636	0.	-1590.4
16988	1.6615	2.3636	5.e-002	2.0176e-006
16989	1.6615	2.0909	0.	-1455.3
16990	1.5692	2.1818	0.	-1542.2
16991	1.6615	2.1818	5.e-002	3.8432e-006
16992	1.6615	1.9091	0.	-1385.2
16993	1.5692	2.	0.	-1479.9
16994	1.6615	2.	5.e-002	9.1713e-006
16995	1.6615	1.7273	0.	-1299.7
16996	1.5692	1.8182	0.	-1402.2
16997	1.6615	1.8182	5.e-002	2.1193e-005
16998	1.6615	1.5455	0.	-1197.9
16999	1.5692	1.6364	0.	-1307.9
17000	1.6615	1.6364	5.e-002	2.7938e-005
17001	1.6615	1.3636	0.	-1079.6
17002	1.5692	1.4545	0.	-1196.
17003	1.6615	1.4545	5.e-002	6.6559e-005
17004	1.6615	1.1818	0.	-944.92
17005	1.5692	1.2727	0.	-1065.9
17006	1.6615	1.2727	5.e-002	3.8679e-005
17007	1.6615	1.	0.	-795.4
17008	1.5692	1.0909	0.	-918.05
17009	1.6615	1.0909	5.e-002	-3.5115e-015
17010	1.6615	0.81818	0.	-633.75
17011	1.5692	0.90909	0.	-754.31
17012	1.6615	0.90909	5.e-002	5.1076e-005
17013	1.6615	0.63636	0.	-464.07
17014	1.5692	0.72727	0.	-578.26
17015	1.6615	0.72727	5.e-002	1.6576e-004
17016	1.6615	0.45455	0.	-291.03
17017	1.5692	0.54545	0.	-395.27
17018	1.6615	0.54545	5.e-002	1.7368e-004
17019	1.6615	0.27273	0.	-114.63
17020	1.5692	0.36364	0.	-210.87
17021	1.6615	0.36364	5.e-002	1.7294e-004
17022	1.5692	0.18182	0.	-28.448
17023	1.6615	0.18182	5.e-002	5.5692e-005
17024	1.6615	9.0909e-002	0.	-3.3967
17025	1.4769	5.7273	0.	-116.13
17026	1.3846	5.8182	0.	-23.205
17027	1.4769	5.8182	5.e-002	-2.143e-005
17028	1.4769	5.9091	0.	-0.9938
17029	1.4769	5.5455	0.	-314.54
17030	1.3846	5.6364	0.	-225.
17031	1.4769	5.6364	5.e-002	-1.8055e-004
17032	1.4769	5.3636	0.	-509.12
17033	1.3846	5.4545	0.	-433.95
17034	1.4769	5.4545	5.e-002	-2.4205e-004
17035	1.4769	5.1818	0.	-698.67
17036	1.3846	5.2727	0.	-640.25
17037	1.4769	5.2727	5.e-002	-1.7339e-004
17038	1.4769	5.	0.	-876.98
17039	1.3846	5.0909	0.	-836.07
17040	1.4769	5.0909	5.e-002	-1.1181e-004
17041	1.4769	4.8182	0.	-1039.2
17042	1.3846	4.9091	0.	-1014.8
17043	1.4769	4.9091	5.e-002	-9.4363e-005
17044	1.4769	4.6364	0.	-1182.5
17045	1.3846	4.7273	0.	-1172.7
17046	1.4769	4.7273	5.e-002	-1.2413e-004
17047	1.4769	4.4545	0.	-1306.2
17048	1.3846	4.5455	0.	-1308.6
17049	1.4769	4.5455	5.e-002	-7.4169e-005
17050	1.4769	4.2727	0.	-1410.7
17051	1.3846	4.3636	0.	-1423.2
17052	1.4769	4.3636	5.e-002	-3.492e-005
17053	1.4769	4.0909	0.	-1497.2
17054	1.3846	4.1818	0.	-1518.1
17055	1.4769	4.1818	5.e-002	-2.0455e-005
17056	1.4769	3.9091	0.	-1567.1
17057	1.3846	4.	0.	-1595.
17058	1.4769	4.	5.e-002	-2.9909e-005
17059	1.4769	3.7273	0.	-1621.9
17060	1.3846	3.8182	0.	-1655.9
17061	1.4769	3.8182	5.e-002	-2.5727e-005
17062	1.4769	3.5455	0.	-1663.1
17063	1.3846	3.6364	0.	-1702.6
17064	1.4769	3.6364	5.e-002	-1.6586e-005
17065	1.4769	3.3636	0.	-1691.8
17066	1.3846	3.4545	0.	-1736.4
17067	1.4769	3.4545	5.e-002	-2.0768e-006
17068	1.4769	3.1818	0.	-1708.6
17069	1.3846	3.2727	0.	-1758.3
17070	1.4769	3.2727	5.e-002	-1.7662e-006
17071	1.4769	3.	0.	-1714.2
17072	1.3846	3.0909	0.	-1769.1
17073	1.4769	3.0909	5.e-002	-4.9403e-007
17074	1.4769	2.8182	0.	-1708.6
17075	1.3846	2.9091	0.	-1769.1
17076	1.4769	2.9091	5.e-002	3.7953e-007
17077	1.4769	2.6364	0.	-1691.8
17078	1.3846	2.7273	0.	-1758.3
17079	1.4769	2.7273	5.e-002	2.1808e-006
17080	1.4769	2.4545	0.	-1663.1
17081	1.3846	2.5455	0.	-1736.4
17082	1.4769	2.5455	5.e-002	1.7306e-006
17083	1.4769	2.2727	0.	-1621.9
17084	1.3846	2.3636	0.	-1702.6
17085	1.4769	2.3636	5.e-002	7.1443e-006
17086	1.4769	2.0909	0.	-1567.1
17087	1.3846	2.1818	0.	-1655.9
17088	1.4769	2.1818	5.e-002	1.2304e-005
17089	1.4769	1.9091	0.	-1497.2
17090	1.3846	2.	0.	-1595.
17091	1.4769	2.	5.e-002	2.053e-005
17092	1.4769	1.7273	0.	-1410.7
17093	1.3846	1.8182	0.	-1518.1
17094	1.4769	1.8182	5.e-002	2.0455e-005
17095	1.4769	1.5455	0.	-1306.2
17096	1.3846	1.6364	0.	-1423.2
17097	1.4769	1.6364	5.e-002	8.8038e-005
17098	1.4769	1.3636	0.	-1182.5
17099	1.3846	1.4545	0.	-1308.6
17100	1.4769	1.4545	5.e-002	1.1201e-005
17101	1.4769	1.1818	0.	-1039.2
17102	1.3846	1.2727	0.	-1172.7
17103	1.4769	1.2727	5.e-002	1.1877e-004
17104	1.4769	1.	0.	-876.98
17105	1.3846	1.0909	0.	-1014.8
17106	1.4769	1.0909	5.e-002	9.4363e-005
17107	1.4769	0.81818	0.	-698.67
17108	1.3846	0.90909	0.	-836.07
17109	1.4769	0.90909	5.e-002	1.6013e-004
17110	1.4769	0.63636	0.	-509.12
17111	1.3846	0.72727	0.	-640.25
17112	1.4769	0.72727	5.e-002	-3.903e-015
17113	1.4769	0.45455	0.	-314.54
17114	1.3846	0.54545	0.	-433.95
17115	1.4769	0.54545	5.e-002	1.2195e-004
17116	1.4769	0.27273	0.	-116.13
17117	1.3846	0.36364	0.	-225.
17118	1.4769	0.36364	5.e-002	1.2036e-004
17119	1.3846	0.18182	0.	-23.205
17120	1.4769	0.18182	5.e-002	2.143e-005
17121	1.4769	9.0909e-002	0.	-0.9938
17122	1.2923	5.7273	0.	-118.
17123	1.2	5.8182	0.	-19.106
17124	1.2923	5.8182	5.e-002	-5.1449e-005
17125	1.2923	5.9091	0.	-0.1754
17126	1.2923	5.5455	0.	-343.75
17127	1.2	5.6364	0.	-243.48
17128	1.2923	5.6364	5.e-002	-2.4411e-004
17129	1.2923	5.3636	0.	-564.75
17130	1.2	5.4545	0.	-483.6
17131	1.2923	5.4545	5.e-002	-1.8341e-004
17132	1.2923	5.1818	0.	-777.58
17133	1.2	5.2727	0.	-718.16
17134	1.2923	5.2727	5.e-002	-1.7805e-004
17135	1.2923	5.	0.	-974.
17136	1.2	5.0909	0.	-936.01
17137	1.2923	5.0909	5.e-002	-1.6522e-004
17138	1.2923	4.8182	0.	-1148.6
17139	1.2	4.9091	0.	-1129.5
17140	1.2923	4.9091	5.e-002	-6.6861e-005
17141	1.2923	4.6364	0.	-1299.1
17142	1.2	4.7273	0.	-1295.6
17143	1.2923	4.7273	5.e-002	-8.6604e-005
17144	1.2923	4.4545	0.	-1426.
17145	1.2	4.5455	0.	-1434.8
17146	1.2923	4.5455	5.e-002	-3.0749e-005
17147	1.2923	4.2727	0.	-1531.
17148	1.2	4.3636	0.	-1549.3
17149	1.2923	4.3636	5.e-002	-1.6976e-005
17150	1.2923	4.0909	0.	-1616.3
17151	1.2	4.1818	0.	-1642.1
17152	1.2923	4.1818	5.e-002	-2.2514e-005
17153	1.2923	3.9091	0.	-1684.2
17154	1.2	4.	0.	-1716.2
17155	1.2923	4.	5.e-002	-1.0537e-005
17156	1.2923	3.7273	0.	-1736.9
17157	1.2	3.8182	0.	-1774.1
17158	1.2923	3.8182	5.e-002	-4.3958e-005
17159	1.2923	3.5455	0.	-1776.1
17160	1.2	3.6364	0.	-1818.
17161	1.2923	3.6364	5.e-002	-2.4598e-005
17162	1.2923	3.3636	0.	-1803.2
17163	1.2	3.4545	0.	-1849.5
17164	1.2923	3.4545	5.e-002	-3.7897e-006
17165	1.2923	3.1818	0.	-1819.
17166	1.2	3.2727	0.	-1869.9
17167	1.2923	3.2727	5.e-002	-2.4476e-006
17168	1.2923	3.	0.	-1824.3
17169	1.2	3.0909	0.	-1879.9
17170	1.2923	3.0909	5.e-002	-3.2297e-007
17171	1.2923	2.8182	0.	-1819.
17172	1.2	2.9091	0.	-1879.9
17173	1.2923	2.9091	5.e-002	3.3912e-007
17174	1.2923	2.6364	0.	-1803.2
17175	1.2	2.7273	0.	-1869.9
17176	1.2923	2.7273	5.e-002	2.4476e-006
17177	1.2923	2.4545	0.	-1776.1
17178	1.2	2.5455	0.	-1849.5
17179	1.2923	2.5455	5.e-002	1.6287e-006
17180	1.2923	2.2727	0.	-1736.9
17181	1.2	2.3636	0.	-1818.
17182	1.2923	2.3636	5.e-002	9.3622e-006
17183	1.2923	2.0909	0.	-1684.2
17184	1.2	2.1818	0.	-1774.1
17185	1.2923	2.1818	5.e-002	4.7361e-006
17186	1.2923	1.9091	0.	-1616.3
17187	1.2	2.	0.	-1716.2
17188	1.2923	2.	5.e-002	2.8834e-006
17189	1.2923	1.7273	0.	-1531.
17190	1.2	1.8182	0.	-1642.1
17191	1.2923	1.8182	5.e-002	1.917e-005
17192	1.2923	1.5455	0.	-1426.
17193	1.2	1.6364	0.	-1549.3
17194	1.2923	1.6364	5.e-002	-4.1322e-015
17195	1.2923	1.3636	0.	-1299.1
17196	1.2	1.4545	0.	-1434.8
17197	1.2923	1.4545	5.e-002	7.2883e-005
17198	1.2923	1.1818	0.	-1148.6
17199	1.2	1.2727	0.	-1295.6
17200	1.2923	1.2727	5.e-002	4.6941e-005
17201	1.2923	1.	0.	-974.
17202	1.2	1.0909	0.	-1129.5
17203	1.2923	1.0909	5.e-002	5.4429e-005
17204	1.2923	0.81818	0.	-777.58
17205	1.2	0.90909	0.	-936.01
17206	1.2923	0.90909	5.e-002	1.6596e-004
17207	1.2923	0.63636	0.	-564.75
17208	1.2	0.72727	0.	-718.16
17209	1.2923	0.72727	5.e-002	6.185e-005
17210	1.2923	0.45455	0.	-343.75
17211	1.2	0.54545	0.	-483.6
17212	1.2923	0.54545	5.e-002	2.4387e-004
17213	1.2923	0.27273	0.	-118.
17214	1.2	0.36364	0.	-243.48
17215	1.2923	0.36364	5.e-002	1.2205e-004
17216	1.2	0.18182	0.	-19.106
17217	1.2923	0.18182	5.e-002	5.1449e-005
17218	1.2923	9.0909e-002	0.	-0.1754
17219	1.1077	5.7273	0.	-121.53
17220	1.0154	5.8182	0.	-15.955
17221	1.1077	5.8182	5.e-002	-9.7202e-005
17222	1.1077	5.9091	0.	9.2542e-004
17223	1.1077	5.5455	0.	-382.58
17224	1.0154	5.6364	0.	-269.06
17225	1.1077	5.6364	5.e-002	-1.7925e-004
17226	1.1077	5.3636	0.	-636.75
17227	1.0154	5.4545	0.	-549.77
17228	1.1077	5.4545	5.e-002	-1.2166e-004
17229	1.1077	5.1818	0.	-876.69
17230	1.0154	5.2727	0.	-818.3
17231	1.1077	5.2727	5.e-002	-1.2393e-004
17232	1.1077	5.	0.	-1091.8
17233	1.0154	5.0909	0.	-1059.3
17234	1.1077	5.0909	5.e-002	-1.1197e-004
17235	1.1077	4.8182	0.	-1277.
17236	1.0154	4.9091	0.	-1265.1
17237	1.1077	4.9091	5.e-002	-4.8187e-005
17238	1.1077	4.6364	0.	-1431.7
17239	1.0154	4.7273	0.	-1435.5
17240	1.1077	4.7273	5.e-002	-4.4149e-005
17241	1.1077	4.4545	0.	-1558.5
17242	1.0154	4.5455	0.	-1573.6
17243	1.1077	4.5455	5.e-002	-8.6733e-005
17244	1.1077	4.2727	0.	-1660.9
17245	1.0154	4.3636	0.	-1684.3
17246	1.1077	4.3636	5.e-002	-2.0631e-005
17247	1.1077	4.0909	0.	-1742.5
17248	1.0154	4.1818	0.	-1772.1
17249	1.1077	4.1818	5.e-002	-4.3155e-005
17250	1.1077	3.9091	0.	-1806.4
17251	1.0154	4.	0.	-1841.
17252	1.1077	4.	5.e-002	-3.0374e-005
17253	1.1077	3.7273	0.	-1855.5
17254	1.0154	3.8182	0.	-1894.2
17255	1.1077	3.8182	5.e-002	-1.4944e-005
17256	1.1077	3.5455	0.	-1891.7
17257	1.0154	3.6364	0.	-1934.2
17258	1.1077	3.6364	5.e-002	-1.7866e-005
17259	1.1077	3.3636	0.	-1916.5
17260	1.0154	3.4545	0.	-1962.7
17261	1.1077	3.4545	5.e-002	-1.8083e-006
17262	1.1077	3.1818	0.	-1931.
17263	1.0154	3.2727	0.	-1981.1
17264	1.1077	3.2727	5.e-002	-1.2612e-006
17265	1.1077	3.	0.	-1935.8
17266	1.0154	3.0909	0.	-1990.
17267	1.1077	3.0909	5.e-002	-3.0756e-005
17268	1.1077	2.8182	0.	-1931.
17269	1.0154	2.9091	0.	-1990.
17270	1.1077	2.9091	5.e-002	2.3795e-007
17271	1.1077	2.6364	0.	-1916.5
17272	1.0154	2.7273	0.	-1981.1
17273	1.1077	2.7273	5.e-002	1.2612e-006
17274	1.1077	2.4545	0.	-1891.7
17275	1.0154	2.5455	0.	-1962.7
17276	1.1077	2.5455	5.e-002	1.2055e-006
17277	1.1077	2.2727	0.	-1855.5
17278	1.0154	2.3636	0.	-1934.2
17279	1.1077	2.3636	5.e-002	3.4135e-006
17280	1.1077	2.0909	0.	-1806.4
17281	1.0154	2.1818	0.	-1894.2
17282	1.1077	2.1818	5.e-002	3.3293e-006
17283	1.1077	1.9091	0.	-1742.5
17284	1.0154	2.	0.	-1841.
17285	1.1077	2.	5.e-002	1.5686e-005
17286	1.1077	1.7273	0.	-1660.9
17287	1.0154	1.8182	0.	-1772.1
17288	1.1077	1.8182	5.e-002	6.4318e-006
17289	1.1077	1.5455	0.	-1558.5
17290	1.0154	1.6364	0.	-1684.3
17291	1.1077	1.6364	5.e-002	1.0827e-005
17292	1.1077	1.3636	0.	-1431.7
17293	1.0154	1.4545	0.	-1573.6
17294	1.1077	1.4545	5.e-002	3.653e-005
17295	1.1077	1.1818	0.	-1277.
17296	1.0154	1.2727	0.	-1435.5
17297	1.1077	1.2727	5.e-002	1.4725e-005
17298	1.1077	1.	0.	-1091.8
17299	1.0154	1.0909	0.	-1265.1
17300	1.1077	1.0909	5.e-002	9.6374e-005
17301	1.1077	0.81818	0.	-876.69
17302	1.0154	0.90909	0.	-1059.3
17303	1.1077	0.90909	5.e-002	5.5987e-005
17304	1.1077	0.63636	0.	-636.75
17305	1.0154	0.72727	0.	-818.3
17306	1.1077	0.72727	5.e-002	1.8267e-004
17307	1.1077	0.45455	0.	-382.58
17308	1.0154	0.54545	0.	-549.77
17309	1.1077	0.54545	5.e-002	1.2166e-004
17310	1.1077	0.27273	0.	-121.53
17311	1.0154	0.36364	0.	-269.06
17312	1.1077	0.36364	5.e-002	1.195e-004
17313	1.0154	0.18182	0.	-15.955
17314	1.1077	0.18182	5.e-002	1.296e-004
17315	1.1077	9.0909e-002	0.	9.2497e-004
17316	0.92308	5.7273	0.	-127.58
17317	0.83077	5.8182	0.	-16.397
17318	0.92308	5.8182	5.e-002	-4.2743e-005
17319	0.92308	5.9091	0.	1.0323
17320	0.92308	5.5455	0.	-435.45
17321	0.83077	5.6364	0.	-310.75
17322	0.92308	5.6364	5.e-002	-5.6531e-005
17323	0.92308	5.3636	0.	-731.29
17324	0.83077	5.4545	0.	-646.71
17325	0.92308	5.4545	5.e-002	-1.7807e-004
17326	0.92308	5.1818	0.	-1001.3
17327	0.83077	5.2727	0.	-954.99
17328	0.92308	5.2727	5.e-002	-1.8327e-004
17329	0.92308	5.	0.	-1233.3
17330	0.83077	5.0909	0.	-1216.9
17331	0.92308	5.0909	5.e-002	-1.7623e-004
17332	0.92308	4.8182	0.	-1424.3
17333	0.83077	4.9091	0.	-1429.2
17334	0.92308	4.9091	5.e-002	-1.0636e-004
17335	0.92308	4.6364	0.	-1578.
17336	0.83077	4.7273	0.	-1597.
17337	0.92308	4.7273	5.e-002	-7.927e-005
17338	0.92308	4.4545	0.	-1699.9
17339	0.83077	4.5455	0.	-1728.3
17340	0.92308	4.5455	5.e-002	-6.0637e-005
17341	0.92308	4.2727	0.	-1795.9
17342	0.83077	4.3636	0.	-1830.7
17343	0.92308	4.3636	5.e-002	-1.0431e-005
17344	0.92308	4.0909	0.	-1871.
17345	0.83077	4.1818	0.	-1910.3
17346	0.92308	4.1818	5.e-002	-3.9333e-005
17347	0.92308	3.9091	0.	-1929.1
17348	0.83077	4.	0.	-1971.9
17349	0.92308	4.	5.e-002	-2.3616e-005
17350	0.92308	3.7273	0.	-1973.1
17351	0.83077	3.8182	0.	-2019.
17352	0.92308	3.8182	5.e-002	-3.3914e-005
17353	0.92308	3.5455	0.	-2005.4
17354	0.83077	3.6364	0.	-2054.1
17355	0.92308	3.6364	5.e-002	-5.0156e-006
17356	0.92308	3.3636	0.	-2027.4
17357	0.83077	3.4545	0.	-2079.1
17358	0.92308	3.4545	5.e-002	-1.8619e-005
17359	0.92308	3.1818	0.	-2040.3
17360	0.83077	3.2727	0.	-2095.1
17361	0.92308	3.2727	5.e-002	-9.3779e-007
17362	0.92308	3.	0.	-2044.5
17363	0.83077	3.0909	0.	-2102.9
17364	0.92308	3.0909	5.e-002	-1.6205e-007
17365	0.92308	2.8182	0.	-2040.3
17366	0.83077	2.9091	0.	-2102.9
17367	0.92308	2.9091	5.e-002	1.6205e-007
17368	0.92308	2.6364	0.	-2027.4
17369	0.83077	2.7273	0.	-2095.1
17370	0.92308	2.7273	5.e-002	1.0193e-006
17371	0.92308	2.4545	0.	-2005.4
17372	0.83077	2.5455	0.	-2079.1
17373	0.92308	2.5455	5.e-002	2.3908e-006
17374	0.92308	2.2727	0.	-1973.1
17375	0.83077	2.3636	0.	-2054.1
17376	0.92308	2.3636	5.e-002	7.6891e-006
17377	0.92308	2.0909	0.	-1929.1
17378	0.83077	2.1818	0.	-2019.
17379	0.92308	2.1818	5.e-002	6.7922e-006
17380	0.92308	1.9091	0.	-1871.
17381	0.83077	2.	0.	-1971.9
17382	0.92308	2.	5.e-002	1.805e-005
17383	0.92308	1.7273	0.	-1795.9
17384	0.83077	1.8182	0.	-1910.3
17385	0.92308	1.8182	5.e-002	2.731e-005
17386	0.92308	1.5455	0.	-1699.9
17387	0.83077	1.6364	0.	-1830.7
17388	0.92308	1.6364	5.e-002	2.1438e-005
17389	0.92308	1.3636	0.	-1578.
17390	0.83077	1.4545	0.	-1728.3
17391	0.92308	1.4545	5.e-002	7.1951e-005
17392	0.92308	1.1818	0.	-1424.3
17393	0.83077	1.2727	0.	-1597.
17394	0.92308	1.2727	5.e-002	3.588e-005
17395	0.92308	1.	0.	-1233.3
17396	0.83077	1.0909	0.	-1429.2
17397	0.92308	1.0909	5.e-002	5.6759e-005
17398	0.92308	0.81818	0.	-1001.3
17399	0.83077	0.90909	0.	-1216.9
17400	0.92308	0.90909	5.e-002	5.5928e-005
17401	0.92308	0.63636	0.	-731.29
17402	0.83077	0.72727	0.	-954.99
17403	0.92308	0.72727	5.e-002	1.8323e-004
17404	0.92308	0.45455	0.	-435.45
17405	0.83077	0.54545	0.	-646.71
17406	0.92308	0.54545	5.e-002	1.1785e-004
17407	0.92308	0.27273	0.	-127.58
17408	0.83077	0.36364	0.	-310.75
17409	0.92308	0.36364	5.e-002	1.7044e-004
17410	0.83077	0.18182	0.	-16.397
17411	0.92308	0.18182	5.e-002	8.5486e-005
17412	0.92308	9.0909e-002	0.	1.0323
17413	0.73846	5.7273	0.	-145.6
17414	0.64615	5.8182	0.	-9.8058
17415	0.73846	5.8182	5.e-002	-2.2362e-004
17416	0.73846	5.9091	0.	-1.414
17417	0.73846	5.5455	0.	-521.34
17418	0.64615	5.6364	0.	-374.5
17419	0.73846	5.6364	5.e-002	-1.0636e-004
17420	0.73846	5.3636	0.	-870.94
17421	0.64615	5.4545	0.	-782.05
17422	0.73846	5.4545	5.e-002	-1.1594e-004
17423	0.73846	5.1818	0.	-1171.6
17424	0.64615	5.2727	0.	-1128.4
17425	0.73846	5.2727	5.e-002	-1.2111e-004
17426	0.73846	5.	0.	-1413.9
17427	0.64615	5.0909	0.	-1399.8
17428	0.73846	5.0909	5.e-002	-6.5496e-005
17429	0.73846	4.8182	0.	-1602.6
17430	0.64615	4.9091	0.	-1605.5
17431	0.73846	4.9091	5.e-002	-8.9804e-005
17432	0.73846	4.6364	0.	-1747.8
17433	0.64615	4.7273	0.	-1760.5
17434	0.73846	4.7273	5.e-002	-8.0922e-005
17435	0.73846	4.4545	0.	-1859.4
17436	0.64615	4.5455	0.	-1877.7
17437	0.73846	4.5455	5.e-002	-3.1381e-005
17438	0.73846	4.2727	0.	-1945.3
17439	0.64615	4.3636	0.	-1967.2
17440	0.73846	4.3636	5.e-002	-3.2256e-005
17441	0.73846	4.0909	0.	-2011.4
17442	0.64615	4.1818	0.	-2035.7
17443	0.73846	4.1818	5.e-002	-2.7731e-006
17444	0.73846	3.9091	0.	-2062.
17445	0.64615	4.	0.	-2088.3
17446	0.73846	4.	5.e-002	-6.1154e-006
17447	0.73846	3.7273	0.	-2100.1
17448	0.64615	3.8182	0.	-2128.3
17449	0.73846	3.8182	5.e-002	-5.5839e-015
17450	0.73846	3.5455	0.	-2127.9
17451	0.64615	3.6364	0.	-2158.
17452	0.73846	3.6364	5.e-002	-4.8849e-006
17453	0.73846	3.3636	0.	-2146.9
17454	0.64615	3.4545	0.	-2179.1
17455	0.73846	3.4545	5.e-002	-1.2556e-006
17456	0.73846	3.1818	0.	-2157.9
17457	0.64615	3.2727	0.	-2192.6
17458	0.73846	3.2727	5.e-002	-6.4003e-007
17459	0.73846	3.	0.	-2161.5
17460	0.64615	3.0909	0.	-2199.2
17461	0.73846	3.0909	5.e-002	-3.0564e-005
17462	0.73846	2.8182	0.	-2157.9
17463	0.64615	2.9091	0.	-2199.2
17464	0.73846	2.9091	5.e-002	5.9745e-008
17465	0.73846	2.6364	0.	-2146.9
17466	0.64615	2.7273	0.	-2192.6
17467	0.73846	2.7273	5.e-002	2.8862e-007
17468	0.73846	2.4545	0.	-2127.9
17469	0.64615	2.5455	0.	-2179.1
17470	0.73846	2.5455	5.e-002	4.8713e-007
17471	0.73846	2.2727	0.	-2100.1
17472	0.64615	2.3636	0.	-2158.
17473	0.73846	2.3636	5.e-002	3.4727e-007
17474	0.73846	2.0909	0.	-2062.
17475	0.64615	2.1818	0.	-2128.3
17476	0.73846	2.1818	5.e-002	9.1363e-007
17477	0.73846	1.9091	0.	-2011.4
17478	0.64615	2.	0.	-2088.3
17479	0.73846	2.	5.e-002	4.5816e-006
17480	0.73846	1.7273	0.	-1945.3
17481	0.64615	1.8182	0.	-2035.7
17482	0.73846	1.8182	5.e-002	2.3282e-005
17483	0.73846	1.5455	0.	-1859.4
17484	0.64615	1.6364	0.	-1967.2
17485	0.73846	1.6364	5.e-002	1.4504e-005
17486	0.73846	1.3636	0.	-1747.8
17487	0.64615	1.4545	0.	-1877.7
17488	0.73846	1.4545	5.e-002	2.514e-005
17489	0.73846	1.1818	0.	-1602.6
17490	0.64615	1.2727	0.	-1760.5
17491	0.73846	1.2727	5.e-002	1.0821e-004
17492	0.73846	1.	0.	-1413.9
17493	0.64615	1.0909	0.	-1605.5
17494	0.73846	1.0909	5.e-002	4.9603e-005
17495	0.73846	0.81818	0.	-1171.6
17496	0.64615	0.90909	0.	-1399.8
17497	0.73846	0.90909	5.e-002	1.0966e-004
17498	0.73846	0.63636	0.	-870.94
17499	0.64615	0.72727	0.	-1128.4
17500	0.73846	0.72727	5.e-002	1.8313e-004
17501	0.73846	0.45455	0.	-521.34
17502	0.64615	0.54545	0.	-782.05
17503	0.73846	0.54545	5.e-002	1.1873e-004
17504	0.73846	0.27273	0.	-145.6
17505	0.64615	0.36364	0.	-374.5
17506	0.73846	0.36364	5.e-002	1.5796e-004
17507	0.64615	0.18182	0.	-9.8058
17508	0.73846	0.18182	5.e-002	1.6772e-004
17509	0.73846	9.0909e-002	0.	-1.414
17510	0.55385	5.7273	0.	-168.67
17511	0.46154	5.8182	0.	-41.331
17512	0.55385	5.8182	5.e-002	-1.203e-004
17513	0.55385	5.9091	0.	9.082
17514	0.55385	5.5455	0.	-635.48
17515	0.46154	5.6364	0.	-534.97
17516	0.55385	5.6364	5.e-002	-1.989e-004
17517	0.55385	5.3636	0.	-1041.1
17518	0.46154	5.4545	0.	-1037.8
17519	0.55385	5.4545	5.e-002	-1.763e-004
17520	0.55385	5.1818	0.	-1358.1
17521	0.46154	5.2727	0.	-1406.5
17522	0.55385	5.2727	5.e-002	-1.8328e-004
17523	0.55385	5.	0.	-1592.4
17524	0.46154	5.0909	0.	-1666.5
17525	0.55385	5.0909	5.e-002	-2.0999e-004
17526	0.55385	4.8182	0.	-1763.8
17527	0.46154	4.9091	0.	-1850.5
17528	0.55385	4.9091	5.e-002	-5.3838e-005
17529	0.55385	4.6364	0.	-1890.5
17530	0.46154	4.7273	0.	-1983.8
17531	0.55385	4.7273	5.e-002	-7.226e-005
17532	0.55385	4.4545	0.	-1985.4
17533	0.46154	4.5455	0.	-2082.7
17534	0.55385	4.5455	5.e-002	-4.2524e-005
17535	0.55385	4.2727	0.	-2057.5
17536	0.46154	4.3636	0.	-2157.3
17537	0.55385	4.3636	5.e-002	-2.833e-005
17538	0.55385	4.0909	0.	-2112.6
17539	0.46154	4.1818	0.	-2214.3
17540	0.55385	4.1818	5.e-002	-8.8039e-006
17541	0.55385	3.9091	0.	-2154.5
17542	0.46154	4.	0.	-2258.
17543	0.55385	4.	5.e-002	-6.0678e-015
17544	0.55385	3.7273	0.	-2186.1
17545	0.46154	3.8182	0.	-2291.2
17546	0.55385	3.8182	5.e-002	-2.9447e-005
17547	0.55385	3.5455	0.	-2209.1
17548	0.46154	3.6364	0.	-2315.9
17549	0.55385	3.6364	5.e-002	-4.2701e-006
17550	0.55385	3.3636	0.	-2224.8
17551	0.46154	3.4545	0.	-2333.5
17552	0.55385	3.4545	5.e-002	-5.8564e-015
17553	0.55385	3.1818	0.	-2233.9
17554	0.46154	3.2727	0.	-2344.7
17555	0.55385	3.2727	5.e-002	-5.8205e-015
17556	0.55385	3.	0.	-2236.9
17557	0.46154	3.0909	0.	-2350.2
17558	0.55385	3.0909	5.e-002	-1.4676e-008
17559	0.55385	2.8182	0.	-2233.9
17560	0.46154	2.9091	0.	-2350.2
17561	0.55385	2.9091	5.e-002	-5.2106e-008
17562	0.55385	2.6364	0.	-2224.8
17563	0.46154	2.7273	0.	-2344.7
17564	0.55385	2.7273	5.e-002	-5.8205e-015
17565	0.55385	2.4545	0.	-2209.1
17566	0.46154	2.5455	0.	-2333.5
17567	0.55385	2.5455	5.e-002	8.0821e-007
17568	0.55385	2.2727	0.	-2186.1
17569	0.46154	2.3636	0.	-2315.9
17570	0.55385	2.3636	5.e-002	2.9683e-005
17571	0.55385	2.0909	0.	-2154.5
17572	0.46154	2.1818	0.	-2291.2
17573	0.55385	2.1818	5.e-002	3.3693e-006
17574	0.55385	1.9091	0.	-2112.6
17575	0.46154	2.	0.	-2258.
17576	0.55385	2.	5.e-002	-6.0678e-015
17577	0.55385	1.7273	0.	-2057.5
17578	0.46154	1.8182	0.	-2214.3
17579	0.55385	1.8182	5.e-002	2.6744e-005
17580	0.55385	1.5455	0.	-1985.4
17581	0.46154	1.6364	0.	-2157.3
17582	0.55385	1.6364	5.e-002	2.833e-005
17583	0.55385	1.3636	0.	-1890.5
17584	0.46154	1.4545	0.	-2082.7
17585	0.55385	1.4545	5.e-002	4.8708e-005
17586	0.55385	1.1818	0.	-1763.8
17587	0.46154	1.2727	0.	-1983.8
17588	0.55385	1.2727	5.e-002	6.3332e-005
17589	0.55385	1.	0.	-1592.4
17590	0.46154	1.0909	0.	-1850.5
17591	0.55385	1.0909	5.e-002	5.6237e-005
17592	0.55385	0.81818	0.	-1358.1
17593	0.46154	0.90909	0.	-1666.5
17594	0.55385	0.90909	5.e-002	2.881e-006
17595	0.55385	0.63636	0.	-1041.1
17596	0.46154	0.72727	0.	-1406.5
17597	0.55385	0.72727	5.e-002	-8.4098e-015
17598	0.55385	0.45455	0.	-635.48
17599	0.46154	0.54545	0.	-1037.8
17600	0.55385	0.54545	5.e-002	2.3641e-004
17601	0.55385	0.27273	0.	-168.67
17602	0.46154	0.36364	0.	-534.97
17603	0.55385	0.36364	5.e-002	9.8721e-005
17604	0.46154	0.18182	0.	-41.331
17605	0.55385	0.18182	5.e-002	1.2039e-004
17606	0.55385	9.0909e-002	0.	9.082
17607	0.36923	5.7273	0.	-305.42
17608	0.27692	5.8182	0.	-2.171
17609	0.36923	5.8182	5.e-002	-1.4142e-004
17610	0.36923	5.9091	0.	-23.621
17611	0.36923	5.5455	0.	-940.13
17612	0.27692	5.6364	0.	-741.19
17613	0.36923	5.6364	5.e-002	-1.5342e-004
17614	0.36923	5.3636	0.	-1406.1
17615	0.27692	5.4545	0.	-1242.6
17616	0.36923	5.4545	5.e-002	-1.224e-004
17617	0.36923	5.1818	0.	-1715.9
17618	0.27692	5.2727	0.	-1553.3
17619	0.36923	5.2727	5.e-002	-1.246e-004
17620	0.36923	5.	0.	-1924.4
17621	0.27692	5.0909	0.	-1754.4
17622	0.36923	5.0909	5.e-002	-1.2721e-004
17623	0.36923	4.8182	0.	-2069.9
17624	0.27692	4.9091	0.	-1892.5
17625	0.36923	4.9091	5.e-002	-7.4737e-005
17626	0.36923	4.6364	0.	-2175.4
17627	0.27692	4.7273	0.	-1991.8
17628	0.36923	4.7273	5.e-002	-4.1992e-005
17629	0.36923	4.4545	0.	-2254.
17630	0.27692	4.5455	0.	-2065.8
17631	0.36923	4.5455	5.e-002	-2.9073e-006
17632	0.36923	4.2727	0.	-2313.8
17633	0.27692	4.3636	0.	-2121.9
17634	0.36923	4.3636	5.e-002	-3.4086e-005
17635	0.36923	4.0909	0.	-2359.5
17636	0.27692	4.1818	0.	-2165.1
17637	0.36923	4.1818	5.e-002	-1.0156e-006
17638	0.36923	3.9091	0.	-2394.5
17639	0.27692	4.	0.	-2198.4
17640	0.36923	4.	5.e-002	-7.2329e-015
17641	0.36923	3.7273	0.	-2420.9
17642	0.27692	3.8182	0.	-2223.8
17643	0.36923	3.8182	5.e-002	-2.9599e-005
17644	0.36923	3.5455	0.	-2440.2
17645	0.27692	3.6364	0.	-2242.7
17646	0.36923	3.6364	5.e-002	-3.0666e-005
17647	0.36923	3.3636	0.	-2453.4
17648	0.27692	3.4545	0.	-2256.3
17649	0.36923	3.4545	5.e-002	-6.0189e-005
17650	0.36923	3.1818	0.	-2461.
17651	0.27692	3.2727	0.	-2264.9
17652	0.36923	3.2727	5.e-002	2.9161e-008
17653	0.36923	3.	0.	-2463.5
17654	0.27692	3.0909	0.	-2269.2
17655	0.36923	3.0909	5.e-002	9.0589e-008
17656	0.36923	2.8182	0.	-2461.
17657	0.27692	2.9091	0.	-2269.2
17658	0.36923	2.9091	5.e-002	-1.0112e-007
17659	0.36923	2.6364	0.	-2453.4
17660	0.27692	2.7273	0.	-2264.9
17661	0.36923	2.7273	5.e-002	-3.0556e-007
17662	0.36923	2.4545	0.	-2440.2
17663	0.27692	2.5455	0.	-2256.3
17664	0.36923	2.5455	5.e-002	-4.3052e-007
17665	0.36923	2.2727	0.	-2420.9
17666	0.27692	2.3636	0.	-2242.7
17667	0.36923	2.3636	5.e-002	-4.9265e-007
17668	0.36923	2.0909	0.	-2394.5
17669	0.27692	2.1818	0.	-2223.8
17670	0.36923	2.1818	5.e-002	-9.7752e-007
17671	0.36923	1.9091	0.	-2359.5
17672	0.27692	2.	0.	-2198.4
17673	0.36923	2.	5.e-002	2.5893e-006
17674	0.36923	1.7273	0.	-2313.8
17675	0.27692	1.8182	0.	-2165.1
17676	0.36923	1.8182	5.e-002	4.686e-006
17677	0.36923	1.5455	0.	-2254.
17678	0.27692	1.6364	0.	-2121.9
17679	0.36923	1.6364	5.e-002	1.5501e-005
17680	0.36923	1.3636	0.	-2175.4
17681	0.27692	1.4545	0.	-2065.8
17682	0.36923	1.4545	5.e-002	7.4703e-005
17683	0.36923	1.1818	0.	-2069.9
17684	0.27692	1.2727	0.	-1991.8
17685	0.36923	1.2727	5.e-002	3.3695e-006
17686	0.36923	1.	0.	-1924.4
17687	0.27692	1.0909	0.	-1892.5
17688	0.36923	1.0909	5.e-002	6.1862e-005
17689	0.36923	0.81818	0.	-1715.9
17690	0.27692	0.90909	0.	-1754.4
17691	0.36923	0.90909	5.e-002	1.1737e-004
17692	0.36923	0.63636	0.	-1406.1
17693	0.27692	0.72727	0.	-1553.3
17694	0.36923	0.72727	5.e-002	1.0903e-004
17695	0.36923	0.45455	0.	-940.13
17696	0.27692	0.54545	0.	-1242.6
17697	0.36923	0.54545	5.e-002	1.8385e-004
17698	0.36923	0.27273	0.	-305.42
17699	0.27692	0.36364	0.	-741.19
17700	0.36923	0.36364	5.e-002	1.5155e-004
17701	0.27692	0.18182	0.	-2.171
17702	0.36923	0.18182	5.e-002	1.8704e-004
17703	0.36923	9.0909e-002	0.	-23.621
17704	0.18462	5.7273	0.	-410.23
17705	0.18462	5.8182	5.e-002	-1.2252e-004
17706	0.18462	5.9091	0.	88.71
17707	9.2308e-002	5.8182	0.	-571.31
17708	0.18462	5.5455	0.	-1043.2
17709	0.18462	5.6364	5.e-002	-1.7576e-004
17710	9.2308e-002	5.6364	0.	-1563.6
17711	0.18462	5.3636	0.	-1382.6
17712	0.18462	5.4545	5.e-002	-2.3245e-004
17713	9.2308e-002	5.4545	0.	-2040.1
17714	0.18462	5.1818	0.	-1585.2
17715	0.18462	5.2727	5.e-002	-1.8806e-004
17716	9.2308e-002	5.2727	0.	-2318.7
17717	0.18462	5.	0.	-1717.8
17718	0.18462	5.0909	5.e-002	-4.7858e-005
17719	9.2308e-002	5.0909	0.	-2500.9
17720	0.18462	4.8182	0.	-1811.4
17721	0.18462	4.9091	5.e-002	-7.1316e-005
17722	9.2308e-002	4.9091	0.	-2629.7
17723	0.18462	4.6364	0.	-1880.3
17724	0.18462	4.7273	5.e-002	-4.7056e-005
17725	9.2308e-002	4.7273	0.	-2724.4
17726	0.18462	4.4545	0.	-1932.5
17727	0.18462	4.5455	5.e-002	-7.3802e-005
17728	9.2308e-002	4.5455	0.	-2796.1
17729	0.18462	4.2727	0.	-1972.5
17730	0.18462	4.3636	5.e-002	-3.9433e-005
17731	9.2308e-002	4.3636	0.	-2851.2
17732	0.18462	4.0909	0.	-2003.5
17733	0.18462	4.1818	5.e-002	-2.4807e-005
17734	9.2308e-002	4.1818	0.	-2893.9
17735	0.18462	3.9091	0.	-2027.4
17736	0.18462	4.	5.e-002	-3.0806e-006
17737	9.2308e-002	4.	0.	-2927.
17738	0.18462	3.7273	0.	-2045.5
17739	0.18462	3.8182	5.e-002	-1.1419e-006
17740	9.2308e-002	3.8182	0.	-2952.4
17741	0.18462	3.5455	0.	-2058.7
17742	0.18462	3.6364	5.e-002	-3.3449e-006
17743	9.2308e-002	3.6364	0.	-2971.4
17744	0.18462	3.3636	0.	-2067.8
17745	0.18462	3.4545	5.e-002	-4.4187e-005
17746	9.2308e-002	3.4545	0.	-2984.9
17747	0.18462	3.1818	0.	-2073.1
17748	0.18462	3.2727	5.e-002	6.443e-007
17749	9.2308e-002	3.2727	0.	-2993.6
17750	0.18462	3.	0.	-2074.8
17751	0.18462	3.0909	5.e-002	2.3002e-007
17752	9.2308e-002	3.0909	0.	-2997.9
17753	0.18462	2.8182	0.	-2073.1
17754	0.18462	2.9091	5.e-002	-2.3263e-007
17755	9.2308e-002	2.9091	0.	-2997.9
17756	0.18462	2.6364	0.	-2067.8
17757	0.18462	2.7273	5.e-002	-6.9144e-007
17758	9.2308e-002	2.7273	0.	-2993.6
17759	0.18462	2.4545	0.	-2058.7
17760	0.18462	2.5455	5.e-002	-1.1307e-006
17761	9.2308e-002	2.5455	0.	-2984.9
17762	0.18462	2.2727	0.	-2045.5
17763	0.18462	2.3636	5.e-002	-1.4814e-006
17764	9.2308e-002	2.3636	0.	-2971.4
17765	0.18462	2.0909	0.	-2027.4
17766	0.18462	2.1818	5.e-002	-1.6315e-006
17767	9.2308e-002	2.1818	0.	-2952.4
17768	0.18462	1.9091	0.	-2003.5
17769	0.18462	2.	5.e-002	1.6385e-005
17770	9.2308e-002	2.	0.	-2927.
17771	0.18462	1.7273	0.	-1972.5
17772	0.18462	1.8182	5.e-002	4.6131e-005
17773	9.2308e-002	1.8182	0.	-2893.9
17774	0.18462	1.5455	0.	-1932.5
17775	0.18462	1.6364	5.e-002	3.4088e-005
17776	9.2308e-002	1.6364	0.	-2851.2
17777	0.18462	1.3636	0.	-1880.3
17778	0.18462	1.4545	5.e-002	3.8442e-005
17779	9.2308e-002	1.4545	0.	-2796.1
17780	0.18462	1.1818	0.	-1811.4
17781	0.18462	1.2727	5.e-002	7.4497e-005
17782	9.2308e-002	1.2727	0.	-2724.4
17783	0.18462	1.	0.	-1717.8
17784	0.18462	1.0909	5.e-002	3.5658e-005
17785	9.2308e-002	1.0909	0.	-2629.7
17786	0.18462	0.81818	0.	-1585.2
17787	0.18462	0.90909	5.e-002	1.2259e-004
17788	9.2308e-002	0.90909	0.	-2500.9
17789	0.18462	0.63636	0.	-1382.6
17790	0.18462	0.72727	5.e-002	1.6597e-005
17791	9.2308e-002	0.72727	0.	-2318.7
17792	0.18462	0.45455	0.	-1043.2
17793	0.18462	0.54545	5.e-002	6.8588e-005
17794	9.2308e-002	0.54545	0.	-2040.1
17795	0.18462	0.27273	0.	-410.23
17796	0.18462	0.36364	5.e-002	2.3597e-004
17797	9.2308e-002	0.36364	0.	-1563.6
17798	0.18462	0.18182	5.e-002	9.3887e-005
17799	0.18462	9.0909e-002	0.	88.71
17800	9.2308e-002	0.18182	0.	-571.31
17801	17.147	0.27273	0.	-6.3262
17802	17.237	0.18182	0.	-6.7115
17803	17.147	0.18182	5.e-002	-7.9103e-008
17804	17.147	9.0909e-002	0.	-5.0877
17805	17.057	0.18182	0.	-0.30013
17806	17.147	0.45455	0.	-3.728
17807	17.237	0.36364	0.	-4.1504
17808	17.147	0.36364	5.e-002	1.2756e-006
17809	17.057	0.36364	0.	1.2094
17810	17.147	0.63636	0.	-3.1368
17811	17.237	0.54545	0.	-2.8108
17812	17.147	0.54545	5.e-002	7.4397e-007
17813	17.057	0.54545	0.	0.80208
17814	17.147	0.81818	0.	-3.0026
17815	17.237	0.72727	0.	-2.246
17816	17.147	0.72727	5.e-002	3.5805e-006
17817	17.057	0.72727	0.	0.8056
17818	17.147	1.	0.	-3.4203
17819	17.237	0.90909	0.	-2.1396
17820	17.147	0.90909	5.e-002	9.0262e-007
17821	17.057	0.90909	0.	0.9386
17822	17.147	1.1818	0.	-3.6695
17823	17.237	1.0909	0.	-2.4891
17824	17.147	1.0909	5.e-002	5.7494e-006
17825	17.057	1.0909	0.	0.45014
17826	17.147	1.3636	0.	-6.7969
17827	17.237	1.2727	0.	-2.4593
17828	17.147	1.2727	5.e-002	7.6956e-006
17829	17.057	1.2727	0.	2.4016
17830	17.147	1.5455	0.	-3.9892
17831	17.237	1.4545	0.	-6.1212
17832	17.147	1.4545	5.e-002	4.4266e-005
17833	17.057	1.4545	0.	-5.5874
17834	17.147	1.7273	0.	-30.998
17835	17.237	1.6364	0.	0.14245
17836	17.147	1.6364	5.e-002	7.2501e-005
17837	17.057	1.6364	0.	26.325
17838	17.147	1.9091	0.	-141.8
17839	17.237	1.8182	0.	-31.616
17840	17.147	1.8182	5.e-002	2.4657e-004
17841	17.057	1.8182	0.	-113.73
17842	17.147	2.0909	0.	-94.217
17843	17.237	2.	0.	-93.897
17844	17.147	2.	5.e-002	1.7286e-004
17845	17.057	2.	0.	-220.14
17846	17.147	2.2727	0.	-10.617
17847	17.237	2.1818	0.	-4.5473
17848	17.147	2.1818	5.e-002	6.2436e-005
17849	17.147	2.4545	0.	-3.1357
17850	17.237	2.3636	0.	-6.8551
17851	17.147	2.3636	5.e-002	5.1199e-005
17852	17.147	2.6364	0.	0.21795
17853	17.237	2.5455	0.	0.62906
17854	17.147	2.5455	5.e-002	7.9002e-006
17855	17.147	2.8182	0.	-0.72919
17856	17.237	2.7273	0.	-0.70788
17857	17.147	2.7273	5.e-002	-1.0057e-005
17858	17.147	3.	0.	-0.16326
17859	17.237	2.9091	0.	-9.1239e-002
17860	17.147	2.9091	5.e-002	-8.8754e-006
17861	17.147	3.1818	0.	-0.72919
17862	17.237	3.0909	0.	-9.1239e-002
17863	17.147	3.0909	5.e-002	4.4062e-006
17864	17.147	3.3636	0.	0.21795
17865	17.237	3.2727	0.	-0.70788
17866	17.147	3.2727	5.e-002	6.6196e-006
17867	17.147	3.5455	0.	-3.1357
17868	17.237	3.4545	0.	0.62906
17869	17.147	3.4545	5.e-002	-1.2163e-005
17870	17.147	3.7273	0.	-10.617
17871	17.237	3.6364	0.	-6.8551
17872	17.147	3.6364	5.e-002	-4.2333e-005
17873	17.147	3.9091	0.	-94.217
17874	17.237	3.8182	0.	-4.5473
17875	17.147	3.8182	5.e-002	-3.5456e-005
17876	17.147	4.0909	0.	-141.8
17877	17.237	4.	0.	-93.897
17878	17.147	4.	5.e-002	-1.9301e-004
17879	17.057	4.	0.	-220.14
17880	17.147	4.2727	0.	-30.998
17881	17.237	4.1818	0.	-31.617
17882	17.147	4.1818	5.e-002	-2.8075e-004
17883	17.057	4.1818	0.	-113.73
17884	17.147	4.4545	0.	-3.9892
17885	17.237	4.3636	0.	0.14245
17886	17.147	4.3636	5.e-002	-5.5582e-005
17887	17.057	4.3636	0.	26.325
17888	17.147	4.6364	0.	-6.7969
17889	17.237	4.5455	0.	-6.1212
17890	17.147	4.5455	5.e-002	-2.3234e-005
17891	17.057	4.5455	0.	-5.5874
17892	17.147	4.8182	0.	-3.6695
17893	17.237	4.7273	0.	-2.4593
17894	17.147	4.7273	5.e-002	-1.5292e-005
17895	17.057	4.7273	0.	2.4016
17896	17.147	5.	0.	-3.4203
17897	17.237	4.9091	0.	-2.4891
17898	17.147	4.9091	5.e-002	-3.3042e-014
17899	17.057	4.9091	0.	0.45013
17900	17.147	5.1818	0.	-3.0026
17901	17.237	5.0909	0.	-2.1396
17902	17.147	5.0909	5.e-002	2.9121e-006
17903	17.057	5.0909	0.	0.9386
17904	17.147	5.3636	0.	-3.1368
17905	17.237	5.2727	0.	-2.246
17906	17.147	5.2727	5.e-002	8.6424e-006
17907	17.057	5.2727	0.	0.80559
17908	17.147	5.5455	0.	-3.728
17909	17.237	5.4545	0.	-2.8108
17910	17.147	5.4545	5.e-002	5.6287e-006
17911	17.057	5.4545	0.	0.80208
17912	17.147	5.7273	0.	-6.3262
17913	17.237	5.6364	0.	-4.1504
17914	17.147	5.6364	5.e-002	5.3002e-006
17915	17.057	5.6364	0.	1.2094
17916	17.237	5.8182	0.	-6.7115
17917	17.147	5.8182	5.e-002	6.389e-006
17918	17.147	5.9091	0.	-5.0877
17919	17.057	5.8182	0.	-0.30012
17920	17.327	0.27273	0.	-3.4261
17921	17.418	0.18182	0.	-2.596
17922	17.327	0.18182	5.e-002	2.7619e-006
17923	17.327	9.0909e-002	0.	-0.37247
17924	17.327	0.45455	0.	-2.2261
17925	17.418	0.36364	0.	-2.7113
17926	17.327	0.36364	5.e-002	4.3455e-006
17927	17.327	0.63636	0.	-1.4335
17928	17.418	0.54545	0.	-2.0145
17929	17.327	0.54545	5.e-002	9.6804e-006
17930	17.327	0.81818	0.	-1.0617
17931	17.418	0.72727	0.	-1.5102
17932	17.327	0.72727	5.e-002	1.2389e-005
17933	17.327	1.	0.	-0.94417
17934	17.418	0.90909	0.	-1.3488
17935	17.327	0.90909	5.e-002	1.3593e-005
17936	17.327	1.1818	0.	-1.034
17937	17.418	1.0909	0.	-1.3907
17938	17.327	1.0909	5.e-002	2.4764e-005
17939	17.327	1.3636	0.	-1.5223
17940	17.418	1.2727	0.	-1.6453
17941	17.327	1.2727	5.e-002	4.1215e-005
17942	17.327	1.5455	0.	-1.6741
17943	17.418	1.4545	0.	-2.207
17944	17.327	1.4545	5.e-002	7.2258e-005
17945	17.327	1.7273	0.	3.0451e-002
17946	17.418	1.6364	0.	-3.4591
17947	17.327	1.6364	5.e-002	1.1787e-004
17948	17.327	1.9091	0.	16.408
17949	17.418	1.8182	0.	-2.3217
17950	17.327	1.8182	5.e-002	1.7272e-004
17951	17.327	2.0909	0.	23.402
17952	17.418	2.	0.	11.923
17953	17.327	2.	5.e-002	2.2426e-005
17954	17.327	2.2727	0.	2.4576
17955	17.418	2.1818	0.	2.5768
17956	17.327	2.1818	5.e-002	-1.0973e-006
17957	17.327	2.4545	0.	-3.011
17958	17.418	2.3636	0.	-4.2936
17959	17.327	2.3636	5.e-002	-1.2072e-005
17960	17.327	2.6364	0.	-0.15441
17961	17.418	2.5455	0.	-0.73191
17962	17.327	2.5455	5.e-002	-1.9954e-005
17963	17.327	2.8182	0.	-1.1017e-002
17964	17.418	2.7273	0.	1.8671e-002
17965	17.327	2.7273	5.e-002	-2.451e-005
17966	17.327	3.	0.	4.1919e-002
17967	17.418	2.9091	0.	0.2115
17968	17.327	2.9091	5.e-002	-6.5236e-006
17969	17.327	3.1818	0.	-1.1016e-002
17970	17.418	3.0909	0.	0.2115
17971	17.327	3.0909	5.e-002	1.221e-005
17972	17.327	3.3636	0.	-0.15441
17973	17.418	3.2727	0.	1.8671e-002
17974	17.327	3.2727	5.e-002	2.7695e-005
17975	17.327	3.5455	0.	-3.011
17976	17.418	3.4545	0.	-0.73191
17977	17.327	3.4545	5.e-002	2.1066e-005
17978	17.327	3.7273	0.	2.4576
17979	17.418	3.6364	0.	-4.2936
17980	17.327	3.6364	5.e-002	1.5943e-005
17981	17.327	3.9091	0.	23.402
17982	17.418	3.8182	0.	2.5768
17983	17.327	3.8182	5.e-002	1.3635e-005
17984	17.327	4.0909	0.	16.408
17985	17.418	4.	0.	11.923
17986	17.327	4.	5.e-002	-1.9842e-005
17987	17.327	4.2727	0.	3.0451e-002
17988	17.418	4.1818	0.	-2.3217
17989	17.327	4.1818	5.e-002	-1.7272e-004
17990	17.327	4.4545	0.	-1.6741
17991	17.418	4.3636	0.	-3.4591
17992	17.327	4.3636	5.e-002	-1.1605e-004
17993	17.327	4.6364	0.	-1.5223
17994	17.418	4.5455	0.	-2.207
17995	17.327	4.5455	5.e-002	-7.8117e-005
17996	17.327	4.8182	0.	-1.034
17997	17.418	4.7273	0.	-1.6453
17998	17.327	4.7273	5.e-002	-3.0517e-005
17999	17.327	5.	0.	-0.94417
18000	17.418	4.9091	0.	-1.3907
18001	17.327	4.9091	5.e-002	-1.8403e-005
18002	17.327	5.1818	0.	-1.0617
18003	17.418	5.0909	0.	-1.3488
18004	17.327	5.0909	5.e-002	-3.2596e-006
18005	17.327	5.3636	0.	-1.4335
18006	17.418	5.2727	0.	-1.5102
18007	17.327	5.2727	5.e-002	-2.7185e-006
18008	17.327	5.5455	0.	-2.2261
18009	17.418	5.4545	0.	-2.0145
18010	17.327	5.4545	5.e-002	2.5006e-006
18011	17.327	5.7273	0.	-3.4261
18012	17.418	5.6364	0.	-2.7113
18013	17.327	5.6364	5.e-002	5.8783e-006
18014	17.418	5.8182	0.	-2.596
18015	17.327	5.8182	5.e-002	4.7518e-006
18016	17.327	5.9091	0.	-0.37247
18017	17.508	0.27273	0.	-2.1077
18018	17.598	0.18182	0.	-1.2607
18019	17.508	0.18182	5.e-002	4.1285e-006
18020	17.508	9.0909e-002	0.	-0.15456
18021	17.508	0.45455	0.	-2.1223
18022	17.598	0.36364	0.	-1.7066
18023	17.508	0.36364	5.e-002	3.8264e-006
18024	17.508	0.63636	0.	-1.8595
18025	17.598	0.54545	0.	-1.79
18026	17.508	0.54545	5.e-002	7.6011e-006
18027	17.508	0.81818	0.	-1.6986
18028	17.598	0.72727	0.	-1.6764
18029	17.508	0.72727	5.e-002	9.8318e-006
18030	17.508	1.	0.	-1.7581
18031	17.598	0.90909	0.	-1.6566
18032	17.508	0.90909	5.e-002	2.2306e-005
18033	17.508	1.1818	0.	-2.0057
18034	17.598	1.0909	0.	-1.8075
18035	17.508	1.0909	5.e-002	3.7255e-005
18036	17.508	1.3636	0.	-2.3644
18037	17.598	1.2727	0.	-2.1437
18038	17.508	1.2727	5.e-002	5.6979e-005
18039	17.508	1.5455	0.	-4.0512
18040	17.598	1.4545	0.	-2.6915
18041	17.508	1.4545	5.e-002	9.5172e-005
18042	17.508	1.7273	0.	-5.4861
18043	17.598	1.6364	0.	-4.7164
18044	17.508	1.6364	5.e-002	1.2417e-004
18045	17.508	1.9091	0.	-8.066
18046	17.598	1.8182	0.	-8.9285
18047	17.508	1.8182	5.e-002	1.1022e-004
18048	17.508	2.0909	0.	-23.448
18049	17.598	2.	0.	-43.952
18050	17.508	2.	5.e-002	4.0643e-005
18051	17.508	2.2727	0.	-27.919
18052	17.598	2.1818	0.	-67.39
18053	17.508	2.1818	5.e-002	1.7912e-006
18054	17.508	2.4545	0.	-7.1367
18055	17.598	2.3636	0.	-52.024
18056	17.508	2.3636	5.e-002	-2.5739e-005
18057	17.508	2.6364	0.	-0.87576
18058	17.598	2.5455	0.	-23.567
18059	17.508	2.5455	5.e-002	-3.2256e-005
18060	17.508	2.8182	0.	0.28745
18061	17.598	2.7273	0.	-3.423
18062	17.508	2.7273	5.e-002	-2.8155e-005
18063	17.508	3.	0.	0.46549
18064	17.598	2.9091	0.	0.33943
18065	17.508	2.9091	5.e-002	-1.1537e-005
18066	17.508	3.1818	0.	0.28745
18067	17.598	3.0909	0.	0.33943
18068	17.508	3.0909	5.e-002	1.2444e-005
18069	17.508	3.3636	0.	-0.87576
18070	17.598	3.2727	0.	-3.423
18071	17.508	3.2727	5.e-002	2.9209e-005
18072	17.508	3.5455	0.	-7.1367
18073	17.598	3.4545	0.	-23.567
18074	17.508	3.4545	5.e-002	3.539e-005
18075	17.508	3.7273	0.	-27.919
18076	17.598	3.6364	0.	-52.024
18077	17.508	3.6364	5.e-002	3.3572e-005
18078	17.508	3.9091	0.	-23.448
18079	17.598	3.8182	0.	-67.39
18080	17.508	3.8182	5.e-002	5.5013e-006
18081	17.508	4.0909	0.	-8.066
18082	17.598	4.	0.	-43.952
18083	17.508	4.	5.e-002	-2.0489e-005
18084	17.508	4.2727	0.	-5.4861
18085	17.598	4.1818	0.	-8.9285
18086	17.508	4.1818	5.e-002	-1.1022e-004
18087	17.508	4.4545	0.	-4.0512
18088	17.598	4.3636	0.	-4.7164
18089	17.508	4.3636	5.e-002	-1.1503e-004
18090	17.508	4.6364	0.	-2.3644
18091	17.598	4.5455	0.	-2.6915
18092	17.508	4.5455	5.e-002	-1.0189e-004
18093	17.508	4.8182	0.	-2.0057
18094	17.598	4.7273	0.	-2.1437
18095	17.508	4.7273	5.e-002	-5.5953e-005
18096	17.508	5.	0.	-1.7581
18097	17.598	4.9091	0.	-1.8075
18098	17.508	4.9091	5.e-002	-2.9626e-005
18099	17.508	5.1818	0.	-1.6986
18100	17.598	5.0909	0.	-1.6566
18101	17.508	5.0909	5.e-002	-1.7944e-005
18102	17.508	5.3636	0.	-1.8595
18103	17.598	5.2727	0.	-1.6764
18104	17.508	5.2727	5.e-002	-1.2938e-005
18105	17.508	5.5455	0.	-2.1223
18106	17.598	5.4545	0.	-1.79
18107	17.508	5.4545	5.e-002	-2.1256e-006
18108	17.508	5.7273	0.	-2.1077
18109	17.598	5.6364	0.	-1.7066
18110	17.508	5.6364	5.e-002	2.3786e-006
18111	17.598	5.8182	0.	-1.2607
18112	17.508	5.8182	5.e-002	3.5009e-006
18113	17.508	5.9091	0.	-0.15456
18114	17.688	0.27273	0.	-1.0185
18115	17.778	0.18182	0.	-0.56071
18116	17.688	0.18182	5.e-002	3.8505e-006
18117	17.688	9.0909e-002	0.	6.101e-002
18118	17.688	0.45455	0.	-1.3513
18119	17.778	0.36364	0.	-0.94711
18120	17.688	0.36364	5.e-002	7.5352e-006
18121	17.688	0.63636	0.	-1.5053
18122	17.778	0.54545	0.	-1.279
18123	17.688	0.54545	5.e-002	1.0837e-005
18124	17.688	0.81818	0.	-1.5782
18125	17.778	0.72727	0.	-1.4868
18126	17.688	0.72727	5.e-002	2.2354e-005
18127	17.688	1.	0.	-1.7134
18128	17.778	0.90909	0.	-1.6891
18129	17.688	0.90909	5.e-002	2.9421e-005
18130	17.688	1.1818	0.	-2.0227
18131	17.778	1.0909	0.	-2.0039
18132	17.688	1.0909	5.e-002	4.4037e-005
18133	17.688	1.3636	0.	-2.6806
18134	17.778	1.2727	0.	-2.666
18135	17.688	1.2727	5.e-002	5.4055e-005
18136	17.688	1.5455	0.	-4.0477
18137	17.778	1.4545	0.	-4.5393
18138	17.688	1.4545	5.e-002	8.7559e-005
18139	17.688	1.7273	0.	-13.162
18140	17.778	1.6364	0.	-15.563
18141	17.688	1.6364	5.e-002	8.6314e-005
18142	17.688	1.9091	0.	-53.276
18143	17.778	1.8182	0.	-55.163
18144	17.688	1.8182	5.e-002	5.3597e-005
18145	17.688	2.0909	0.	-87.351
18146	17.778	2.	0.	-95.913
18147	17.688	2.	5.e-002	3.8124e-005
18148	17.688	2.2727	0.	-94.781
18149	17.778	2.1818	0.	-116.05
18150	17.688	2.1818	5.e-002	-3.1407e-006
18151	17.688	2.4545	0.	-80.509
18152	17.778	2.3636	0.	-112.64
18153	17.688	2.3636	5.e-002	-1.9267e-005
18154	17.688	2.6364	0.	-59.44
18155	17.778	2.5455	0.	-96.433
18156	17.688	2.5455	5.e-002	-2.6891e-005
18157	17.688	2.8182	0.	-43.456
18158	17.778	2.7273	0.	-80.094
18159	17.688	2.7273	5.e-002	-2.3296e-005
18160	17.688	3.	0.	-37.707
18161	17.778	2.9091	0.	-70.68
18162	17.688	2.9091	5.e-002	-9.529e-006
18163	17.688	3.1818	0.	-43.456
18164	17.778	3.0909	0.	-70.68
18165	17.688	3.0909	5.e-002	9.3292e-006
18166	17.688	3.3636	0.	-59.44
18167	17.778	3.2727	0.	-80.094
18168	17.688	3.2727	5.e-002	2.5477e-005
18169	17.688	3.5455	0.	-80.509
18170	17.778	3.4545	0.	-96.433
18171	17.688	3.4545	5.e-002	2.8936e-005
18172	17.688	3.7273	0.	-94.781
18173	17.778	3.6364	0.	-112.64
18174	17.688	3.6364	5.e-002	2.3747e-005
18175	17.688	3.9091	0.	-87.351
18176	17.778	3.8182	0.	-116.05
18177	17.688	3.8182	5.e-002	3.0745e-006
18178	17.688	4.0909	0.	-53.276
18179	17.778	4.	0.	-95.913
18180	17.688	4.	5.e-002	-4.4141e-005
18181	17.688	4.2727	0.	-13.162
18182	17.778	4.1818	0.	-55.163
18183	17.688	4.1818	5.e-002	-6.9665e-005
18184	17.688	4.4545	0.	-4.0477
18185	17.778	4.3636	0.	-15.563
18186	17.688	4.3636	5.e-002	-1.1672e-004
18187	17.688	4.6364	0.	-2.6806
18188	17.778	4.5455	0.	-4.5393
18189	17.688	4.5455	5.e-002	-8.7018e-005
18190	17.688	4.8182	0.	-2.0227
18191	17.778	4.7273	0.	-2.666
18192	17.688	4.7273	5.e-002	-6.9679e-005
18193	17.688	5.	0.	-1.7134
18194	17.778	4.9091	0.	-2.0039
18195	17.688	4.9091	5.e-002	-4.1122e-005
18196	17.688	5.1818	0.	-1.5782
18197	17.778	5.0909	0.	-1.6891
18198	17.688	5.0909	5.e-002	-1.9915e-005
18199	17.688	5.3636	0.	-1.5053
18200	17.778	5.2727	0.	-1.4868
18201	17.688	5.2727	5.e-002	-1.3563e-005
18202	17.688	5.5455	0.	-1.3513
18203	17.778	5.4545	0.	-1.279
18204	17.688	5.4545	5.e-002	-6.4382e-006
18205	17.688	5.7273	0.	-1.0185
18206	17.778	5.6364	0.	-0.94711
18207	17.688	5.6364	5.e-002	1.3204e-006
18208	17.778	5.8182	0.	-0.56071
18209	17.688	5.8182	5.e-002	2.7176e-006
18210	17.688	5.9091	0.	6.1011e-002
18211	17.868	0.27273	0.	-0.55986
18212	17.959	0.18182	0.	-0.26811
18213	17.868	0.18182	5.e-002	4.123e-006
18214	17.868	9.0909e-002	0.	5.1543e-002
18215	17.868	0.45455	0.	-0.89788
18216	17.959	0.36364	0.	-0.58387
18217	17.868	0.36364	5.e-002	8.5026e-006
18218	17.868	0.63636	0.	-1.2312
18219	17.959	0.54545	0.	-0.9157
18220	17.868	0.54545	5.e-002	1.895e-005
18221	17.868	0.81818	0.	-1.5713
18222	17.959	0.72727	0.	-1.3147
18223	17.868	0.72727	5.e-002	1.6964e-005
18224	17.868	1.	0.	-2.0333
18225	17.959	0.90909	0.	-1.8562
18226	17.868	0.90909	5.e-002	2.7169e-005
18227	17.868	1.1818	0.	-2.9452
18228	17.959	1.0909	0.	-2.909
18229	17.868	1.0909	5.e-002	3.5547e-005
18230	17.868	1.3636	0.	-5.9831
18231	17.959	1.2727	0.	-6.4553
18232	17.868	1.2727	5.e-002	7.9227e-005
18233	17.868	1.5455	0.	-22.298
18234	17.959	1.4545	0.	-22.267
18235	17.868	1.4545	5.e-002	6.8727e-005
18236	17.868	1.7273	0.	-57.6
18237	17.959	1.6364	0.	-53.667
18238	17.868	1.6364	5.e-002	6.6404e-005
18239	17.868	1.9091	0.	-95.801
18240	17.959	1.8182	0.	-90.98
18241	17.868	1.8182	5.e-002	5.0108e-005
18242	17.868	2.0909	0.	-123.79
18243	17.959	2.	0.	-123.74
18244	17.868	2.	5.e-002	1.5558e-005
18245	17.868	2.2727	0.	-134.66
18246	17.959	2.1818	0.	-143.15
18247	17.868	2.1818	5.e-002	1.3093e-005
18248	17.868	2.4545	0.	-130.75
18249	17.959	2.3636	0.	-147.37
18250	17.868	2.3636	5.e-002	-7.9298e-006
18251	17.868	2.6364	0.	-120.09
18252	17.959	2.5455	0.	-141.58
18253	17.868	2.5455	5.e-002	-1.4989e-005
18254	17.868	2.8182	0.	-110.54
18255	17.959	2.7273	0.	-133.14
18256	17.868	2.7273	5.e-002	-1.38e-005
18257	17.868	3.	0.	-106.87
18258	17.959	2.9091	0.	-127.6
18259	17.868	2.9091	5.e-002	-3.0254e-006
18260	17.868	3.1818	0.	-110.54
18261	17.959	3.0909	0.	-127.6
18262	17.868	3.0909	5.e-002	7.7937e-006
18263	17.868	3.3636	0.	-120.09
18264	17.959	3.2727	0.	-133.14
18265	17.868	3.2727	5.e-002	2.0512e-005
18266	17.868	3.5455	0.	-130.75
18267	17.959	3.4545	0.	-141.58
18268	17.868	3.4545	5.e-002	2.254e-005
18269	17.868	3.7273	0.	-134.66
18270	17.959	3.6364	0.	-147.37
18271	17.868	3.6364	5.e-002	1.6633e-005
18272	17.868	3.9091	0.	-123.79
18273	17.959	3.8182	0.	-143.15
18274	17.868	3.8182	5.e-002	-5.6804e-007
18275	17.868	4.0909	0.	-95.801
18276	17.959	4.	0.	-123.74
18277	17.868	4.	5.e-002	-3.024e-005
18278	17.868	4.2727	0.	-57.599
18279	17.959	4.1818	0.	-90.98
18280	17.868	4.1818	5.e-002	-4.5224e-005
18281	17.868	4.4545	0.	-22.298
18282	17.959	4.3636	0.	-53.667
18283	17.868	4.3636	5.e-002	-6.2087e-005
18284	17.868	4.6364	0.	-5.9831
18285	17.959	4.5455	0.	-22.267
18286	17.868	4.5455	5.e-002	-6.8636e-005
18287	17.868	4.8182	0.	-2.9452
18288	17.959	4.7273	0.	-6.4553
18289	17.868	4.7273	5.e-002	-6.2417e-005
18290	17.868	5.	0.	-2.0333
18291	17.959	4.9091	0.	-2.909
18292	17.868	4.9091	5.e-002	-5.1821e-005
18293	17.868	5.1818	0.	-1.5713
18294	17.959	5.0909	0.	-1.8562
18295	17.868	5.0909	5.e-002	-3.6154e-005
18296	17.868	5.3636	0.	-1.2312
18297	17.959	5.2727	0.	-1.3147
18298	17.868	5.2727	5.e-002	-2.0683e-005
18299	17.868	5.5455	0.	-0.89788
18300	17.959	5.4545	0.	-0.9157
18301	17.868	5.4545	5.e-002	-7.2873e-006
18302	17.868	5.7273	0.	-0.55986
18303	17.959	5.6364	0.	-0.58387
18304	17.868	5.6364	5.e-002	-8.354e-007
18305	17.959	5.8182	0.	-0.26811
18306	17.868	5.8182	5.e-002	3.7134e-006
18307	17.868	5.9091	0.	5.1543e-002
18308	18.049	0.27273	0.	-0.32149
18309	18.139	0.18182	0.	-0.12764
18310	18.049	0.18182	5.e-002	6.2337e-006
18311	18.049	9.0909e-002	0.	5.2659e-002
18312	18.049	0.45455	0.	-0.60251
18313	18.139	0.36364	0.	-0.38602
18314	18.049	0.36364	5.e-002	1.0489e-005
18315	18.049	0.63636	0.	-0.9696
18316	18.139	0.54545	0.	-0.66023
18317	18.049	0.54545	5.e-002	2.0529e-005
18318	18.049	0.81818	0.	-1.5497
18319	18.139	0.72727	0.	-1.1487
18320	18.049	0.72727	5.e-002	3.1387e-005
18321	18.049	1.	0.	-2.7966
18322	18.139	0.90909	0.	-2.211
18323	18.049	0.90909	5.e-002	4.1282e-005
18324	18.049	1.1818	0.	-7.5413
18325	18.139	1.0909	0.	-6.323
18326	18.049	1.0909	5.e-002	5.7158e-005
18327	18.049	1.3636	0.	-24.292
18328	18.139	1.2727	0.	-21.062
18329	18.049	1.2727	5.e-002	7.1061e-005
18330	18.049	1.5455	0.	-52.032
18331	18.139	1.4545	0.	-45.669
18332	18.049	1.4545	5.e-002	7.037e-005
18333	18.049	1.7273	0.	-85.204
18334	18.139	1.6364	0.	-76.313
18335	18.049	1.6364	5.e-002	6.0839e-005
18336	18.049	1.9091	0.	-117.5
18337	18.139	1.8182	0.	-108.62
18338	18.049	1.8182	5.e-002	5.0849e-005
18339	18.049	2.0909	0.	-142.31
18340	18.139	2.	0.	-136.8
18341	18.049	2.	5.e-002	2.4718e-005
18342	18.049	2.2727	0.	-155.91
18343	18.139	2.1818	0.	-156.06
18344	18.049	2.1818	5.e-002	1.5866e-005
18345	18.049	2.4545	0.	-159.14
18346	18.139	2.3636	0.	-165.1
18347	18.049	2.3636	5.e-002	6.3357e-007
18348	18.049	2.6364	0.	-156.27
18349	18.139	2.5455	0.	-166.36
18350	18.049	2.5455	5.e-002	-2.7084e-006
18351	18.049	2.8182	0.	-152.23
18352	18.139	2.7273	0.	-164.04
18353	18.049	2.7273	5.e-002	-5.3421e-006
18354	18.049	3.	0.	-150.48
18355	18.139	2.9091	0.	-161.86
18356	18.049	2.9091	5.e-002	2.8621e-006
18357	18.049	3.1818	0.	-152.23
18358	18.139	3.0909	0.	-161.86
18359	18.049	3.0909	5.e-002	1.05e-005
18360	18.049	3.3636	0.	-156.27
18361	18.139	3.2727	0.	-164.04
18362	18.049	3.2727	5.e-002	1.4664e-005
18363	18.049	3.5455	0.	-159.14
18364	18.139	3.4545	0.	-166.36
18365	18.049	3.4545	5.e-002	1.356e-005
18366	18.049	3.7273	0.	-155.91
18367	18.139	3.6364	0.	-165.1
18368	18.049	3.6364	5.e-002	9.3875e-006
18369	18.049	3.9091	0.	-142.31
18370	18.139	3.8182	0.	-156.06
18371	18.049	3.8182	5.e-002	-6.9797e-007
18372	18.049	4.0909	0.	-117.5
18373	18.139	4.	0.	-136.8
18374	18.049	4.	5.e-002	-1.7051e-005
18375	18.049	4.2727	0.	-85.204
18376	18.139	4.1818	0.	-108.62
18377	18.049	4.1818	5.e-002	-3.5023e-005
18378	18.049	4.4545	0.	-52.031
18379	18.139	4.3636	0.	-76.313
18380	18.049	4.3636	5.e-002	-7.1653e-005
18381	18.049	4.6364	0.	-24.292
18382	18.139	4.5455	0.	-45.669
18383	18.049	4.5455	5.e-002	-5.4331e-005
18384	18.049	4.8182	0.	-7.5413
18385	18.139	4.7273	0.	-21.062
18386	18.049	4.7273	5.e-002	-5.5962e-005
18387	18.049	5.	0.	-2.7966
18388	18.139	4.9091	0.	-6.3229
18389	18.049	4.9091	5.e-002	-4.2874e-005
18390	18.049	5.1818	0.	-1.5497
18391	18.139	5.0909	0.	-2.211
18392	18.049	5.0909	5.e-002	-3.4619e-005
18393	18.049	5.3636	0.	-0.9696
18394	18.139	5.2727	0.	-1.1487
18395	18.049	5.2727	5.e-002	-1.7059e-005
18396	18.049	5.5455	0.	-0.60251
18397	18.139	5.4545	0.	-0.66023
18398	18.049	5.4545	5.e-002	-7.3617e-006
18399	18.049	5.7273	0.	-0.32149
18400	18.139	5.6364	0.	-0.38602
18401	18.049	5.6364	5.e-002	2.4631e-007
18402	18.139	5.8182	0.	-0.12764
18403	18.049	5.8182	5.e-002	4.3809e-006
18404	18.049	5.9091	0.	5.2659e-002
18405	18.229	0.27273	0.	-0.20347
18406	18.319	0.18182	0.	-6.4589e-002
18407	18.229	0.18182	5.e-002	5.2051e-006
18408	18.229	9.0909e-002	0.	4.5771e-002
18409	18.229	0.45455	0.	-0.42663
18410	18.319	0.36364	0.	-0.27382
18411	18.229	0.36364	5.e-002	1.0468e-005
18412	18.229	0.63636	0.	-0.77706
18413	18.319	0.54545	0.	-0.4921
18414	18.229	0.54545	5.e-002	1.5616e-005
18415	18.229	0.81818	0.	-1.6033
18416	18.319	0.72727	0.	-1.0276
18417	18.229	0.72727	5.e-002	2.8114e-005
18418	18.229	1.	0.	-5.0826
18419	18.319	0.90909	0.	-3.0607
18420	18.229	0.90909	5.e-002	3.9376e-005
18421	18.229	1.1818	0.	-18.731
18422	18.319	1.0909	0.	-13.619
18423	18.229	1.0909	5.e-002	2.3388e-005
18424	18.229	1.3636	0.	-41.018
18425	18.319	1.2727	0.	-33.423
18426	18.229	1.2727	5.e-002	6.0392e-005
18427	18.229	1.5455	0.	-68.562
18428	18.319	1.4545	0.	-58.55
18429	18.229	1.4545	5.e-002	5.9057e-005
18430	18.229	1.7273	0.	-98.516
18431	18.319	1.6364	0.	-86.936
18432	18.229	1.6364	5.e-002	6.1266e-005
18433	18.229	1.9091	0.	-126.96
18434	18.319	1.8182	0.	-115.59
18435	18.229	1.8182	5.e-002	4.1075e-005
18436	18.229	2.0909	0.	-149.93
18437	18.319	2.	0.	-140.89
18438	18.229	2.	5.e-002	2.5059e-005
18439	18.229	2.2727	0.	-165.12
18440	18.319	2.1818	0.	-159.93
18441	18.229	2.1818	5.e-002	1.5688e-005
18442	18.229	2.4545	0.	-172.73
18443	18.319	2.3636	0.	-171.69
18444	18.229	2.3636	5.e-002	5.7478e-006
18445	18.229	2.6364	0.	-175.02
18446	18.319	2.5455	0.	-177.3
18447	18.229	2.5455	5.e-002	1.2726e-006
18448	18.229	2.8182	0.	-174.88
18449	18.319	2.7273	0.	-179.07
18450	18.229	2.7273	5.e-002	-1.6971e-006
18451	18.229	3.	0.	-174.56
18452	18.319	2.9091	0.	-179.28
18453	18.229	2.9091	5.e-002	5.1946e-007
18454	18.229	3.1818	0.	-174.88
18455	18.319	3.0909	0.	-179.28
18456	18.229	3.0909	5.e-002	3.3042e-006
18457	18.229	3.3636	0.	-175.02
18458	18.319	3.2727	0.	-179.07
18459	18.229	3.2727	5.e-002	7.3855e-006
18460	18.229	3.5455	0.	-172.73
18461	18.319	3.4545	0.	-177.3
18462	18.229	3.4545	5.e-002	6.0546e-006
18463	18.229	3.7273	0.	-165.12
18464	18.319	3.6364	0.	-171.69
18465	18.229	3.6364	5.e-002	4.9422e-006
18466	18.229	3.9091	0.	-149.93
18467	18.319	3.8182	0.	-159.93
18468	18.229	3.8182	5.e-002	-1.6473e-006
18469	18.229	4.0909	0.	-126.96
18470	18.319	4.	0.	-140.89
18471	18.229	4.	5.e-002	-2.4421e-005
18472	18.229	4.2727	0.	-98.516
18473	18.319	4.1818	0.	-115.59
18474	18.229	4.1818	5.e-002	-2.5757e-005
18475	18.229	4.4545	0.	-68.562
18476	18.319	4.3636	0.	-86.936
18477	18.229	4.3636	5.e-002	-4.586e-005
18478	18.229	4.6364	0.	-41.017
18479	18.319	4.5455	0.	-58.55
18480	18.229	4.5455	5.e-002	-4.2327e-005
18481	18.229	4.8182	0.	-18.731
18482	18.319	4.7273	0.	-33.423
18483	18.229	4.7273	5.e-002	-2.9878e-005
18484	18.229	5.	0.	-5.0825
18485	18.319	4.9091	0.	-13.619
18486	18.229	4.9091	5.e-002	-2.4746e-005
18487	18.229	5.1818	0.	-1.6033
18488	18.319	5.0909	0.	-3.0606
18489	18.229	5.0909	5.e-002	-4.2459e-005
18490	18.229	5.3636	0.	-0.77706
18491	18.319	5.2727	0.	-1.0276
18492	18.229	5.2727	5.e-002	-2.3993e-005
18493	18.229	5.5455	0.	-0.42663
18494	18.319	5.4545	0.	-0.49209
18495	18.229	5.4545	5.e-002	-1.4717e-005
18496	18.229	5.7273	0.	-0.20347
18497	18.319	5.6364	0.	-0.27382
18498	18.229	5.6364	5.e-002	-2.1821e-006
18499	18.319	5.8182	0.	-6.4588e-002
18500	18.229	5.8182	5.e-002	2.557e-006
18501	18.229	5.9091	0.	4.5771e-002
18502	18.409	0.27273	0.	-0.13782
18503	18.5	0.18182	0.	-3.5738e-002
18504	18.409	0.18182	5.e-002	8.6121e-006
18505	18.409	9.0909e-002	0.	4.3553e-002
18506	18.409	0.45455	0.	-0.31285
18507	18.5	0.36364	0.	-0.20222
18508	18.409	0.36364	5.e-002	1.4592e-005
18509	18.409	0.63636	0.	-0.63825
18510	18.5	0.54545	0.	-0.37803
18511	18.409	0.54545	5.e-002	2.2505e-005
18512	18.409	0.81818	0.	-1.8022
18513	18.5	0.72727	0.	-0.96168
18514	18.409	0.72727	5.e-002	3.4613e-005
18515	18.409	1.	0.	-9.5374
18516	18.5	0.90909	0.	-4.9199
18517	18.409	0.90909	5.e-002	3.703e-005
18518	18.409	1.1818	0.	-27.265
18519	18.5	1.0909	0.	-19.707
18520	18.409	1.0909	5.e-002	3.1704e-005
18521	18.409	1.3636	0.	-50.04
18522	18.5	1.2727	0.	-40.255
18523	18.409	1.2727	5.e-002	2.3457e-005
18524	18.409	1.5455	0.	-76.071
18525	18.5	1.4545	0.	-64.36
18526	18.409	1.4545	5.e-002	4.0693e-005
18527	18.409	1.7273	0.	-103.25
18528	18.5	1.6364	0.	-90.409
18529	18.409	1.6364	5.e-002	3.1183e-005
18530	18.409	1.9091	0.	-128.9
18531	18.5	1.8182	0.	-116.21
18532	18.409	1.8182	5.e-002	3.5451e-005
18533	18.409	2.0909	0.	-150.47
18534	18.5	2.	0.	-139.35
18535	18.409	2.	5.e-002	2.3483e-005
18536	18.409	2.2727	0.	-166.35
18537	18.5	2.1818	0.	-157.87
18538	18.409	2.1818	5.e-002	1.9155e-005
18539	18.409	2.4545	0.	-176.44
18540	18.5	2.3636	0.	-170.96
18541	18.409	2.3636	5.e-002	8.3401e-006
18542	18.409	2.6364	0.	-181.83
18543	18.5	2.5455	0.	-179.02
18544	18.409	2.5455	5.e-002	6.2558e-006
18545	18.409	2.8182	0.	-184.16
18546	18.5	2.7273	0.	-183.25
18547	18.409	2.7273	5.e-002	7.2829e-006
18548	18.409	3.	0.	-184.77
18549	18.5	2.9091	0.	-184.96
18550	18.409	2.9091	5.e-002	4.8983e-006
18551	18.409	3.1818	0.	-184.16
18552	18.5	3.0909	0.	-184.96
18553	18.409	3.0909	5.e-002	6.5236e-006
18554	18.409	3.3636	0.	-181.83
18555	18.5	3.2727	0.	-183.25
18556	18.409	3.2727	5.e-002	7.8873e-006
18557	18.409	3.5455	0.	-176.44
18558	18.5	3.4545	0.	-179.02
18559	18.409	3.4545	5.e-002	3.6452e-006
18560	18.409	3.7273	0.	-166.35
18561	18.5	3.6364	0.	-170.96
18562	18.409	3.6364	5.e-002	2.7576e-006
18563	18.409	3.9091	0.	-150.47
18564	18.5	3.8182	0.	-157.87
18565	18.409	3.8182	5.e-002	-8.0967e-006
18566	18.409	4.0909	0.	-128.9
18567	18.5	4.	0.	-139.35
18568	18.409	4.	5.e-002	-2.1664e-005
18569	18.409	4.2727	0.	-103.25
18570	18.5	4.1818	0.	-116.21
18571	18.409	4.1818	5.e-002	-3.0113e-005
18572	18.409	4.4545	0.	-76.071
18573	18.5	4.3636	0.	-90.409
18574	18.409	4.3636	5.e-002	-2.7297e-005
18575	18.409	4.6364	0.	-50.04
18576	18.5	4.5455	0.	-64.36
18577	18.409	4.5455	5.e-002	-3.4433e-005
18578	18.409	4.8182	0.	-27.265
18579	18.5	4.7273	0.	-40.255
18580	18.409	4.7273	5.e-002	-5.0412e-005
18581	18.409	5.	0.	-9.5373
18582	18.5	4.9091	0.	-19.707
18583	18.409	4.9091	5.e-002	-4.7076e-005
18584	18.409	5.1818	0.	-1.8022
18585	18.5	5.0909	0.	-4.9199
18586	18.409	5.0909	5.e-002	-3.728e-005
18587	18.409	5.3636	0.	-0.63825
18588	18.5	5.2727	0.	-0.96167
18589	18.409	5.2727	5.e-002	-3.5499e-005
18590	18.409	5.5455	0.	-0.31284
18591	18.5	5.4545	0.	-0.37802
18592	18.409	5.4545	5.e-002	-1.9624e-005
18593	18.409	5.7273	0.	-0.13782
18594	18.5	5.6364	0.	-0.20222
18595	18.409	5.6364	5.e-002	-2.1793e-006
18596	18.5	5.8182	0.	-3.5737e-002
18597	18.409	5.8182	5.e-002	3.8144e-006
18598	18.409	5.9091	0.	4.3552e-002
18599	18.59	0.27273	0.	-9.8978e-002
18600	18.68	0.18182	0.	-2.2859e-002
18601	18.59	0.18182	5.e-002	4.3431e-006
18602	18.59	9.0909e-002	0.	4.3334e-002
18603	18.59	0.45455	0.	-0.23621
18604	18.68	0.36364	0.	-0.1527
18605	18.59	0.36364	5.e-002	1.2724e-005
18606	18.59	0.63636	0.	-0.54464
18607	18.68	0.54545	0.	-0.29939
18608	18.59	0.54545	5.e-002	1.4652e-005
18609	18.59	0.81818	0.	-2.3358
18610	18.68	0.72727	0.	-0.97113
18611	18.59	0.72727	5.e-002	3.3421e-005
18612	18.59	1.	0.	-13.75
18613	18.68	0.90909	0.	-7.5402
18614	18.59	0.90909	5.e-002	3.1657e-005
18615	18.59	1.1818	0.	-32.116
18616	18.68	1.0909	0.	-23.493
18617	18.59	1.0909	5.e-002	2.5016e-005
18618	18.59	1.3636	0.	-54.042
18619	18.68	1.2727	0.	-43.401
18620	18.59	1.2727	5.e-002	4.5544e-005
18621	18.59	1.5455	0.	-78.194
18622	18.68	1.4545	0.	-65.915
18623	18.59	1.4545	5.e-002	3.7636e-005
18624	18.59	1.7273	0.	-102.92
18625	18.68	1.6364	0.	-89.69
18626	18.59	1.6364	5.e-002	3.6275e-005
18627	18.59	1.9091	0.	-126.28
18628	18.68	1.8182	0.	-113.06
18629	18.59	1.8182	5.e-002	2.8281e-005
18630	18.59	2.0909	0.	-146.49
18631	18.68	2.	0.	-134.3
18632	18.59	2.	5.e-002	1.7761e-005
18633	18.59	2.2727	0.	-162.37
18634	18.68	2.1818	0.	-152.01
18635	18.59	2.1818	5.e-002	1.503e-005
18636	18.59	2.4545	0.	-173.61
18637	18.68	2.3636	0.	-165.46
18638	18.59	2.3636	5.e-002	9.1301e-006
18639	18.59	2.6364	0.	-180.69
18640	18.68	2.5455	0.	-174.69
18641	18.59	2.5455	5.e-002	9.1648e-006
18642	18.59	2.8182	0.	-184.43
18643	18.68	2.7273	0.	-180.23
18644	18.59	2.7273	5.e-002	5.0127e-006
18645	18.59	3.	0.	-185.58
18646	18.68	2.9091	0.	-182.78
18647	18.59	2.9091	5.e-002	4.88e-006
18648	18.59	3.1818	0.	-184.43
18649	18.68	3.0909	0.	-182.78
18650	18.59	3.0909	5.e-002	2.7489e-006
18651	18.59	3.3636	0.	-180.69
18652	18.68	3.2727	0.	-180.23
18653	18.59	3.2727	5.e-002	4.2625e-006
18654	18.59	3.5455	0.	-173.61
18655	18.68	3.4545	0.	-174.69
18656	18.59	3.4545	5.e-002	3.7426e-006
18657	18.59	3.7273	0.	-162.37
18658	18.68	3.6364	0.	-165.46
18659	18.59	3.6364	5.e-002	-2.885e-006
18660	18.59	3.9091	0.	-146.49
18661	18.68	3.8182	0.	-152.01
18662	18.59	3.8182	5.e-002	1.7488e-008
18663	18.59	4.0909	0.	-126.28
18664	18.68	4.	0.	-134.3
18665	18.59	4.	5.e-002	-1.51e-005
18666	18.59	4.2727	0.	-102.92
18667	18.68	4.1818	0.	-113.06
18668	18.59	4.1818	5.e-002	-1.9591e-005
18669	18.59	4.4545	0.	-78.194
18670	18.68	4.3636	0.	-89.69
18671	18.59	4.3636	5.e-002	-2.5719e-005
18672	18.59	4.6364	0.	-54.042
18673	18.68	4.5455	0.	-65.915
18674	18.59	4.5455	5.e-002	-2.9435e-005
18675	18.59	4.8182	0.	-32.116
18676	18.68	4.7273	0.	-43.401
18677	18.59	4.7273	5.e-002	-4.1029e-005
18678	18.59	5.	0.	-13.75
18679	18.68	4.9091	0.	-23.493
18680	18.59	4.9091	5.e-002	-3.8527e-005
18681	18.59	5.1818	0.	-2.3358
18682	18.68	5.0909	0.	-7.5401
18683	18.59	5.0909	5.e-002	-3.1466e-005
18684	18.59	5.3636	0.	-0.54463
18685	18.68	5.2727	0.	-0.97113
18686	18.59	5.2727	5.e-002	-3.5947e-005
18687	18.59	5.5455	0.	-0.23621
18688	18.68	5.4545	0.	-0.29939
18689	18.59	5.4545	5.e-002	-2.1405e-005
18690	18.59	5.7273	0.	-9.8977e-002
18691	18.68	5.6364	0.	-0.1527
18692	18.59	5.6364	5.e-002	-5.0196e-006
18693	18.68	5.8182	0.	-2.2858e-002
18694	18.59	5.8182	5.e-002	4.8296e-006
18695	18.59	5.9091	0.	4.3335e-002
18696	18.77	0.27273	0.	-7.3607e-002
18697	18.86	0.18182	0.	-1.6889e-002
18698	18.77	0.18182	5.e-002	3.1753e-006
18699	18.77	9.0909e-002	0.	4.4439e-002
18700	18.77	0.45455	0.	-0.18169
18701	18.86	0.36364	0.	-0.11595
18702	18.77	0.36364	5.e-002	2.3584e-005
18703	18.77	0.63636	0.	-0.48812
18704	18.86	0.54545	0.	-0.24398
18705	18.77	0.54545	5.e-002	3.3088e-005
18706	18.77	0.81818	0.	-3.5133
18707	18.86	0.72727	0.	-1.1091
18708	18.77	0.72727	5.e-002	2.9909e-005
18709	18.77	1.	0.	-16.699
18710	18.86	0.90909	0.	-9.9273
18711	18.77	0.90909	5.e-002	2.5645e-005
18712	18.77	1.1818	0.	-34.46
18713	18.86	1.0909	0.	-25.557
18714	18.77	1.0909	5.e-002	2.021e-005
18715	18.77	1.3636	0.	-54.975
18716	18.86	1.2727	0.	-44.232
18717	18.77	1.2727	5.e-002	2.7731e-005
18718	18.77	1.5455	0.	-77.123
18719	18.86	1.4545	0.	-64.924
18720	18.77	1.4545	5.e-002	3.039e-005
18721	18.77	1.7273	0.	-99.572
18722	18.86	1.6364	0.	-86.502
18723	18.77	1.6364	5.e-002	2.5842e-005
18724	18.77	1.9091	0.	-120.86
18725	18.86	1.8182	0.	-107.66
18726	18.77	1.8182	5.e-002	2.1458e-005
18727	18.77	2.0909	0.	-139.66
18728	18.86	2.	0.	-127.1
18729	18.77	2.	5.e-002	1.9597e-005
18730	18.77	2.2727	0.	-155.03
18731	18.86	2.1818	0.	-143.74
18732	18.77	2.1818	5.e-002	1.309e-005
18733	18.77	2.4545	0.	-166.57
18734	18.86	2.3636	0.	-156.94
18735	18.77	2.3636	5.e-002	1.2693e-005
18736	18.77	2.6364	0.	-174.37
18737	18.86	2.5455	0.	-166.5
18738	18.77	2.5455	5.e-002	1.1058e-005
18739	18.77	2.8182	0.	-178.8
18740	18.86	2.7273	0.	-172.59
18741	18.77	2.7273	5.e-002	9.5598e-006
18742	18.77	3.	0.	-180.23
18743	18.86	2.9091	0.	-175.53
18744	18.77	2.9091	5.e-002	4.5207e-006
18745	18.77	3.1818	0.	-178.8
18746	18.86	3.0909	0.	-175.53
18747	18.77	3.0909	5.e-002	6.9178e-006
18748	18.77	3.3636	0.	-174.37
18749	18.86	3.2727	0.	-172.59
18750	18.77	3.2727	5.e-002	3.6183e-006
18751	18.77	3.5455	0.	-166.57
18752	18.86	3.4545	0.	-166.5
18753	18.77	3.4545	5.e-002	3.8526e-006
18754	18.77	3.7273	0.	-155.03
18755	18.86	3.6364	0.	-156.94
18756	18.77	3.6364	5.e-002	-1.2046e-006
18757	18.77	3.9091	0.	-139.66
18758	18.86	3.8182	0.	-143.74
18759	18.77	3.8182	5.e-002	3.6285e-007
18760	18.77	4.0909	0.	-120.86
18761	18.86	4.	0.	-127.1
18762	18.77	4.	5.e-002	-6.0925e-006
18763	18.77	4.2727	0.	-99.572
18764	18.86	4.1818	0.	-107.66
18765	18.77	4.1818	5.e-002	-1.6605e-005
18766	18.77	4.4545	0.	-77.123
18767	18.86	4.3636	0.	-86.502
18768	18.77	4.3636	5.e-002	-1.5453e-005
18769	18.77	4.6364	0.	-54.974
18770	18.86	4.5455	0.	-64.924
18771	18.77	4.5455	5.e-002	-1.2172e-005
18772	18.77	4.8182	0.	-34.46
18773	18.86	4.7273	0.	-44.232
18774	18.77	4.7273	5.e-002	-3.1557e-005
18775	18.77	5.	0.	-16.699
18776	18.86	4.9091	0.	-25.557
18777	18.77	4.9091	5.e-002	-2.714e-005
18778	18.77	5.1818	0.	-3.5133
18779	18.86	5.0909	0.	-9.9273
18780	18.77	5.0909	5.e-002	-2.2637e-005
18781	18.77	5.3636	0.	-0.48812
18782	18.86	5.2727	0.	-1.1091
18783	18.77	5.2727	5.e-002	-2.9676e-005
18784	18.77	5.5455	0.	-0.18169
18785	18.86	5.4545	0.	-0.24397
18786	18.77	5.4545	5.e-002	-2.6025e-005
18787	18.77	5.7273	0.	-7.3607e-002
18788	18.86	5.6364	0.	-0.11595
18789	18.77	5.6364	5.e-002	-1.4805e-005
18790	18.86	5.8182	0.	-1.6889e-002
18791	18.77	5.8182	5.e-002	6.7998e-006
18792	18.77	5.9091	0.	4.4439e-002
18793	18.95	0.27273	0.	-5.5681e-002
18794	19.041	0.18182	0.	-1.3828e-002
18795	18.95	0.18182	5.e-002	6.4844e-006
18796	18.95	9.0909e-002	0.	4.5545e-002
18797	18.95	0.45455	0.	-0.14121
18798	19.041	0.36364	0.	-8.7333e-002
18799	18.95	0.36364	5.e-002	3.0509e-005
18800	18.95	0.63636	0.	-0.46734
18801	19.041	0.54545	0.	-0.20417
18802	18.95	0.54545	5.e-002	2.4152e-005
18803	18.95	0.81818	0.	-5.2059
18804	19.041	0.72727	0.	-1.5196
18805	18.95	0.72727	5.e-002	2.1326e-005
18806	18.95	1.	0.	-18.522
18807	19.041	0.90909	0.	-11.688
18808	18.95	0.90909	5.e-002	2.3337e-005
18809	18.95	1.1818	0.	-35.16
18810	19.041	1.0909	0.	-26.4
18811	18.95	1.0909	5.e-002	2.4983e-005
18812	18.95	1.3636	0.	-54.02
18813	19.041	1.2727	0.	-43.584
18814	18.95	1.2727	5.e-002	2.0533e-005
18815	18.95	1.5455	0.	-74.146
18816	19.041	1.4545	0.	-62.387
18817	18.95	1.4545	5.e-002	1.9834e-005
18818	18.95	1.7273	0.	-94.448
18819	19.041	1.6364	0.	-81.855
18820	18.95	1.6364	5.e-002	1.2623e-005
18821	18.95	1.9091	0.	-113.78
18822	19.041	1.8182	0.	-100.94
18823	18.95	1.8182	5.e-002	1.2883e-005
18824	18.95	2.0909	0.	-131.09
18825	19.041	2.	0.	-118.62
18826	18.95	2.	5.e-002	1.8069e-005
18827	18.95	2.2727	0.	-145.61
18828	19.041	2.1818	0.	-134.03
18829	18.95	2.1818	5.e-002	1.5289e-005
18830	18.95	2.4545	0.	-156.88
18831	19.041	2.3636	0.	-146.56
18832	18.95	2.3636	5.e-002	1.3684e-005
18833	18.95	2.6364	0.	-164.79
18834	19.041	2.5455	0.	-155.93
18835	18.95	2.5455	5.e-002	9.152e-006
18836	18.95	2.8182	0.	-169.44
18837	19.041	2.7273	0.	-162.09
18838	18.95	2.7273	5.e-002	8.0683e-006
18839	18.95	3.	0.	-170.97
18840	19.041	2.9091	0.	-165.14
18841	18.95	2.9091	5.e-002	5.8975e-006
18842	18.95	3.1818	0.	-169.44
18843	19.041	3.0909	0.	-165.14
18844	18.95	3.0909	5.e-002	7.4273e-006
18845	18.95	3.3636	0.	-164.79
18846	19.041	3.2727	0.	-162.09
18847	18.95	3.2727	5.e-002	3.4481e-006
18848	18.95	3.5455	0.	-156.88
18849	19.041	3.4545	0.	-155.93
18850	18.95	3.4545	5.e-002	4.2701e-006
18851	18.95	3.7273	0.	-145.61
18852	19.041	3.6364	0.	-146.56
18853	18.95	3.6364	5.e-002	2.4639e-006
18854	18.95	3.9091	0.	-131.09
18855	19.041	3.8182	0.	-134.03
18856	18.95	3.8182	5.e-002	-2.6106e-006
18857	18.95	4.0909	0.	-113.78
18858	19.041	4.	0.	-118.62
18859	18.95	4.	5.e-002	-4.9615e-006
18860	18.95	4.2727	0.	-94.448
18861	19.041	4.1818	0.	-100.94
18862	18.95	4.1818	5.e-002	-5.4101e-006
18863	18.95	4.4545	0.	-74.146
18864	19.041	4.3636	0.	-81.855
18865	18.95	4.3636	5.e-002	-1.669e-006
18866	18.95	4.6364	0.	-54.02
18867	19.041	4.5455	0.	-62.387
18868	18.95	4.5455	5.e-002	4.2802e-006
18869	18.95	4.8182	0.	-35.16
18870	19.041	4.7273	0.	-43.584
18871	18.95	4.7273	5.e-002	-1.1831e-005
18872	18.95	5.	0.	-18.522
18873	19.041	4.9091	0.	-26.4
18874	18.95	4.9091	5.e-002	-1.7551e-005
18875	18.95	5.1818	0.	-5.2058
18876	19.041	5.0909	0.	-11.687
18877	18.95	5.0909	5.e-002	-1.3575e-005
18878	18.95	5.3636	0.	-0.46734
18879	19.041	5.2727	0.	-1.5196
18880	18.95	5.2727	5.e-002	-1.6727e-005
18881	18.95	5.5455	0.	-0.1412
18882	19.041	5.4545	0.	-0.20417
18883	18.95	5.4545	5.e-002	-5.8053e-007
18884	18.95	5.7273	0.	-5.5681e-002
18885	19.041	5.6364	0.	-8.7332e-002
18886	18.95	5.6364	5.e-002	-3.0509e-005
18887	19.041	5.8182	0.	-1.383e-002
18888	18.95	5.8182	5.e-002	7.9398e-006
18889	18.95	5.9091	0.	4.5546e-002
18890	19.131	0.27273	0.	-4.2127e-002
18891	19.221	0.18182	0.	-1.1878e-002
18892	19.131	0.18182	5.e-002	4.285e-006
18893	19.131	9.0909e-002	0.	4.5801e-002
18894	19.131	0.45455	0.	-0.10972
18895	19.221	0.36364	0.	-6.4249e-002
18896	19.131	0.36364	5.e-002	8.4096e-006
18897	19.131	0.63636	0.	-0.49081
18898	19.221	0.54545	0.	-0.17455
18899	19.131	0.54545	5.e-002	1.1885e-005
18900	19.131	0.81818	0.	-6.7874
18901	19.221	0.72727	0.	-2.3583
18902	19.131	0.72727	5.e-002	1.4611e-005
18903	19.131	1.	0.	-19.446
18904	19.221	0.90909	0.	-12.784
18905	19.131	0.90909	5.e-002	1.2672e-005
18906	19.131	1.1818	0.	-34.741
18907	19.221	1.0909	0.	-26.343
18908	19.131	1.0909	5.e-002	1.5737e-005
18909	19.131	1.3636	0.	-51.87
18910	19.221	1.2727	0.	-41.95
18911	19.131	1.2727	5.e-002	1.8241e-005
18912	19.131	1.5455	0.	-70.017
18913	19.221	1.4545	0.	-58.884
18914	19.131	1.4545	5.e-002	2.175e-005
18915	19.131	1.7273	0.	-88.278
18916	19.221	1.6364	0.	-76.342
18917	19.131	1.6364	5.e-002	1.6934e-005
18918	19.131	1.9091	0.	-105.73
18919	19.221	1.8182	0.	-93.469
18920	19.131	1.8182	5.e-002	1.5155e-005
18921	19.131	2.0909	0.	-121.51
18922	19.221	2.	0.	-109.43
18923	19.131	2.	5.e-002	1.0549e-005
18924	19.131	2.2727	0.	-134.96
18925	19.221	2.1818	0.	-123.5
18926	19.131	2.1818	5.e-002	1.1765e-005
18927	19.131	2.4545	0.	-145.62
18928	19.221	2.3636	0.	-135.13
18929	19.131	2.3636	5.e-002	1.1447e-005
18930	19.131	2.6364	0.	-153.27
18931	19.221	2.5455	0.	-143.99
18932	19.131	2.5455	5.e-002	7.8081e-006
18933	19.131	2.8182	0.	-157.85
18934	19.221	2.7273	0.	-149.93
18935	19.131	2.7273	5.e-002	4.7995e-006
18936	19.131	3.	0.	-159.37
18937	19.221	2.9091	0.	-152.89
18938	19.131	2.9091	5.e-002	7.288e-006
18939	19.131	3.1818	0.	-157.85
18940	19.221	3.0909	0.	-152.89
18941	19.131	3.0909	5.e-002	4.1276e-006
18942	19.131	3.3636	0.	-153.27
18943	19.221	3.2727	0.	-149.93
18944	19.131	3.2727	5.e-002	4.596e-006
18945	19.131	3.5455	0.	-145.62
18946	19.221	3.4545	0.	-143.99
18947	19.131	3.4545	5.e-002	3.0718e-006
18948	19.131	3.7273	0.	-134.96
18949	19.221	3.6364	0.	-135.13
18950	19.131	3.6364	5.e-002	2.2295e-006
18951	19.131	3.9091	0.	-121.51
18952	19.221	3.8182	0.	-123.5
18953	19.131	3.8182	5.e-002	2.3519e-007
18954	19.131	4.0909	0.	-105.73
18955	19.221	4.	0.	-109.43
18956	19.131	4.	5.e-002	-3.275e-007
18957	19.131	4.2727	0.	-88.278
18958	19.221	4.1818	0.	-93.469
18959	19.131	4.1818	5.e-002	-6.5115e-006
18960	19.131	4.4545	0.	-70.017
18961	19.221	4.3636	0.	-76.342
18962	19.131	4.3636	5.e-002	-3.7558e-006
18963	19.131	4.6364	0.	-51.87
18964	19.221	4.5455	0.	-58.884
18965	19.131	4.5455	5.e-002	-1.0777e-005
18966	19.131	4.8182	0.	-34.741
18967	19.221	4.7273	0.	-41.95
18968	19.131	4.7273	5.e-002	-8.5977e-006
18969	19.131	5.	0.	-19.445
18970	19.221	4.9091	0.	-26.343
18971	19.131	4.9091	5.e-002	-2.928e-006
18972	19.131	5.1818	0.	-6.7874
18973	19.221	5.0909	0.	-12.784
18974	19.131	5.0909	5.e-002	-5.7552e-006
18975	19.131	5.3636	0.	-0.49081
18976	19.221	5.2727	0.	-2.3583
18977	19.131	5.2727	5.e-002	9.3533e-008
18978	19.131	5.5455	0.	-0.10972
18979	19.221	5.4545	0.	-0.17455
18980	19.131	5.4545	5.e-002	3.6817e-007
18981	19.131	5.7273	0.	-4.2128e-002
18982	19.221	5.6364	0.	-6.4249e-002
18983	19.131	5.6364	5.e-002	2.4668e-006
18984	19.221	5.8182	0.	-1.1879e-002
18985	19.131	5.8182	5.e-002	4.2512e-006
18986	19.131	5.9091	0.	4.5799e-002
18987	19.311	0.27273	0.	-3.135e-002
18988	19.401	0.18182	0.	-1.0275e-002
18989	19.311	0.18182	5.e-002	6.3239e-006
18990	19.311	9.0909e-002	0.	4.4707e-002
18991	19.311	0.45455	0.	-8.3827e-002
18992	19.401	0.36364	0.	-4.5148e-002
18993	19.311	0.36364	5.e-002	1.32e-005
18994	19.311	0.63636	0.	-0.58781
18995	19.401	0.54545	0.	-0.15035
18996	19.311	0.54545	5.e-002	1.3566e-005
18997	19.311	0.81818	0.	-7.9203
18998	19.401	0.72727	0.	-3.3253
18999	19.311	0.72727	5.e-002	1.1884e-005
19000	19.311	1.	0.	-19.633
19001	19.401	0.90909	0.	-13.257
19002	19.311	0.90909	5.e-002	1.1942e-005
19003	19.311	1.1818	0.	-33.517
19004	19.401	1.0909	0.	-25.582
19005	19.311	1.0909	5.e-002	1.2109e-005
19006	19.311	1.3636	0.	-48.929
19007	19.401	1.2727	0.	-39.618
19008	19.311	1.2727	5.e-002	1.7185e-005
19009	19.311	1.5455	0.	-65.175
19010	19.401	1.4545	0.	-54.753
19011	19.311	1.4545	5.e-002	1.2336e-005
19012	19.311	1.7273	0.	-81.501
19013	19.401	1.6364	0.	-70.311
19014	19.311	1.6364	5.e-002	1.7672e-005
19015	19.311	1.9091	0.	-97.143
19016	19.401	1.8182	0.	-85.582
19017	19.311	1.8182	5.e-002	1.5376e-005
19018	19.311	2.0909	0.	-111.39
19019	19.401	2.	0.	-99.873
19020	19.311	2.	5.e-002	1.4392e-005
19021	19.311	2.2727	0.	-123.66
19022	19.401	2.1818	0.	-112.57
19023	19.311	2.1818	5.e-002	1.3499e-005
19024	19.311	2.4545	0.	-133.51
19025	19.401	2.3636	0.	-123.18
19026	19.311	2.3636	5.e-002	1.3559e-005
19027	19.311	2.6364	0.	-140.67
19028	19.401	2.5455	0.	-131.35
19029	19.311	2.5455	5.e-002	7.6728e-006
19030	19.311	2.8182	0.	-145.01
19031	19.401	2.7273	0.	-136.89
19032	19.311	2.7273	5.e-002	8.7438e-006
19033	19.311	3.	0.	-146.46
19034	19.401	2.9091	0.	-139.68
19035	19.311	2.9091	5.e-002	8.7227e-006
19036	19.311	3.1818	0.	-145.01
19037	19.401	3.0909	0.	-139.68
19038	19.311	3.0909	5.e-002	4.6243e-006
19039	19.311	3.3636	0.	-140.67
19040	19.401	3.2727	0.	-136.89
19041	19.311	3.2727	5.e-002	6.4389e-006
19042	19.311	3.5455	0.	-133.51
19043	19.401	3.4545	0.	-131.35
19044	19.311	3.4545	5.e-002	5.6289e-006
19045	19.311	3.7273	0.	-123.66
19046	19.401	3.6364	0.	-123.18
19047	19.311	3.6364	5.e-002	4.3474e-006
19048	19.311	3.9091	0.	-111.39
19049	19.401	3.8182	0.	-112.57
19050	19.311	3.8182	5.e-002	1.2268e-006
19051	19.311	4.0909	0.	-97.143
19052	19.401	4.	0.	-99.873
19053	19.311	4.	5.e-002	2.6455e-006
19054	19.311	4.2727	0.	-81.501
19055	19.401	4.1818	0.	-85.582
19056	19.311	4.1818	5.e-002	-1.7001e-007
19057	19.311	4.4545	0.	-65.175
19058	19.401	4.3636	0.	-70.311
19059	19.311	4.3636	5.e-002	-1.2934e-006
19060	19.311	4.6364	0.	-48.929
19061	19.401	4.5455	0.	-54.753
19062	19.311	4.5455	5.e-002	-2.8839e-006
19063	19.311	4.8182	0.	-33.517
19064	19.401	4.7273	0.	-39.618
19065	19.311	4.7273	5.e-002	1.7475e-006
19066	19.311	5.	0.	-19.633
19067	19.401	4.9091	0.	-25.582
19068	19.311	4.9091	5.e-002	5.731e-007
19069	19.311	5.1818	0.	-7.9202
19070	19.401	5.0909	0.	-13.257
19071	19.311	5.0909	5.e-002	4.6155e-007
19072	19.311	5.3636	0.	-0.5878
19073	19.401	5.2727	0.	-3.3253
19074	19.311	5.2727	5.e-002	1.279e-006
19075	19.311	5.5455	0.	-8.3827e-002
19076	19.401	5.4545	0.	-0.15035
19077	19.311	5.4545	5.e-002	7.9286e-006
19078	19.311	5.7273	0.	-3.135e-002
19079	19.401	5.6364	0.	-4.5147e-002
19080	19.311	5.6364	5.e-002	1.0907e-005
19081	19.401	5.8182	0.	-1.0273e-002
19082	19.311	5.8182	5.e-002	2.9193e-006
19083	19.311	5.9091	0.	4.4707e-002
19084	19.491	0.27273	0.	-2.2503e-002
19085	19.582	0.18182	0.	-8.7277e-003
19086	19.491	0.18182	5.e-002	6.4211e-006
19087	19.491	9.0909e-002	0.	4.2139e-002
19088	19.491	0.45455	0.	-6.1118e-002
19089	19.582	0.36364	0.	-2.9175e-002
19090	19.491	0.36364	5.e-002	7.4355e-006
19091	19.491	0.63636	0.	-0.81241
19092	19.582	0.54545	0.	-0.1261
19093	19.491	0.54545	5.e-002	8.9269e-006
19094	19.491	0.81818	0.	-8.5196
19095	19.582	0.72727	0.	-3.9949
19096	19.491	0.72727	5.e-002	1.0332e-005
19097	19.491	1.	0.	-19.194
19098	19.582	0.90909	0.	-13.153
19099	19.491	0.90909	5.e-002	1.1002e-005
19100	19.491	1.1818	0.	-31.677
19101	19.582	1.0909	0.	-24.243
19102	19.491	1.0909	5.e-002	1.3541e-005
19103	19.491	1.3636	0.	-45.435
19104	19.582	1.2727	0.	-36.762
19105	19.491	1.2727	5.e-002	1.3072e-005
19106	19.491	1.5455	0.	-59.88
19107	19.582	1.4545	0.	-50.193
19108	19.491	1.4545	5.e-002	1.1859e-005
19109	19.491	1.7273	0.	-74.383
19110	19.582	1.6364	0.	-63.969
19111	19.491	1.6364	5.e-002	1.2317e-005
19112	19.491	1.9091	0.	-88.304
19113	19.582	1.8182	0.	-77.494
19114	19.491	1.8182	5.e-002	1.5499e-005
19115	19.491	2.0909	0.	-101.04
19116	19.582	2.	0.	-90.188
19117	19.491	2.	5.e-002	1.2779e-005
19118	19.491	2.2727	0.	-112.09
19119	19.582	2.1818	0.	-101.52
19120	19.491	2.1818	5.e-002	1.2189e-005
19121	19.491	2.4545	0.	-121.03
19122	19.582	2.3636	0.	-111.06
19123	19.491	2.3636	5.e-002	1.1165e-005
19124	19.491	2.6364	0.	-127.59
19125	19.582	2.5455	0.	-118.47
19126	19.491	2.5455	5.e-002	8.1664e-006
19127	19.491	2.8182	0.	-131.58
19128	19.582	2.7273	0.	-123.52
19129	19.491	2.7273	5.e-002	7.4898e-006
19130	19.491	3.	0.	-132.92
19131	19.582	2.9091	0.	-126.07
19132	19.491	2.9091	5.e-002	6.4015e-006
19133	19.491	3.1818	0.	-131.58
19134	19.582	3.0909	0.	-126.07
19135	19.491	3.0909	5.e-002	5.0412e-006
19136	19.491	3.3636	0.	-127.59
19137	19.582	3.2727	0.	-123.52
19138	19.491	3.2727	5.e-002	5.5755e-006
19139	19.491	3.5455	0.	-121.03
19140	19.582	3.4545	0.	-118.47
19141	19.491	3.4545	5.e-002	4.1974e-006
19142	19.491	3.7273	0.	-112.09
19143	19.582	3.6364	0.	-111.06
19144	19.491	3.6364	5.e-002	2.9952e-006
19145	19.491	3.9091	0.	-101.04
19146	19.582	3.8182	0.	-101.52
19147	19.491	3.8182	5.e-002	3.1596e-006
19148	19.491	4.0909	0.	-88.304
19149	19.582	4.	0.	-90.188
19150	19.491	4.	5.e-002	2.6013e-006
19151	19.491	4.2727	0.	-74.383
19152	19.582	4.1818	0.	-77.494
19153	19.491	4.1818	5.e-002	-8.0805e-007
19154	19.491	4.4545	0.	-59.88
19155	19.582	4.3636	0.	-63.969
19156	19.491	4.3636	5.e-002	-9.9313e-007
19157	19.491	4.6364	0.	-45.435
19158	19.582	4.5455	0.	-50.193
19159	19.491	4.5455	5.e-002	6.3955e-007
19160	19.491	4.8182	0.	-31.677
19161	19.582	4.7273	0.	-36.762
19162	19.491	4.7273	5.e-002	2.1007e-006
19163	19.491	5.	0.	-19.194
19164	19.582	4.9091	0.	-24.243
19165	19.491	4.9091	5.e-002	2.0083e-006
19166	19.491	5.1818	0.	-8.5196
19167	19.582	5.0909	0.	-13.152
19168	19.491	5.0909	5.e-002	2.1869e-006
19169	19.491	5.3636	0.	-0.81239
19170	19.582	5.2727	0.	-3.9948
19171	19.491	5.2727	5.e-002	6.7353e-006
19172	19.491	5.5455	0.	-6.1118e-002
19173	19.582	5.4545	0.	-0.1261
19174	19.491	5.4545	5.e-002	6.5381e-006
19175	19.491	5.7273	0.	-2.25e-002
19176	19.582	5.6364	0.	-2.9173e-002
19177	19.491	5.6364	5.e-002	6.6943e-006
19178	19.582	5.8182	0.	-8.7253e-003
19179	19.491	5.8182	5.e-002	1.8613e-006
19180	19.491	5.9091	0.	4.2141e-002
19181	19.672	0.27273	0.	-1.5192e-002
19182	19.762	0.18182	0.	-7.1747e-003
19183	19.672	0.18182	5.e-002	2.9024e-005
19184	19.672	9.0909e-002	0.	3.8281e-002
19185	19.672	0.45455	0.	-4.0168e-002
19186	19.762	0.36364	0.	-1.6036e-002
19187	19.672	0.36364	5.e-002	8.0937e-006
19188	19.672	0.63636	0.	-1.113
19189	19.762	0.54545	0.	-9.54e-002
19190	19.672	0.54545	5.e-002	9.3838e-006
19191	19.672	0.81818	0.	-8.5856
19192	19.762	0.72727	0.	-4.215
19193	19.672	0.72727	5.e-002	8.6415e-006
19194	19.672	1.	0.	-18.21
19195	19.762	0.90909	0.	-12.521
19196	19.672	0.90909	5.e-002	1.0245e-005
19197	19.672	1.1818	0.	-29.339
19198	19.762	1.0909	0.	-22.412
19199	19.672	1.0909	5.e-002	1.0964e-005
19200	19.672	1.3636	0.	-41.529
19201	19.762	1.2727	0.	-33.491
19202	19.672	1.2727	5.e-002	1.0167e-005
19203	19.672	1.5455	0.	-54.287
19204	19.762	1.4545	0.	-45.325
19205	19.672	1.4545	5.e-002	1.116e-005
19206	19.672	1.7273	0.	-67.083
19207	19.762	1.6364	0.	-57.438
19208	19.672	1.6364	5.e-002	1.2151e-005
19209	19.672	1.9091	0.	-79.38
19210	19.762	1.8182	0.	-69.332
19211	19.672	1.8182	5.e-002	1.2895e-005
19212	19.672	2.0909	0.	-90.67
19213	19.762	2.	0.	-80.516
19214	19.672	2.	5.e-002	1.027e-005
19215	19.672	2.2727	0.	-100.5
19216	19.762	2.1818	0.	-90.538
19217	19.672	2.1818	5.e-002	1.116e-005
19218	19.672	2.4545	0.	-108.5
19219	19.762	2.3636	0.	-99.008
19220	19.672	2.3636	5.e-002	1.0307e-005
19221	19.672	2.6364	0.	-114.4
19222	19.762	2.5455	0.	-105.62
19223	19.672	2.5455	5.e-002	1.0855e-005
19224	19.672	2.8182	0.	-118.01
19225	19.762	2.7273	0.	-110.14
19226	19.672	2.7273	5.e-002	7.2771e-006
19227	19.672	3.	0.	-119.23
19228	19.762	2.9091	0.	-112.44
19229	19.672	2.9091	5.e-002	6.9538e-006
19230	19.672	3.1818	0.	-118.01
19231	19.762	3.0909	0.	-112.44
19232	19.672	3.0909	5.e-002	5.4427e-006
19233	19.672	3.3636	0.	-114.4
19234	19.762	3.2727	0.	-110.14
19235	19.672	3.2727	5.e-002	6.0318e-006
19236	19.672	3.5455	0.	-108.5
19237	19.762	3.4545	0.	-105.62
19238	19.672	3.4545	5.e-002	5.2778e-006
19239	19.672	3.7273	0.	-100.5
19240	19.762	3.6364	0.	-99.008
19241	19.672	3.6364	5.e-002	4.7987e-006
19242	19.672	3.9091	0.	-90.67
19243	19.762	3.8182	0.	-90.538
19244	19.672	3.8182	5.e-002	4.889e-006
19245	19.672	4.0909	0.	-79.38
19246	19.762	4.	0.	-80.516
19247	19.672	4.	5.e-002	1.8852e-006
19248	19.672	4.2727	0.	-67.083
19249	19.762	4.1818	0.	-69.332
19250	19.672	4.1818	5.e-002	1.885e-006
19251	19.672	4.4545	0.	-54.287
19252	19.762	4.3636	0.	-57.438
19253	19.672	4.3636	5.e-002	3.5138e-006
19254	19.672	4.6364	0.	-41.529
19255	19.762	4.5455	0.	-45.325
19256	19.672	4.5455	5.e-002	3.4346e-006
19257	19.672	4.8182	0.	-29.339
19258	19.762	4.7273	0.	-33.491
19259	19.672	4.7273	5.e-002	4.8045e-006
19260	19.672	5.	0.	-18.21
19261	19.762	4.9091	0.	-22.412
19262	19.672	4.9091	5.e-002	6.0232e-006
19263	19.672	5.1818	0.	-8.5856
19264	19.762	5.0909	0.	-12.521
19265	19.672	5.0909	5.e-002	5.3933e-006
19266	19.672	5.3636	0.	-1.1129
19267	19.762	5.2727	0.	-4.215
19268	19.672	5.2727	5.e-002	6.876e-006
19269	19.672	5.5455	0.	-4.0168e-002
19270	19.762	5.4545	0.	-9.54e-002
19271	19.672	5.4545	5.e-002	5.7113e-006
19272	19.672	5.7273	0.	-1.5191e-002
19273	19.762	5.6364	0.	-1.6035e-002
19274	19.672	5.6364	5.e-002	7.5817e-006
19275	19.762	5.8182	0.	-7.1738e-003
19276	19.672	5.8182	5.e-002	-2.1189e-005
19277	19.672	5.9091	0.	3.8281e-002
19278	19.852	0.27273	0.	-9.288e-003
19279	19.942	0.18182	0.	-5.6586e-003
19280	19.852	0.18182	5.e-002	7.7812e-006
19281	19.852	9.0909e-002	0.	3.3558e-002
19282	19.852	0.45455	0.	-2.0992e-002
19283	19.942	0.36364	0.	-5.8619e-003
19284	19.852	0.36364	5.e-002	6.7839e-006
19285	19.852	0.63636	0.	-1.2313
19286	19.942	0.54545	0.	-5.5889e-002
19287	19.852	0.54545	5.e-002	8.494e-006
19288	19.852	0.81818	0.	-8.1469
19289	19.942	0.72727	0.	-3.9676
19290	19.852	0.72727	5.e-002	9.0689e-006
19291	19.852	1.	0.	-16.742
19292	19.942	0.90909	0.	-11.409
19293	19.852	0.90909	5.e-002	6.7601e-006
19294	19.852	1.1818	0.	-26.583
19295	19.942	1.0909	0.	-20.152
19296	19.852	1.0909	5.e-002	4.9809e-006
19297	19.852	1.3636	0.	-37.303
19298	19.942	1.2727	0.	-29.876
19299	19.852	1.2727	5.e-002	6.5835e-006
19300	19.852	1.5455	0.	-48.489
19301	19.942	1.4545	0.	-40.223
19302	19.852	1.4545	5.e-002	8.1918e-006
19303	19.852	1.7273	0.	-59.697
19304	19.942	1.6364	0.	-50.795
19305	19.852	1.6364	5.e-002	9.2796e-006
19306	19.852	1.9091	0.	-70.476
19307	19.942	1.8182	0.	-61.174
19308	19.852	1.8182	5.e-002	8.3106e-006
19309	19.852	2.0909	0.	-80.391
19310	19.942	2.	0.	-70.944
19311	19.852	2.	5.e-002	1.0347e-005
19312	19.852	2.2727	0.	-89.051
19313	19.942	2.1818	0.	-79.72
19314	19.852	2.1818	5.e-002	9.0752e-006
19315	19.852	2.4545	0.	-96.126
19316	19.942	2.3636	0.	-87.158
19317	19.852	2.3636	5.e-002	1.0612e-005
19318	19.852	2.6364	0.	-101.36
19319	19.942	2.5455	0.	-92.98
19320	19.852	2.5455	5.e-002	7.244e-006
19321	19.852	2.8182	0.	-104.57
19322	19.942	2.7273	0.	-96.977
19323	19.852	2.7273	5.e-002	6.2021e-006
19324	19.852	3.	0.	-105.65
19325	19.942	2.9091	0.	-99.01
19326	19.852	2.9091	5.e-002	6.5769e-006
19327	19.852	3.1818	0.	-104.57
19328	19.942	3.0909	0.	-99.01
19329	19.852	3.0909	5.e-002	3.9092e-006
19330	19.852	3.3636	0.	-101.36
19331	19.942	3.2727	0.	-96.977
19332	19.852	3.2727	5.e-002	6.171e-006
19333	19.852	3.5455	0.	-96.126
19334	19.942	3.4545	0.	-92.98
19335	19.852	3.4545	5.e-002	4.6617e-006
19336	19.852	3.7273	0.	-89.051
19337	19.942	3.6364	0.	-87.158
19338	19.852	3.6364	5.e-002	3.9421e-006
19339	19.852	3.9091	0.	-80.391
19340	19.942	3.8182	0.	-79.72
19341	19.852	3.8182	5.e-002	3.8133e-006
19342	19.852	4.0909	0.	-70.476
19343	19.942	4.	0.	-70.944
19344	19.852	4.	5.e-002	1.9542e-006
19345	19.852	4.2727	0.	-59.697
19346	19.942	4.1818	0.	-61.174
19347	19.852	4.1818	5.e-002	1.3546e-006
19348	19.852	4.4545	0.	-48.489
19349	19.942	4.3636	0.	-50.795
19350	19.852	4.3636	5.e-002	2.8359e-006
19351	19.852	4.6364	0.	-37.303
19352	19.942	4.5455	0.	-40.223
19353	19.852	4.5455	5.e-002	2.0749e-006
19354	19.852	4.8182	0.	-26.583
19355	19.942	4.7273	0.	-29.876
19356	19.852	4.7273	5.e-002	3.3164e-006
19357	19.852	5.	0.	-16.742
19358	19.942	4.9091	0.	-20.151
19359	19.852	4.9091	5.e-002	3.7921e-006
19360	19.852	5.1818	0.	-8.1469
19361	19.942	5.0909	0.	-11.408
19362	19.852	5.0909	5.e-002	3.2413e-006
19363	19.852	5.3636	0.	-1.2312
19364	19.942	5.2727	0.	-3.9675
19365	19.852	5.2727	5.e-002	5.2451e-006
19366	19.852	5.5455	0.	-2.0991e-002
19367	19.942	5.4545	0.	-5.589e-002
19368	19.852	5.4545	5.e-002	5.3703e-006
19369	19.852	5.7273	0.	-9.2872e-003
19370	19.942	5.6364	0.	-5.8601e-003
19371	19.852	5.6364	5.e-002	6.3126e-006
19372	19.942	5.8182	0.	-5.6566e-003
19373	19.852	5.8182	5.e-002	3.0514e-006
19374	19.852	5.9091	0.	3.3559e-002
19375	20.032	0.27273	0.	-4.8081e-003
19376	20.123	0.18182	0.	-4.2775e-003
19377	20.032	0.18182	5.e-002	7.6344e-006
19378	20.032	9.0909e-002	0.	2.8513e-002
19379	20.032	0.45455	0.	-5.2336e-003
19380	20.123	0.36364	0.	1.0867e-003
19381	20.032	0.36364	5.e-002	8.6589e-006
19382	20.032	0.63636	0.	-1.0017
19383	20.123	0.54545	0.	-1.7791e-002
19384	20.032	0.54545	5.e-002	9.3273e-006
19385	20.032	0.81818	0.	-7.2434
19386	20.123	0.72727	0.	-3.2774
19387	20.032	0.72727	5.e-002	7.2811e-006
19388	20.032	1.	0.	-14.844
19389	20.123	0.90909	0.	-9.8632
19390	20.032	0.90909	5.e-002	7.0363e-006
19391	20.032	1.1818	0.	-23.468
19392	20.123	1.0909	0.	-17.514
19393	20.032	1.0909	5.e-002	6.7839e-006
19394	20.032	1.3636	0.	-32.817
19395	20.123	1.2727	0.	-25.971
19396	20.032	1.2727	5.e-002	7.7942e-006
19397	20.032	1.5455	0.	-42.546
19398	20.123	1.4545	0.	-34.938
19399	20.032	1.4545	5.e-002	8.2316e-006
19400	20.032	1.7273	0.	-52.284
19401	20.123	1.6364	0.	-44.085
19402	20.032	1.6364	5.e-002	1.0075e-005
19403	20.032	1.9091	0.	-61.652
19404	20.123	1.8182	0.	-53.063
19405	20.032	1.8182	5.e-002	9.7683e-006
19406	20.032	2.0909	0.	-70.281
19407	20.123	2.	0.	-61.521
19408	20.032	2.	5.e-002	9.7592e-006
19409	20.032	2.2727	0.	-77.833
19410	20.123	2.1818	0.	-69.13
19411	20.032	2.1818	5.e-002	1.003e-005
19412	20.032	2.4545	0.	-84.018
19413	20.123	2.3636	0.	-75.593
19414	20.032	2.3636	5.e-002	9.0997e-006
19415	20.032	2.6364	0.	-88.603
19416	20.123	2.5455	0.	-80.662
19417	20.032	2.5455	5.e-002	9.7669e-006
19418	20.032	2.8182	0.	-91.421
19419	20.123	2.7273	0.	-84.149
19420	20.032	2.7273	5.e-002	8.2075e-006
19421	20.032	3.	0.	-92.372
19422	20.123	2.9091	0.	-85.924
19423	20.032	2.9091	5.e-002	7.2237e-006
19424	20.032	3.1818	0.	-91.421
19425	20.123	3.0909	0.	-85.924
19426	20.032	3.0909	5.e-002	6.1238e-006
19427	20.032	3.3636	0.	-88.603
19428	20.123	3.2727	0.	-84.149
19429	20.032	3.2727	5.e-002	6.0998e-006
19430	20.032	3.5455	0.	-84.018
19431	20.123	3.4545	0.	-80.662
19432	20.032	3.4545	5.e-002	5.336e-006
19433	20.032	3.7273	0.	-77.833
19434	20.123	3.6364	0.	-75.593
19435	20.032	3.6364	5.e-002	5.1669e-006
19436	20.032	3.9091	0.	-70.281
19437	20.123	3.8182	0.	-69.13
19438	20.032	3.8182	5.e-002	7.0648e-006
19439	20.032	4.0909	0.	-61.652
19440	20.123	4.	0.	-61.521
19441	20.032	4.	5.e-002	4.8964e-006
19442	20.032	4.2727	0.	-52.284
19443	20.123	4.1818	0.	-53.063
19444	20.032	4.1818	5.e-002	3.2284e-006
19445	20.032	4.4545	0.	-42.546
19446	20.123	4.3636	0.	-44.085
19447	20.032	4.3636	5.e-002	5.3813e-006
19448	20.032	4.6364	0.	-32.817
19449	20.123	4.5455	0.	-34.938
19450	20.032	4.5455	5.e-002	4.7768e-006
19451	20.032	4.8182	0.	-23.468
19452	20.123	4.7273	0.	-25.971
19453	20.032	4.7273	5.e-002	5.6968e-006
19454	20.032	5.	0.	-14.844
19455	20.123	4.9091	0.	-17.514
19456	20.032	4.9091	5.e-002	6.5214e-006
19457	20.032	5.1818	0.	-7.2434
19458	20.123	5.0909	0.	-9.8632
19459	20.032	5.0909	5.e-002	6.0912e-006
19460	20.032	5.3636	0.	-1.0016
19461	20.123	5.2727	0.	-3.2773
19462	20.032	5.2727	5.e-002	6.8258e-006
19463	20.032	5.5455	0.	-5.2336e-003
19464	20.123	5.4545	0.	-1.7792e-002
19465	20.032	5.4545	5.e-002	7.673e-006
19466	20.032	5.7273	0.	-4.8052e-003
19467	20.123	5.6364	0.	1.0882e-003
19468	20.032	5.6364	5.e-002	7.4827e-006
19469	20.123	5.8182	0.	-4.2743e-003
19470	20.032	5.8182	5.e-002	4.8115e-006
19471	20.032	5.9091	0.	2.8512e-002
19472	20.213	0.27273	0.	-1.7964e-003
19473	20.303	0.18182	0.	-3.1399e-003
19474	20.213	0.18182	5.e-002	9.1645e-006
19475	20.213	9.0909e-002	0.	2.362e-002
19476	20.213	0.45455	0.	5.1786e-003
19477	20.303	0.36364	0.	4.8262e-003
19478	20.213	0.36364	5.e-002	1.0106e-005
19479	20.213	0.63636	0.	-0.43071
19480	20.303	0.54545	0.	5.4898e-003
19481	20.213	0.54545	5.e-002	8.4295e-006
19482	20.213	0.81818	0.	-5.9194
19483	20.303	0.72727	0.	-2.1838
19484	20.213	0.72727	5.e-002	8.3743e-006
19485	20.213	1.	0.	-12.562
19486	20.303	0.90909	0.	-7.9303
19487	20.213	0.90909	5.e-002	9.8021e-006
19488	20.213	1.1818	0.	-20.042
19489	20.303	1.0909	0.	-14.543
19490	20.213	1.0909	5.e-002	9.5586e-006
19491	20.213	1.3636	0.	-28.114
19492	20.303	1.2727	0.	-21.815
19493	20.213	1.2727	5.e-002	1.0115e-005
19494	20.213	1.5455	0.	-36.495
19495	20.303	1.4545	0.	-29.503
19496	20.213	1.4545	5.e-002	9.8667e-006
19497	20.213	1.7273	0.	-44.877
19498	20.303	1.6364	0.	-37.336
19499	20.213	1.6364	5.e-002	9.6345e-006
19500	20.213	1.9091	0.	-52.942
19501	20.303	1.8182	0.	-45.023
19502	20.213	1.8182	5.e-002	1.0743e-005
19503	20.213	2.0909	0.	-60.378
19504	20.303	2.	0.	-52.27
19505	20.213	2.	5.e-002	1.0222e-005
19506	20.213	2.2727	0.	-66.896
19507	20.303	2.1818	0.	-58.797
19508	20.213	2.1818	5.e-002	9.5604e-006
19509	20.213	2.4545	0.	-72.242
19510	20.303	2.3636	0.	-64.35
19511	20.213	2.3636	5.e-002	9.6513e-006
19512	20.213	2.6364	0.	-76.212
19513	20.303	2.5455	0.	-68.712
19514	20.213	2.5455	5.e-002	1.067e-005
19515	20.213	2.8182	0.	-78.655
19516	20.303	2.7273	0.	-71.716
19517	20.213	2.7273	5.e-002	9.3833e-006
19518	20.213	3.	0.	-79.48
19519	20.303	2.9091	0.	-73.247
19520	20.213	2.9091	5.e-002	8.8832e-006
19521	20.213	3.1818	0.	-78.655
19522	20.303	3.0909	0.	-73.247
19523	20.213	3.0909	5.e-002	8.2787e-006
19524	20.213	3.3636	0.	-76.212
19525	20.303	3.2727	0.	-71.716
19526	20.213	3.2727	5.e-002	7.7528e-006
19527	20.213	3.5455	0.	-72.242
19528	20.303	3.4545	0.	-68.712
19529	20.213	3.4545	5.e-002	5.4751e-006
19530	20.213	3.7273	0.	-66.896
19531	20.303	3.6364	0.	-64.35
19532	20.213	3.6364	5.e-002	7.6364e-006
19533	20.213	3.9091	0.	-60.378
19534	20.303	3.8182	0.	-58.797
19535	20.213	3.8182	5.e-002	7.3451e-006
19536	20.213	4.0909	0.	-52.942
19537	20.303	4.	0.	-52.27
19538	20.213	4.	5.e-002	6.2654e-006
19539	20.213	4.2727	0.	-44.877
19540	20.303	4.1818	0.	-45.023
19541	20.213	4.1818	5.e-002	5.4301e-006
19542	20.213	4.4545	0.	-36.495
19543	20.303	4.3636	0.	-37.336
19544	20.213	4.3636	5.e-002	7.8291e-006
19545	20.213	4.6364	0.	-28.114
19546	20.303	4.5455	0.	-29.503
19547	20.213	4.5455	5.e-002	7.2659e-006
19548	20.213	4.8182	0.	-20.042
19549	20.303	4.7273	0.	-21.815
19550	20.213	4.7273	5.e-002	7.8387e-006
19551	20.213	5.	0.	-12.562
19552	20.303	4.9091	0.	-14.543
19553	20.213	4.9091	5.e-002	8.0041e-006
19554	20.213	5.1818	0.	-5.9194
19555	20.303	5.0909	0.	-7.9302
19556	20.213	5.0909	5.e-002	7.291e-006
19557	20.213	5.3636	0.	-0.43068
19558	20.303	5.2727	0.	-2.1838
19559	20.213	5.2727	5.e-002	8.1258e-006
19560	20.213	5.5455	0.	5.1791e-003
19561	20.303	5.4545	0.	5.4893e-003
19562	20.213	5.4545	5.e-002	8.9911e-006
19563	20.213	5.7273	0.	-1.7946e-003
19564	20.303	5.6364	0.	4.8285e-003
19565	20.213	5.6364	5.e-002	9.1888e-006
19566	20.303	5.8182	0.	-3.1378e-003
19567	20.213	5.8182	5.e-002	6.7576e-006
19568	20.213	5.9091	0.	2.362e-002
19569	20.393	0.27273	0.	-2.0235e-004
19570	20.483	0.18182	0.	-2.3309e-003
19571	20.393	0.18182	5.e-002	6.8298e-006
19572	20.393	9.0909e-002	0.	1.9243e-002
19573	20.393	0.45455	0.	1.0043e-002
19574	20.483	0.36364	0.	5.8216e-003
19575	20.393	0.36364	5.e-002	6.2107e-006
19576	20.393	0.63636	0.	-1.9192e-002
19577	20.483	0.54545	0.	1.4277e-002
19578	20.393	0.54545	5.e-002	8.2553e-006
19579	20.393	0.81818	0.	-4.2198
19580	20.483	0.72727	0.	-0.73885
19581	20.393	0.72727	5.e-002	8.6291e-006
19582	20.393	1.	0.	-9.942
19583	20.483	0.90909	0.	-5.653
19584	20.393	0.90909	5.e-002	7.4501e-006
19585	20.393	1.1818	0.	-16.343
19586	20.483	1.0909	0.	-11.279
19587	20.393	1.0909	5.e-002	8.1246e-006
19588	20.393	1.3636	0.	-23.227
19589	20.483	1.2727	0.	-17.44
19590	20.393	1.2727	5.e-002	8.0597e-006
19591	20.393	1.5455	0.	-30.362
19592	20.483	1.4545	0.	-23.943
19593	20.393	1.4545	5.e-002	7.974e-006
19594	20.393	1.7273	0.	-37.495
19595	20.483	1.6364	0.	-30.563
19596	20.393	1.6364	5.e-002	8.7329e-006
19597	20.393	1.9091	0.	-44.361
19598	20.483	1.8182	0.	-37.063
19599	20.393	1.8182	5.e-002	8.3033e-006
19600	20.393	2.0909	0.	-50.697
19601	20.483	2.	0.	-43.196
19602	20.393	2.	5.e-002	8.3763e-006
19603	20.393	2.2727	0.	-56.257
19604	20.483	2.1818	0.	-48.727
19605	20.393	2.1818	5.e-002	8.612e-006
19606	20.393	2.4545	0.	-60.824
19607	20.483	2.3636	0.	-53.438
19608	20.393	2.3636	5.e-002	9.6135e-006
19609	20.393	2.6364	0.	-64.22
19610	20.483	2.5455	0.	-57.145
19611	20.393	2.5455	5.e-002	8.5895e-006
19612	20.393	2.8182	0.	-66.312
19613	20.483	2.7273	0.	-59.7
19614	20.393	2.7273	5.e-002	6.8078e-006
19615	20.393	3.	0.	-67.018
19616	20.483	2.9091	0.	-61.003
19617	20.393	2.9091	5.e-002	7.7047e-006
19618	20.393	3.1818	0.	-66.312
19619	20.483	3.0909	0.	-61.003
19620	20.393	3.0909	5.e-002	5.6424e-006
19621	20.393	3.3636	0.	-64.22
19622	20.483	3.2727	0.	-59.7
19623	20.393	3.2727	5.e-002	6.5192e-006
19624	20.393	3.5455	0.	-60.824
19625	20.483	3.4545	0.	-57.145
19626	20.393	3.4545	5.e-002	5.6975e-006
19627	20.393	3.7273	0.	-56.257
19628	20.483	3.6364	0.	-53.438
19629	20.393	3.6364	5.e-002	6.0316e-006
19630	20.393	3.9091	0.	-50.697
19631	20.483	3.8182	0.	-48.727
19632	20.393	3.8182	5.e-002	7.0181e-006
19633	20.393	4.0909	0.	-44.361
19634	20.483	4.	0.	-43.196
19635	20.393	4.	5.e-002	6.4852e-006
19636	20.393	4.2727	0.	-37.495
19637	20.483	4.1818	0.	-37.063
19638	20.393	4.1818	5.e-002	4.9914e-006
19639	20.393	4.4545	0.	-30.362
19640	20.483	4.3636	0.	-30.563
19641	20.393	4.3636	5.e-002	7.5128e-006
19642	20.393	4.6364	0.	-23.227
19643	20.483	4.5455	0.	-23.943
19644	20.393	4.5455	5.e-002	7.0378e-006
19645	20.393	4.8182	0.	-16.343
19646	20.483	4.7273	0.	-17.44
19647	20.393	4.7273	5.e-002	8.2194e-006
19648	20.393	5.	0.	-9.942
19649	20.483	4.9091	0.	-11.279
19650	20.393	4.9091	5.e-002	7.7097e-006
19651	20.393	5.1818	0.	-4.2197
19652	20.483	5.0909	0.	-5.6529
19653	20.393	5.0909	5.e-002	7.1869e-006
19654	20.393	5.3636	0.	-1.9191e-002
19655	20.483	5.2727	0.	-0.73881
19656	20.393	5.2727	5.e-002	7.9105e-006
19657	20.393	5.5455	0.	1.0044e-002
19658	20.483	5.4545	0.	1.4274e-002
19659	20.393	5.4545	5.e-002	8.5946e-006
19660	20.393	5.7273	0.	-1.9968e-004
19661	20.483	5.6364	0.	5.8254e-003
19662	20.393	5.6364	5.e-002	9.1515e-006
19663	20.483	5.8182	0.	-2.3291e-003
19664	20.393	5.8182	5.e-002	6.9879e-006
19665	20.393	5.9091	0.	1.9244e-002
19666	20.574	0.27273	0.	1.2954e-004
19667	20.664	0.18182	0.	-1.9108e-003
19668	20.574	0.18182	5.e-002	5.093e-006
19669	20.574	9.0909e-002	0.	1.5571e-002
19670	20.574	0.45455	0.	1.0865e-002
19671	20.664	0.36364	0.	4.789e-003
19672	20.574	0.36364	5.e-002	4.0423e-006
19673	20.574	0.63636	0.	1.5656e-002
19674	20.664	0.54545	0.	1.5597e-002
19675	20.574	0.54545	5.e-002	4.9317e-006
19676	20.574	0.81818	0.	-2.1879
19677	20.664	0.72727	0.	1.5092e-002
19678	20.574	0.72727	5.e-002	3.6803e-006
19679	20.574	1.	0.	-7.0217
19680	20.664	0.90909	0.	-3.0711
19681	20.574	0.90909	5.e-002	2.0799e-006
19682	20.574	1.1818	0.	-12.404
19683	20.664	1.0909	0.	-7.7545
19684	20.574	1.0909	5.e-002	2.3564e-006
19685	20.574	1.3636	0.	-18.179
19686	20.664	1.2727	0.	-12.873
19687	20.574	1.2727	5.e-002	2.3916e-006
19688	20.574	1.5455	0.	-24.162
19689	20.664	1.4545	0.	-18.272
19690	20.574	1.4545	5.e-002	3.7937e-006
19691	20.574	1.7273	0.	-30.145
19692	20.664	1.6364	0.	-23.774
19693	20.574	1.6364	5.e-002	4.1636e-006
19694	20.574	1.9091	0.	-35.908
19695	20.664	1.8182	0.	-29.181
19696	20.574	1.8182	5.e-002	3.5289e-006
19697	20.574	2.0909	0.	-41.234
19698	20.664	2.	0.	-34.292
19699	20.574	2.	5.e-002	3.923e-006
19700	20.574	2.2727	0.	-45.914
19701	20.664	2.1818	0.	-38.909
19702	20.574	2.1818	5.e-002	4.3016e-006
19703	20.574	2.4545	0.	-49.763
19704	20.664	2.3636	0.	-42.847
19705	20.574	2.3636	5.e-002	4.4233e-006
19706	20.574	2.6364	0.	-52.628
19707	20.664	2.5455	0.	-45.95
19708	20.574	2.5455	5.e-002	4.7652e-006
19709	20.574	2.8182	0.	-54.395
19710	20.664	2.7273	0.	-48.092
19711	20.574	2.7273	5.e-002	3.83e-006
19712	20.574	3.	0.	-54.992
19713	20.664	2.9091	0.	-49.185
19714	20.574	2.9091	5.e-002	3.6904e-006
19715	20.574	3.1818	0.	-54.395
19716	20.664	3.0909	0.	-49.185
19717	20.574	3.0909	5.e-002	2.985e-006
19718	20.574	3.3636	0.	-52.628
19719	20.664	3.2727	0.	-48.092
19720	20.574	3.2727	5.e-002	2.329e-006
19721	20.574	3.5455	0.	-49.763
19722	20.664	3.4545	0.	-45.95
19723	20.574	3.4545	5.e-002	2.3288e-006
19724	20.574	3.7273	0.	-45.914
19725	20.664	3.6364	0.	-42.847
19726	20.574	3.6364	5.e-002	3.0124e-006
19727	20.574	3.9091	0.	-41.234
19728	20.664	3.8182	0.	-38.909
19729	20.574	3.8182	5.e-002	3.5216e-006
19730	20.574	4.0909	0.	-35.908
19731	20.664	4.	0.	-34.292
19732	20.574	4.	5.e-002	3.0761e-006
19733	20.574	4.2727	0.	-30.145
19734	20.664	4.1818	0.	-29.181
19735	20.574	4.1818	5.e-002	2.8122e-006
19736	20.574	4.4545	0.	-24.162
19737	20.664	4.3636	0.	-23.774
19738	20.574	4.3636	5.e-002	4.4612e-006
19739	20.574	4.6364	0.	-18.179
19740	20.664	4.5455	0.	-18.272
19741	20.574	4.5455	5.e-002	2.4553e-006
19742	20.574	4.8182	0.	-12.404
19743	20.664	4.7273	0.	-12.873
19744	20.574	4.7273	5.e-002	4.303e-006
19745	20.574	5.	0.	-7.0217
19746	20.664	4.9091	0.	-7.7545
19747	20.574	4.9091	5.e-002	5.1882e-006
19748	20.574	5.1818	0.	-2.1879
19749	20.664	5.0909	0.	-3.0711
19750	20.574	5.0909	5.e-002	2.7436e-006
19751	20.574	5.3636	0.	1.5654e-002
19752	20.664	5.2727	0.	1.5091e-002
19753	20.574	5.2727	5.e-002	4.9805e-006
19754	20.574	5.5455	0.	1.0866e-002
19755	20.664	5.4545	0.	1.5595e-002
19756	20.574	5.4545	5.e-002	5.22e-006
19757	20.574	5.7273	0.	1.3246e-004
19758	20.664	5.6364	0.	4.7896e-003
19759	20.574	5.6364	5.e-002	6.4111e-006
19760	20.664	5.8182	0.	-1.9086e-003
19761	20.574	5.8182	5.e-002	4.5372e-006
19762	20.574	5.9091	0.	1.5573e-002
19763	20.754	0.27273	0.	-5.9603e-004
19764	20.844	0.18182	0.	-1.9218e-003
19765	20.754	0.18182	5.e-002	8.4152e-006
19766	20.754	9.0909e-002	0.	1.2635e-002
19767	20.754	0.45455	0.	9.4265e-003
19768	20.844	0.36364	0.	2.3953e-003
19769	20.754	0.36364	5.e-002	8.5492e-006
19770	20.754	0.63636	0.	1.7796e-002
19771	20.844	0.54545	0.	1.4182e-002
19772	20.754	0.54545	5.e-002	8.8383e-006
19773	20.754	0.81818	0.	-4.9904e-003
19774	20.844	0.72727	0.	1.9784e-002
19775	20.754	0.72727	5.e-002	8.4838e-006
19776	20.754	1.	0.	-3.8361
19777	20.844	0.90909	0.	-0.22987
19778	20.754	0.90909	5.e-002	6.8477e-006
19779	20.754	1.1818	0.	-8.2512
19780	20.844	1.0909	0.	-3.9982
19781	20.754	1.0909	5.e-002	6.0379e-006
19782	20.754	1.3636	0.	-12.989
19783	20.844	1.2727	0.	-8.1315
19784	20.754	1.2727	5.e-002	5.8929e-006
19785	20.754	1.5455	0.	-17.902
19786	20.844	1.4545	0.	-12.502
19787	20.754	1.4545	5.e-002	6.9276e-006
19788	20.754	1.7273	0.	-22.824
19789	20.844	1.6364	0.	-16.967
19790	20.754	1.6364	5.e-002	7.0082e-006
19791	20.754	1.9091	0.	-27.576
19792	20.844	1.8182	0.	-21.369
19793	20.754	1.8182	5.e-002	6.477e-006
19794	20.754	2.0909	0.	-31.975
19795	20.844	2.	0.	-25.542
19796	20.754	2.	5.e-002	7.5943e-006
19797	20.754	2.2727	0.	-35.848
19798	20.844	2.1818	0.	-29.32
19799	20.754	2.1818	5.e-002	7.6504e-006
19800	20.754	2.4545	0.	-39.039
19801	20.844	2.3636	0.	-32.552
19802	20.754	2.3636	5.e-002	7.2611e-006
19803	20.754	2.6364	0.	-41.417
19804	20.844	2.5455	0.	-35.102
19805	20.754	2.5455	5.e-002	8.204e-006
19806	20.754	2.8182	0.	-42.885
19807	20.844	2.7273	0.	-36.865
19808	20.754	2.7273	5.e-002	6.6413e-006
19809	20.754	3.	0.	-43.381
19810	20.844	2.9091	0.	-37.766
19811	20.754	2.9091	5.e-002	7.7951e-006
19812	20.754	3.1818	0.	-42.885
19813	20.844	3.0909	0.	-37.766
19814	20.754	3.0909	5.e-002	6.507e-006
19815	20.754	3.3636	0.	-41.417
19816	20.844	3.2727	0.	-36.865
19817	20.754	3.2727	5.e-002	6.7081e-006
19818	20.754	3.5455	0.	-39.039
19819	20.844	3.4545	0.	-35.102
19820	20.754	3.4545	5.e-002	6.0877e-006
19821	20.754	3.7273	0.	-35.848
19822	20.844	3.6364	0.	-32.552
19823	20.754	3.6364	5.e-002	6.557e-006
19824	20.754	3.9091	0.	-31.975
19825	20.844	3.8182	0.	-29.32
19826	20.754	3.8182	5.e-002	8.0305e-006
19827	20.754	4.0909	0.	-27.576
19828	20.844	4.	0.	-25.542
19829	20.754	4.	5.e-002	7.4041e-006
19830	20.754	4.2727	0.	-22.824
19831	20.844	4.1818	0.	-21.369
19832	20.754	4.1818	5.e-002	6.5525e-006
19833	20.754	4.4545	0.	-17.902
19834	20.844	4.3636	0.	-16.967
19835	20.754	4.3636	5.e-002	8.6627e-006
19836	20.754	4.6364	0.	-12.989
19837	20.844	4.5455	0.	-12.502
19838	20.754	4.5455	5.e-002	6.9902e-006
19839	20.754	4.8182	0.	-8.2512
19840	20.844	4.7273	0.	-8.1315
19841	20.754	4.7273	5.e-002	8.7791e-006
19842	20.754	5.	0.	-3.836
19843	20.844	4.9091	0.	-3.9982
19844	20.754	4.9091	5.e-002	8.8164e-006
19845	20.754	5.1818	0.	-4.9863e-003
19846	20.844	5.0909	0.	-0.22983
19847	20.754	5.0909	5.e-002	7.4875e-006
19848	20.754	5.3636	0.	1.7795e-002
19849	20.844	5.2727	0.	1.9784e-002
19850	20.754	5.2727	5.e-002	8.8326e-006
19851	20.754	5.5455	0.	9.4247e-003
19852	20.844	5.4545	0.	1.4181e-002
19853	20.754	5.4545	5.e-002	8.9549e-006
19854	20.754	5.7273	0.	-5.9616e-004
19855	20.844	5.6364	0.	2.3953e-003
19856	20.754	5.6364	5.e-002	9.7332e-006
19857	20.844	5.8182	0.	-1.9196e-003
19858	20.754	5.8182	5.e-002	8.0376e-006
19859	20.754	5.9091	0.	1.2637e-002
19860	20.934	0.27273	0.	-2.1908e-003
19861	21.024	0.18182	0.	-2.3896e-003
19862	20.934	0.18182	5.e-002	3.6729e-006
19863	20.934	9.0909e-002	0.	1.0372e-002
19864	20.934	0.45455	0.	6.9389e-003
19865	21.024	0.36364	0.	-8.6991e-004
19866	20.934	0.36364	5.e-002	2.8891e-006
19867	20.934	0.63636	0.	1.6154e-002
19868	21.024	0.54545	0.	1.2066e-002
19869	20.934	0.54545	5.e-002	4.8183e-006
19870	20.934	0.81818	0.	2.1613e-002
19871	21.024	0.72727	0.	1.8209e-002
19872	20.934	0.72727	5.e-002	4.8151e-006
19873	20.934	1.	0.	-0.41723
19874	21.024	0.90909	0.	2.3501e-002
19875	20.934	0.90909	5.e-002	3.8565e-006
19876	20.934	1.1818	0.	-3.9067
19877	21.024	1.0909	0.	-5.4973e-002
19878	20.934	1.0909	5.e-002	4.165e-006
19879	20.934	1.3636	0.	-7.6679
19880	21.024	1.2727	0.	-3.2312
19881	20.934	1.2727	5.e-002	3.9624e-006
19882	20.934	1.5455	0.	-11.585
19883	21.024	1.4545	0.	-6.6362
19884	20.934	1.4545	5.e-002	4.2524e-006
19885	20.934	1.7273	0.	-15.527
19886	21.024	1.6364	0.	-10.139
19887	20.934	1.6364	5.e-002	4.563e-006
19888	20.934	1.9091	0.	-19.346
19889	21.024	1.8182	0.	-13.612
19890	20.934	1.8182	5.e-002	4.236e-006
19891	20.934	2.0909	0.	-22.896
19892	21.024	2.	0.	-16.922
19893	20.934	2.	5.e-002	4.7015e-006
19894	20.934	2.2727	0.	-26.03
19895	21.024	2.1818	0.	-19.933
19896	20.934	2.1818	5.e-002	4.4471e-006
19897	20.934	2.4545	0.	-28.62
19898	21.024	2.3636	0.	-22.518
19899	20.934	2.3636	5.e-002	4.768e-006
19900	20.934	2.6364	0.	-30.554
19901	21.024	2.5455	0.	-24.564
19902	20.934	2.5455	5.e-002	5.762e-006
19903	20.934	2.8182	0.	-31.749
19904	21.024	2.7273	0.	-25.98
19905	20.934	2.7273	5.e-002	4.4836e-006
19906	20.934	3.	0.	-32.153
19907	21.024	2.9091	0.	-26.705
19908	20.934	2.9091	5.e-002	4.7672e-006
19909	20.934	3.1818	0.	-31.749
19910	21.024	3.0909	0.	-26.705
19911	20.934	3.0909	5.e-002	4.2913e-006
19912	20.934	3.3636	0.	-30.554
19913	21.024	3.2727	0.	-25.98
19914	20.934	3.2727	5.e-002	4.8121e-006
19915	20.934	3.5455	0.	-28.62
19916	21.024	3.4545	0.	-24.564
19917	20.934	3.4545	5.e-002	4.9541e-006
19918	20.934	3.7273	0.	-26.03
19919	21.024	3.6364	0.	-22.518
19920	20.934	3.6364	5.e-002	5.7025e-006
19921	20.934	3.9091	0.	-22.896
19922	21.024	3.8182	0.	-19.933
19923	20.934	3.8182	5.e-002	6.472e-006
19924	20.934	4.0909	0.	-19.346
19925	21.024	4.	0.	-16.922
19926	20.934	4.	5.e-002	6.3809e-006
19927	20.934	4.2727	0.	-15.527
19928	21.024	4.1818	0.	-13.612
19929	20.934	4.1818	5.e-002	5.3491e-006
19930	20.934	4.4545	0.	-11.585
19931	21.024	4.3636	0.	-10.139
19932	20.934	4.3636	5.e-002	6.9664e-006
19933	20.934	4.6364	0.	-7.6678
19934	21.024	4.5455	0.	-6.6362
19935	20.934	4.5455	5.e-002	5.987e-006
19936	20.934	4.8182	0.	-3.9067
19937	21.024	4.7273	0.	-3.2312
19938	20.934	4.7273	5.e-002	7.2415e-006
19939	20.934	5.	0.	-0.41719
19940	21.024	4.9091	0.	-5.4949e-002
19941	20.934	4.9091	5.e-002	7.59e-006
19942	20.934	5.1818	0.	2.1613e-002
19943	21.024	5.0909	0.	2.35e-002
19944	20.934	5.0909	5.e-002	6.2306e-006
19945	20.934	5.3636	0.	1.6153e-002
19946	21.024	5.2727	0.	1.8209e-002
19947	20.934	5.2727	5.e-002	7.5577e-006
19948	20.934	5.5455	0.	6.9389e-003
19949	21.024	5.4545	0.	1.2066e-002
19950	20.934	5.4545	5.e-002	7.1795e-006
19951	20.934	5.7273	0.	-2.1886e-003
19952	21.024	5.6364	0.	-8.6684e-004
19953	20.934	5.6364	5.e-002	8.7122e-006
19954	21.024	5.8182	0.	-2.3878e-003
19955	20.934	5.8182	5.e-002	7.1634e-006
19956	20.934	5.9091	0.	1.0372e-002
19957	21.115	0.27273	0.	-4.4829e-003
19958	21.205	0.18182	0.	-3.3166e-003
19959	21.115	0.18182	5.e-002	3.137e-006
19960	21.115	9.0909e-002	0.	8.6719e-003
19961	21.115	0.45455	0.	4.0525e-003
19962	21.205	0.36364	0.	-4.6817e-003
19963	21.115	0.36364	5.e-002	-1.9469e-006
19964	21.115	0.63636	0.	1.4142e-002
19965	21.205	0.54545	0.	9.9954e-003
19966	21.115	0.54545	5.e-002	-1.2687e-006
19967	21.115	0.81818	0.	2.0166e-002
19968	21.205	0.72727	0.	1.6491e-002
19969	21.115	0.72727	5.e-002	1.443e-006
19970	21.115	1.	0.	2.4929e-002
19971	21.205	0.90909	0.	2.2485e-002
19972	21.115	0.90909	5.e-002	2.6011e-006
19973	21.115	1.1818	0.	2.5962e-002
19974	21.205	1.0909	0.	2.6555e-002
19975	21.115	1.0909	5.e-002	5.4099e-006
19976	21.115	1.3636	0.	-2.2232
19977	21.205	1.2727	0.	2.8586e-002
19978	21.115	1.2727	5.e-002	4.3857e-006
19979	21.115	1.5455	0.	-5.208
19980	21.205	1.4545	0.	-0.678
19981	21.115	1.4545	5.e-002	4.2785e-006
19982	21.115	1.7273	0.	-8.2386
19983	21.205	1.6364	0.	-3.2772
19984	21.115	1.6364	5.e-002	4.82e-006
19985	21.115	1.9091	0.	-11.199
19986	21.205	1.8182	0.	-5.89
19987	21.115	1.8182	5.e-002	3.9472e-006
19988	21.115	2.0909	0.	-13.968
19989	21.205	2.	0.	-8.4051
19990	21.115	2.	5.e-002	4.7163e-006
19991	21.115	2.2727	0.	-16.427
19992	21.205	2.1818	0.	-10.712
19993	21.115	2.1818	5.e-002	4.7635e-006
19994	21.115	2.4545	0.	-18.466
19995	21.205	2.3636	0.	-12.705
19996	21.115	2.3636	5.e-002	4.7976e-006
19997	21.115	2.6364	0.	-19.994
19998	21.205	2.5455	0.	-14.29
19999	21.115	2.5455	5.e-002	5.4032e-006
20000	21.115	2.8182	0.	-20.94
20001	21.205	2.7273	0.	-15.391
20002	21.115	2.7273	5.e-002	4.3434e-006
20003	21.115	3.	0.	-21.261
20004	21.205	2.9091	0.	-15.956
20005	21.115	2.9091	5.e-002	5.1142e-006
20006	21.115	3.1818	0.	-20.94
20007	21.205	3.0909	0.	-15.956
20008	21.115	3.0909	5.e-002	4.4211e-006
20009	21.115	3.3636	0.	-19.994
20010	21.205	3.2727	0.	-15.391
20011	21.115	3.2727	5.e-002	4.9405e-006
20012	21.115	3.5455	0.	-18.466
20013	21.205	3.4545	0.	-14.29
20014	21.115	3.4545	5.e-002	5.5495e-006
20015	21.115	3.7273	0.	-16.427
20016	21.205	3.6364	0.	-12.705
20017	21.115	3.6364	5.e-002	6.5032e-006
20018	21.115	3.9091	0.	-13.968
20019	21.205	3.8182	0.	-10.712
20020	21.115	3.8182	5.e-002	7.38e-006
20021	21.115	4.0909	0.	-11.199
20022	21.205	4.	0.	-8.4051
20023	21.115	4.	5.e-002	6.5959e-006
20024	21.115	4.2727	0.	-8.2386
20025	21.205	4.1818	0.	-5.89
20026	21.115	4.1818	5.e-002	6.11e-006
20027	21.115	4.4545	0.	-5.208
20028	21.205	4.3636	0.	-3.2772
20029	21.115	4.3636	5.e-002	8.2121e-006
20030	21.115	4.6364	0.	-2.2232
20031	21.205	4.5455	0.	-0.67799
20032	21.115	4.5455	5.e-002	6.5374e-006
20033	21.115	4.8182	0.	2.5961e-002
20034	21.205	4.7273	0.	2.8585e-002
20035	21.115	4.7273	5.e-002	7.5941e-006
20036	21.115	5.	0.	2.4927e-002
20037	21.205	4.9091	0.	2.6554e-002
20038	21.115	4.9091	5.e-002	7.9352e-006
20039	21.115	5.1818	0.	2.0164e-002
20040	21.205	5.0909	0.	2.2483e-002
20041	21.115	5.0909	5.e-002	6.1285e-006
20042	21.115	5.3636	0.	1.4142e-002
20043	21.205	5.2727	0.	1.649e-002
20044	21.115	5.2727	5.e-002	7.5233e-006
20045	21.115	5.5455	0.	4.0552e-003
20046	21.205	5.4545	0.	9.9963e-003
20047	21.115	5.4545	5.e-002	7.7101e-006
20048	21.115	5.7273	0.	-4.4804e-003
20049	21.205	5.6364	0.	-4.679e-003
20050	21.115	5.6364	5.e-002	8.6738e-006
20051	21.205	5.8182	0.	-3.3164e-003
20052	21.115	5.8182	5.e-002	6.5157e-006
20053	21.115	5.9091	0.	8.6748e-003
20054	21.295	0.27273	0.	-7.3279e-003
20055	21.385	0.18182	0.	-4.7052e-003
20056	21.295	0.18182	5.e-002	9.6876e-006
20057	21.295	9.0909e-002	0.	7.4696e-003
20058	21.295	0.45455	0.	1.0868e-003
20059	21.385	0.36364	0.	-8.8508e-003
20060	21.295	0.36364	5.e-002	1.811e-006
20061	21.295	0.63636	0.	1.2434e-002
20062	21.385	0.54545	0.	8.2201e-003
20063	21.295	0.54545	5.e-002	-9.0196e-007
20064	21.295	0.81818	0.	1.8953e-002
20065	21.385	0.72727	0.	1.5192e-002
20066	21.295	0.72727	5.e-002	3.6564e-006
20067	21.295	1.	0.	2.4293e-002
20068	21.385	0.90909	0.	2.1816e-002
20069	21.295	0.90909	5.e-002	7.4711e-006
20070	21.295	1.1818	0.	2.7955e-002
20071	21.385	1.0909	0.	2.6395e-002
20072	21.295	1.0909	5.e-002	9.0733e-006
20073	21.295	1.3636	0.	3.0102e-002
20074	21.385	1.2727	0.	2.9595e-002
20075	21.295	1.2727	5.e-002	8.0991e-006
20076	21.295	1.5455	0.	2.9215e-002
20077	21.385	1.4545	0.	3.1493e-002
20078	21.295	1.4545	5.e-002	7.7994e-006
20079	21.295	1.7273	0.	-0.94667
20080	21.385	1.6364	0.	3.2186e-002
20081	21.295	1.6364	5.e-002	8.243e-006
20082	21.295	1.9091	0.	-3.1079
20083	21.385	1.8182	0.	3.0973e-002
20084	21.295	1.8182	5.e-002	7.1782e-006
20085	21.295	2.0909	0.	-5.1578
20086	21.385	2.	0.	-4.1992e-002
20087	21.295	2.	5.e-002	7.9714e-006
20088	21.295	2.2727	0.	-6.9965
20089	21.385	2.1818	0.	-1.6206
20090	21.295	2.1818	5.e-002	8.321e-006
20091	21.295	2.4545	0.	-8.5334
20092	21.385	2.3636	0.	-3.0698
20093	21.295	2.3636	5.e-002	8.4589e-006
20094	21.295	2.6364	0.	-9.6911
20095	21.385	2.5455	0.	-4.2337
20096	21.295	2.5455	5.e-002	8.9999e-006
20097	21.295	2.8182	0.	-10.41
20098	21.385	2.7273	0.	-5.0475
20099	21.295	2.7273	5.e-002	7.7898e-006
20100	21.295	3.	0.	-10.654
20101	21.385	2.9091	0.	-5.4661
20102	21.295	2.9091	5.e-002	8.5652e-006
20103	21.295	3.1818	0.	-10.41
20104	21.385	3.0909	0.	-5.4661
20105	21.295	3.0909	5.e-002	8.482e-006
20106	21.295	3.3636	0.	-9.6911
20107	21.385	3.2727	0.	-5.0475
20108	21.295	3.2727	5.e-002	9.255e-006
20109	21.295	3.5455	0.	-8.5334
20110	21.385	3.4545	0.	-4.2337
20111	21.295	3.4545	5.e-002	9.8453e-006
20112	21.295	3.7273	0.	-6.9965
20113	21.385	3.6364	0.	-3.0698
20114	21.295	3.6364	5.e-002	1.0661e-005
20115	21.295	3.9091	0.	-5.1578
20116	21.385	3.8182	0.	-1.6206
20117	21.295	3.8182	5.e-002	1.1167e-005
20118	21.295	4.0909	0.	-3.1079
20119	21.385	4.	0.	-4.1995e-002
20120	21.295	4.	5.e-002	1.1205e-005
20121	21.295	4.2727	0.	-0.94666
20122	21.385	4.1818	0.	3.0973e-002
20123	21.295	4.1818	5.e-002	1.0535e-005
20124	21.295	4.4545	0.	2.9215e-002
20125	21.385	4.3636	0.	3.2186e-002
20126	21.295	4.3636	5.e-002	1.2619e-005
20127	21.295	4.6364	0.	3.0103e-002
20128	21.385	4.5455	0.	3.1492e-002
20129	21.295	4.5455	5.e-002	1.0804e-005
20130	21.295	4.8182	0.	2.7955e-002
20131	21.385	4.7273	0.	2.9595e-002
20132	21.295	4.7273	5.e-002	1.2194e-005
20133	21.295	5.	0.	2.4292e-002
20134	21.385	4.9091	0.	2.6394e-002
20135	21.295	4.9091	5.e-002	1.2255e-005
20136	21.295	5.1818	0.	1.8952e-002
20137	21.385	5.0909	0.	2.1817e-002
20138	21.295	5.0909	5.e-002	1.0661e-005
20139	21.295	5.3636	0.	1.2433e-002
20140	21.385	5.2727	0.	1.5192e-002
20141	21.295	5.2727	5.e-002	1.1686e-005
20142	21.295	5.5455	0.	1.0876e-003
20143	21.385	5.4545	0.	8.2188e-003
20144	21.295	5.4545	5.e-002	1.0886e-005
20145	21.295	5.7273	0.	-7.3277e-003
20146	21.385	5.6364	0.	-8.8489e-003
20147	21.295	5.6364	5.e-002	1.1695e-005
20148	21.385	5.8182	0.	-4.7062e-003
20149	21.295	5.8182	5.e-002	8.592e-006
20150	21.295	5.9091	0.	7.4698e-003
20151	21.475	0.27273	0.	-1.0645e-002
20152	21.565	0.18182	0.	-6.5765e-003
20153	21.475	0.18182	5.e-002	3.0394e-006
20154	21.475	9.0909e-002	0.	6.6813e-003
20155	21.475	0.45455	0.	-1.8309e-003
20156	21.565	0.36364	0.	-1.3278e-002
20157	21.475	0.36364	5.e-002	-1.5915e-006
20158	21.475	0.63636	0.	1.1162e-002
20159	21.565	0.54545	0.	6.8133e-003
20160	21.475	0.54545	5.e-002	3.1138e-006
20161	21.475	0.81818	0.	1.8272e-002
20162	21.565	0.72727	0.	1.4398e-002
20163	21.475	0.72727	5.e-002	5.8574e-006
20164	21.475	1.	0.	2.4143e-002
20165	21.565	0.90909	0.	2.1719e-002
20166	21.475	0.90909	5.e-002	7.9048e-006
20167	21.475	1.1818	0.	2.8247e-002
20168	21.565	1.0909	0.	2.6737e-002
20169	21.475	1.0909	5.e-002	9.0862e-006
20170	21.475	1.3636	0.	3.1052e-002
20171	21.565	1.2727	0.	3.0351e-002
20172	21.475	1.2727	5.e-002	9.2534e-006
20173	21.475	1.5455	0.	3.2787e-002
20174	21.565	1.4545	0.	3.2743e-002
20175	21.475	1.4545	5.e-002	8.4809e-006
20176	21.475	1.7273	0.	3.3719e-002
20177	21.565	1.6364	0.	3.4254e-002
20178	21.475	1.6364	5.e-002	8.0206e-006
20179	21.475	1.9091	0.	3.4065e-002
20180	21.565	1.8182	0.	3.5135e-002
20181	21.475	1.8182	5.e-002	7.4732e-006
20182	21.475	2.0909	0.	3.4008e-002
20183	21.565	2.	0.	3.5622e-002
20184	21.475	2.	5.e-002	7.7307e-006
20185	21.475	2.2727	0.	3.3677e-002
20186	21.565	2.1818	0.	3.59e-002
20187	21.475	2.1818	5.e-002	8.3315e-006
20188	21.475	2.4545	0.	3.3078e-002
20189	21.565	2.3636	0.	3.6108e-002
20190	21.475	2.3636	5.e-002	8.8563e-006
20191	21.475	2.6364	0.	3.14e-002
20192	21.565	2.5455	0.	3.6316e-002
20193	21.475	2.5455	5.e-002	9.2465e-006
20194	21.475	2.8182	0.	-0.10979
20195	21.565	2.7273	0.	3.6528e-002
20196	21.475	2.7273	5.e-002	8.35e-006
20197	21.475	3.	0.	-0.28138
20198	21.565	2.9091	0.	3.6668e-002
20199	21.475	2.9091	5.e-002	9.3287e-006
20200	21.475	3.1818	0.	-0.10979
20201	21.565	3.0909	0.	3.6667e-002
20202	21.475	3.0909	5.e-002	9.0139e-006
20203	21.475	3.3636	0.	3.1401e-002
20204	21.565	3.2727	0.	3.6527e-002
20205	21.475	3.2727	5.e-002	1.0384e-005
20206	21.475	3.5455	0.	3.3078e-002
20207	21.565	3.4545	0.	3.6318e-002
20208	21.475	3.4545	5.e-002	1.0364e-005
20209	21.475	3.7273	0.	3.3677e-002
20210	21.565	3.6364	0.	3.6108e-002
20211	21.475	3.6364	5.e-002	1.1553e-005
20212	21.475	3.9091	0.	3.4009e-002
20213	21.565	3.8182	0.	3.5901e-002
20214	21.475	3.8182	5.e-002	1.2555e-005
20215	21.475	4.0909	0.	3.4065e-002
20216	21.565	4.	0.	3.5623e-002
20217	21.475	4.	5.e-002	1.2031e-005
20218	21.475	4.2727	0.	3.3719e-002
20219	21.565	4.1818	0.	3.5135e-002
20220	21.475	4.1818	5.e-002	1.147e-005
20221	21.475	4.4545	0.	3.2786e-002
20222	21.565	4.3636	0.	3.4252e-002
20223	21.475	4.3636	5.e-002	1.3263e-005
20224	21.475	4.6364	0.	3.1051e-002
20225	21.565	4.5455	0.	3.2743e-002
20226	21.475	4.5455	5.e-002	1.1446e-005
20227	21.475	4.8182	0.	2.8246e-002
20228	21.565	4.7273	0.	3.0351e-002
20229	21.475	4.7273	5.e-002	1.3033e-005
20230	21.475	5.	0.	2.4144e-002
20231	21.565	4.9091	0.	2.6737e-002
20232	21.475	4.9091	5.e-002	1.2755e-005
20233	21.475	5.1818	0.	1.8273e-002
20234	21.565	5.0909	0.	2.1719e-002
20235	21.475	5.0909	5.e-002	1.1074e-005
20236	21.475	5.3636	0.	1.1161e-002
20237	21.565	5.2727	0.	1.4398e-002
20238	21.475	5.2727	5.e-002	1.1674e-005
20239	21.475	5.5455	0.	-1.8312e-003
20240	21.565	5.4545	0.	6.8129e-003
20241	21.475	5.4545	5.e-002	1.0606e-005
20242	21.475	5.7273	0.	-1.0644e-002
20243	21.565	5.6364	0.	-1.3277e-002
20244	21.475	5.6364	5.e-002	1.1018e-005
20245	21.565	5.8182	0.	-6.5775e-003
20246	21.475	5.8182	5.e-002	7.0714e-006
20247	21.475	5.9091	0.	6.6827e-003
20248	21.656	0.27273	0.	-1.4386e-002
20249	21.746	0.18182	0.	-8.9741e-003
20250	21.656	0.18182	5.e-002	3.3423e-006
20251	21.656	9.0909e-002	0.	6.2807e-003
20252	21.656	0.45455	0.	-4.6425e-003
20253	21.746	0.36364	0.	-1.7905e-002
20254	21.656	0.36364	5.e-002	-1.2691e-006
20255	21.656	0.63636	0.	1.0358e-002
20256	21.746	0.54545	0.	5.8131e-003
20257	21.656	0.54545	5.e-002	6.3861e-007
20258	21.656	0.81818	0.	1.8156e-002
20259	21.746	0.72727	0.	1.4138e-002
20260	21.656	0.72727	5.e-002	3.0661e-006
20261	21.656	1.	0.	2.4596e-002
20262	21.746	0.90909	0.	2.2238e-002
20263	21.656	0.90909	5.e-002	6.8379e-006
20264	21.656	1.1818	0.	2.909e-002
20265	21.746	1.0909	0.	2.7705e-002
20266	21.656	1.0909	5.e-002	8.7657e-006
20267	21.656	1.3636	0.	3.2246e-002
20268	21.746	1.2727	0.	3.1679e-002
20269	21.656	1.2727	5.e-002	8.0243e-006
20270	21.656	1.5455	0.	3.4346e-002
20271	21.746	1.4545	0.	3.4382e-002
20272	21.656	1.4545	5.e-002	7.2818e-006
20273	21.656	1.7273	0.	3.5689e-002
20274	21.746	1.6364	0.	3.6187e-002
20275	21.656	1.6364	5.e-002	7.1609e-006
20276	21.656	1.9091	0.	3.6513e-002
20277	21.746	1.8182	0.	3.7344e-002
20278	21.656	1.8182	5.e-002	6.4146e-006
20279	21.656	2.0909	0.	3.7013e-002
20280	21.746	2.	0.	3.8074e-002
20281	21.656	2.	5.e-002	6.6006e-006
20282	21.656	2.2727	0.	3.7324e-002
20283	21.746	2.1818	0.	3.8525e-002
20284	21.656	2.1818	5.e-002	7.3312e-006
20285	21.656	2.4545	0.	3.7533e-002
20286	21.746	2.3636	0.	3.8811e-002
20287	21.656	2.3636	5.e-002	7.5433e-006
20288	21.656	2.6364	0.	3.7684e-002
20289	21.746	2.5455	0.	3.8993e-002
20290	21.656	2.5455	5.e-002	7.7062e-006
20291	21.656	2.8182	0.	3.7785e-002
20292	21.746	2.7273	0.	3.9108e-002
20293	21.656	2.7273	5.e-002	7.3569e-006
20294	21.656	3.	0.	3.7819e-002
20295	21.746	2.9091	0.	3.9162e-002
20296	21.656	2.9091	5.e-002	8.2976e-006
20297	21.656	3.1818	0.	3.7783e-002
20298	21.746	3.0909	0.	3.9163e-002
20299	21.656	3.0909	5.e-002	8.0341e-006
20300	21.656	3.3636	0.	3.7684e-002
20301	21.746	3.2727	0.	3.9107e-002
20302	21.656	3.2727	5.e-002	8.8545e-006
20303	21.656	3.5455	0.	3.7534e-002
20304	21.746	3.4545	0.	3.8994e-002
20305	21.656	3.4545	5.e-002	9.2252e-006
20306	21.656	3.7273	0.	3.7325e-002
20307	21.746	3.6364	0.	3.8812e-002
20308	21.656	3.6364	5.e-002	1.0464e-005
20309	21.656	3.9091	0.	3.7014e-002
20310	21.746	3.8182	0.	3.8526e-002
20311	21.656	3.8182	5.e-002	1.1866e-005
20312	21.656	4.0909	0.	3.6514e-002
20313	21.746	4.	0.	3.8074e-002
20314	21.656	4.	5.e-002	1.1059e-005
20315	21.656	4.2727	0.	3.5687e-002
20316	21.746	4.1818	0.	3.7345e-002
20317	21.656	4.1818	5.e-002	1.0411e-005
20318	21.656	4.4545	0.	3.4344e-002
20319	21.746	4.3636	0.	3.6185e-002
20320	21.656	4.3636	5.e-002	1.2171e-005
20321	21.656	4.6364	0.	3.2247e-002
20322	21.746	4.5455	0.	3.4383e-002
20323	21.656	4.5455	5.e-002	1.0614e-005
20324	21.656	4.8182	0.	2.9091e-002
20325	21.746	4.7273	0.	3.168e-002
20326	21.656	4.7273	5.e-002	1.1422e-005
20327	21.656	5.	0.	2.4596e-002
20328	21.746	4.9091	0.	2.7705e-002
20329	21.656	4.9091	5.e-002	1.1585e-005
20330	21.656	5.1818	0.	1.8155e-002
20331	21.746	5.0909	0.	2.2236e-002
20332	21.656	5.0909	5.e-002	9.2232e-006
20333	21.656	5.3636	0.	1.0358e-002
20334	21.746	5.2727	0.	1.4138e-002
20335	21.656	5.2727	5.e-002	9.8577e-006
20336	21.656	5.5455	0.	-4.6415e-003
20337	21.746	5.4545	0.	5.814e-003
20338	21.656	5.4545	5.e-002	9.5227e-006
20339	21.656	5.7273	0.	-1.4387e-002
20340	21.746	5.6364	0.	-1.7904e-002
20341	21.656	5.6364	5.e-002	9.2907e-006
20342	21.746	5.8182	0.	-8.9734e-003
20343	21.656	5.8182	5.e-002	6.8816e-006
20344	21.656	5.9091	0.	6.2784e-003
20345	21.836	0.27273	0.	-1.8542e-002
20346	21.926	0.18182	0.	-1.1972e-002
20347	21.836	0.18182	5.e-002	3.6401e-006
20348	21.836	9.0909e-002	0.	6.2522e-003
20349	21.836	0.45455	0.	-7.3013e-003
20350	21.926	0.36364	0.	-2.2698e-002
20351	21.836	0.36364	5.e-002	9.1466e-007
20352	21.836	0.63636	0.	1.0057e-002
20353	21.926	0.54545	0.	5.261e-003
20354	21.836	0.54545	5.e-002	1.1289e-006
20355	21.836	0.81818	0.	1.8641e-002
20356	21.926	0.72727	0.	1.4457e-002
20357	21.836	0.72727	5.e-002	3.5543e-006
20358	21.836	1.	0.	2.5703e-002
20359	21.926	0.90909	0.	2.3424e-002
20360	21.836	0.90909	5.e-002	6.9521e-006
20361	21.836	1.1818	0.	3.0591e-002
20362	21.926	1.0909	0.	2.9366e-002
20363	21.836	1.0909	5.e-002	8.8634e-006
20364	21.836	1.3636	0.	3.4061e-002
20365	21.926	1.2727	0.	3.3699e-002
20366	21.836	1.2727	5.e-002	7.859e-006
20367	21.836	1.5455	0.	3.6423e-002
20368	21.926	1.4545	0.	3.6675e-002
20369	21.836	1.4545	5.e-002	7.4811e-006
20370	21.836	1.7273	0.	3.8e-002
20371	21.926	1.6364	0.	3.8708e-002
20372	21.836	1.6364	5.e-002	7.5962e-006
20373	21.836	1.9091	0.	3.9026e-002
20374	21.926	1.8182	0.	4.0059e-002
20375	21.836	1.8182	5.e-002	6.2638e-006
20376	21.836	2.0909	0.	3.9679e-002
20377	21.926	2.	0.	4.0945e-002
20378	21.836	2.	5.e-002	7.5318e-006
20379	21.836	2.2727	0.	4.009e-002
20380	21.926	2.1818	0.	4.151e-002
20381	21.836	2.1818	5.e-002	7.3345e-006
20382	21.836	2.4545	0.	4.0348e-002
20383	21.926	2.3636	0.	4.187e-002
20384	21.836	2.3636	5.e-002	8.0597e-006
20385	21.836	2.6364	0.	4.0505e-002
20386	21.926	2.5455	0.	4.2093e-002
20387	21.836	2.5455	5.e-002	8.2699e-006
20388	21.836	2.8182	0.	4.0589e-002
20389	21.926	2.7273	0.	4.2221e-002
20390	21.836	2.7273	5.e-002	7.9791e-006
20391	21.836	3.	0.	4.0616e-002
20392	21.926	2.9091	0.	4.2278e-002
20393	21.836	2.9091	5.e-002	9.0997e-006
20394	21.836	3.1818	0.	4.0589e-002
20395	21.926	3.0909	0.	4.2279e-002
20396	21.836	3.0909	5.e-002	8.5434e-006
20397	21.836	3.3636	0.	4.0505e-002
20398	21.926	3.2727	0.	4.222e-002
20399	21.836	3.2727	5.e-002	9.6642e-006
20400	21.836	3.5455	0.	4.0349e-002
20401	21.926	3.4545	0.	4.2093e-002
20402	21.836	3.4545	5.e-002	1.009e-005
20403	21.836	3.7273	0.	4.009e-002
20404	21.926	3.6364	0.	4.1871e-002
20405	21.836	3.6364	5.e-002	1.1018e-005
20406	21.836	3.9091	0.	3.9678e-002
20407	21.926	3.8182	0.	4.1509e-002
20408	21.836	3.8182	5.e-002	1.1502e-005
20409	21.836	4.0909	0.	3.9026e-002
20410	21.926	4.	0.	4.0943e-002
20411	21.836	4.	5.e-002	1.155e-005
20412	21.836	4.2727	0.	3.8001e-002
20413	21.926	4.1818	0.	4.0059e-002
20414	21.836	4.1818	5.e-002	1.0668e-005
20415	21.836	4.4545	0.	3.6423e-002
20416	21.926	4.3636	0.	3.8708e-002
20417	21.836	4.3636	5.e-002	1.2427e-005
20418	21.836	4.6364	0.	3.4061e-002
20419	21.926	4.5455	0.	3.6674e-002
20420	21.836	4.5455	5.e-002	1.0369e-005
20421	21.836	4.8182	0.	3.0591e-002
20422	21.926	4.7273	0.	3.37e-002
20423	21.836	4.7273	5.e-002	1.1858e-005
20424	21.836	5.	0.	2.5701e-002
20425	21.926	4.9091	0.	2.9366e-002
20426	21.836	4.9091	5.e-002	1.1611e-005
20427	21.836	5.1818	0.	1.864e-002
20428	21.926	5.0909	0.	2.3422e-002
20429	21.836	5.0909	5.e-002	9.6125e-006
20430	21.836	5.3636	0.	1.0058e-002
20431	21.926	5.2727	0.	1.4458e-002
20432	21.836	5.2727	5.e-002	1.0811e-005
20433	21.836	5.5455	0.	-7.3007e-003
20434	21.926	5.4545	0.	5.2603e-003
20435	21.836	5.4545	5.e-002	9.9847e-006
20436	21.836	5.7273	0.	-1.854e-002
20437	21.926	5.6364	0.	-2.2696e-002
20438	21.836	5.6364	5.e-002	1.0319e-005
20439	21.926	5.8182	0.	-1.197e-002
20440	21.836	5.8182	5.e-002	8.4315e-006
20441	21.836	5.9091	0.	6.2538e-003
20442	22.016	0.27273	0.	-2.3127e-002
20443	22.106	0.18182	0.	-1.5685e-002
20444	22.016	0.18182	5.e-002	4.5942e-006
20445	22.016	9.0909e-002	0.	6.6441e-003
20446	22.016	0.45455	0.	-9.7707e-003
20447	22.106	0.36364	0.	-2.7633e-002
20448	22.016	0.36364	5.e-002	1.0095e-006
20449	22.016	0.63636	0.	1.0311e-002
20450	22.106	0.54545	0.	5.2284e-003
20451	22.016	0.54545	5.e-002	1.0024e-006
20452	22.016	0.81818	0.	1.9787e-002
20453	22.106	0.72727	0.	1.5445e-002
20454	22.016	0.72727	5.e-002	3.3303e-006
20455	22.016	1.	0.	2.7529e-002
20456	22.106	0.90909	0.	2.5373e-002
20457	22.016	0.90909	5.e-002	4.9983e-006
20458	22.016	1.1818	0.	3.2832e-002
20459	22.106	1.0909	0.	3.1825e-002
20460	22.016	1.0909	5.e-002	5.3187e-006
20461	22.016	1.3636	0.	3.6609e-002
20462	22.106	1.2727	0.	3.6522e-002
20463	22.016	1.2727	5.e-002	4.1849e-006
20464	22.016	1.5455	0.	3.9208e-002
20465	22.106	1.4545	0.	3.9759e-002
20466	22.016	1.4545	5.e-002	4.0414e-006
20467	22.016	1.7273	0.	4.0979e-002
20468	22.106	1.6364	0.	4.1996e-002
20469	22.016	1.6364	5.e-002	4.4092e-006
20470	22.016	1.9091	0.	4.2164e-002
20471	22.106	1.8182	0.	4.3512e-002
20472	22.016	1.8182	5.e-002	4.0509e-006
20473	22.016	2.0909	0.	4.2943e-002
20474	22.106	2.	0.	4.453e-002
20475	22.016	2.	5.e-002	4.3811e-006
20476	22.016	2.2727	0.	4.3446e-002
20477	22.106	2.1818	0.	4.52e-002
20478	22.016	2.1818	5.e-002	4.2169e-006
20479	22.016	2.4545	0.	4.3765e-002
20480	22.106	2.3636	0.	4.5635e-002
20481	22.016	2.3636	5.e-002	4.9824e-006
20482	22.016	2.6364	0.	4.3957e-002
20483	22.106	2.5455	0.	4.5907e-002
20484	22.016	2.5455	5.e-002	5.9634e-006
20485	22.016	2.8182	0.	4.4059e-002
20486	22.106	2.7273	0.	4.6066e-002
20487	22.016	2.7273	5.e-002	5.0174e-006
20488	22.016	3.	0.	4.4092e-002
20489	22.106	2.9091	0.	4.6139e-002
20490	22.016	2.9091	5.e-002	5.9656e-006
20491	22.016	3.1818	0.	4.4059e-002
20492	22.106	3.0909	0.	4.6138e-002
20493	22.016	3.0909	5.e-002	5.4785e-006
20494	22.016	3.3636	0.	4.3956e-002
20495	22.106	3.2727	0.	4.6066e-002
20496	22.016	3.2727	5.e-002	6.6651e-006
20497	22.016	3.5455	0.	4.3765e-002
20498	22.106	3.4545	0.	4.5907e-002
20499	22.016	3.4545	5.e-002	7.1496e-006
20500	22.016	3.7273	0.	4.3446e-002
20501	22.106	3.6364	0.	4.5635e-002
20502	22.016	3.6364	5.e-002	8.3685e-006
20503	22.016	3.9091	0.	4.2942e-002
20504	22.106	3.8182	0.	4.5199e-002
20505	22.016	3.8182	5.e-002	8.8959e-006
20506	22.016	4.0909	0.	4.2163e-002
20507	22.106	4.	0.	4.453e-002
20508	22.016	4.	5.e-002	8.7238e-006
20509	22.016	4.2727	0.	4.0979e-002
20510	22.106	4.1818	0.	4.3512e-002
20511	22.016	4.1818	5.e-002	7.8525e-006
20512	22.016	4.4545	0.	3.9208e-002
20513	22.106	4.3636	0.	4.1996e-002
20514	22.016	4.3636	5.e-002	1.0317e-005
20515	22.016	4.6364	0.	3.6609e-002
20516	22.106	4.5455	0.	3.9757e-002
20517	22.016	4.5455	5.e-002	7.9995e-006
20518	22.016	4.8182	0.	3.2833e-002
20519	22.106	4.7273	0.	3.6523e-002
20520	22.016	4.7273	5.e-002	8.9839e-006
20521	22.016	5.	0.	2.7528e-002
20522	22.106	4.9091	0.	3.1824e-002
20523	22.016	4.9091	5.e-002	8.8282e-006
20524	22.016	5.1818	0.	1.9786e-002
20525	22.106	5.0909	0.	2.5371e-002
20526	22.016	5.0909	5.e-002	6.5703e-006
20527	22.016	5.3636	0.	1.031e-002
20528	22.106	5.2727	0.	1.5444e-002
20529	22.016	5.2727	5.e-002	7.4052e-006
20530	22.016	5.5455	0.	-9.77e-003
20531	22.106	5.4545	0.	5.2258e-003
20532	22.016	5.4545	5.e-002	6.8324e-006
20533	22.016	5.7273	0.	-2.3125e-002
20534	22.106	5.6364	0.	-2.763e-002
20535	22.016	5.6364	5.e-002	8.0357e-006
20536	22.106	5.8182	0.	-1.5684e-002
20537	22.016	5.8182	5.e-002	5.8182e-006
20538	22.016	5.9091	0.	6.6454e-003
20539	22.197	0.27273	0.	-2.8185e-002
20540	22.287	0.18182	0.	-2.0276e-002
20541	22.197	0.18182	5.e-002	9.708e-006
20542	22.197	9.0909e-002	0.	7.5412e-003
20543	22.197	0.45455	0.	-1.1979e-002
20544	22.287	0.36364	0.	-3.266e-002
20545	22.197	0.36364	5.e-002	7.8429e-006
20546	22.197	0.63636	0.	1.1235e-002
20547	22.287	0.54545	0.	5.8529e-003
20548	22.197	0.54545	5.e-002	9.0389e-006
20549	22.197	0.81818	0.	2.1724e-002
20550	22.287	0.72727	0.	1.7261e-002
20551	22.197	0.72727	5.e-002	9.0162e-006
20552	22.197	1.	0.	3.0213e-002
20553	22.287	0.90909	0.	2.8257e-002
20554	22.197	0.90909	5.e-002	8.5091e-006
20555	22.197	1.1818	0.	3.5952e-002
20556	22.287	1.0909	0.	3.5256e-002
20557	22.197	1.0909	5.e-002	6.7388e-006
20558	22.197	1.3636	0.	4.0034e-002
20559	22.287	1.2727	0.	4.0327e-002
20560	22.197	1.2727	5.e-002	4.9696e-006
20561	22.197	1.5455	0.	4.2857e-002
20562	22.287	1.4545	0.	4.3816e-002
20563	22.197	1.4545	5.e-002	5.3877e-006
20564	22.197	1.7273	0.	4.4804e-002
20565	22.287	1.6364	0.	4.6245e-002
20566	22.197	1.6364	5.e-002	5.9926e-006
20567	22.197	1.9091	0.	4.6127e-002
20568	22.287	1.8182	0.	4.7911e-002
20569	22.197	1.8182	5.e-002	5.6556e-006
20570	22.197	2.0909	0.	4.7019e-002
20571	22.287	2.	0.	4.9049e-002
20572	22.197	2.	5.e-002	6.2587e-006
20573	22.197	2.2727	0.	4.761e-002
20574	22.287	2.1818	0.	4.9816e-002
20575	22.197	2.1818	5.e-002	6.8454e-006
20576	22.197	2.4545	0.	4.7991e-002
20577	22.287	2.3636	0.	5.0324e-002
20578	22.197	2.3636	5.e-002	6.9343e-006
20579	22.197	2.6364	0.	4.8226e-002
20580	22.287	2.5455	0.	5.0648e-002
20581	22.197	2.5455	5.e-002	7.4896e-006
20582	22.197	2.8182	0.	4.8353e-002
20583	22.287	2.7273	0.	5.0842e-002
20584	22.197	2.7273	5.e-002	7.5511e-006
20585	22.197	3.	0.	4.8393e-002
20586	22.287	2.9091	0.	5.0931e-002
20587	22.197	2.9091	5.e-002	8.0809e-006
20588	22.197	3.1818	0.	4.8353e-002
20589	22.287	3.0909	0.	5.093e-002
20590	22.197	3.0909	5.e-002	8.6084e-006
20591	22.197	3.3636	0.	4.8226e-002
20592	22.287	3.2727	0.	5.0842e-002
20593	22.197	3.2727	5.e-002	9.6155e-006
20594	22.197	3.5455	0.	4.7991e-002
20595	22.287	3.4545	0.	5.0649e-002
20596	22.197	3.4545	5.e-002	9.676e-006
20597	22.197	3.7273	0.	4.7609e-002
20598	22.287	3.6364	0.	5.0324e-002
20599	22.197	3.6364	5.e-002	1.1658e-005
20600	22.197	3.9091	0.	4.7019e-002
20601	22.287	3.8182	0.	4.9817e-002
20602	22.197	3.8182	5.e-002	1.1277e-005
20603	22.197	4.0909	0.	4.6128e-002
20604	22.287	4.	0.	4.9049e-002
20605	22.197	4.	5.e-002	1.1841e-005
20606	22.197	4.2727	0.	4.4803e-002
20607	22.287	4.1818	0.	4.7911e-002
20608	22.197	4.1818	5.e-002	1.0519e-005
20609	22.197	4.4545	0.	4.2856e-002
20610	22.287	4.3636	0.	4.6244e-002
20611	22.197	4.3636	5.e-002	1.1577e-005
20612	22.197	4.6364	0.	4.0034e-002
20613	22.287	4.5455	0.	4.3815e-002
20614	22.197	4.5455	5.e-002	1.041e-005
20615	22.197	4.8182	0.	3.5951e-002
20616	22.287	4.7273	0.	4.0327e-002
20617	22.197	4.7273	5.e-002	1.1353e-005
20618	22.197	5.	0.	3.0211e-002
20619	22.287	4.9091	0.	3.5255e-002
20620	22.197	4.9091	5.e-002	1.1295e-005
20621	22.197	5.1818	0.	2.1723e-002
20622	22.287	5.0909	0.	2.8257e-002
20623	22.197	5.0909	5.e-002	8.6364e-006
20624	22.197	5.3636	0.	1.1232e-002
20625	22.287	5.2727	0.	1.7261e-002
20626	22.197	5.2727	5.e-002	9.8083e-006
20627	22.197	5.5455	0.	-1.1978e-002
20628	22.287	5.4545	0.	5.852e-003
20629	22.197	5.4545	5.e-002	9.1713e-006
20630	22.197	5.7273	0.	-2.8184e-002
20631	22.287	5.6364	0.	-3.2659e-002
20632	22.197	5.6364	5.e-002	1.0606e-005
20633	22.287	5.8182	0.	-2.0275e-002
20634	22.197	5.8182	5.e-002	8.9222e-006
20635	22.197	5.9091	0.	7.5393e-003
20636	22.377	0.27273	0.	-3.3759e-002
20637	22.467	0.18182	0.	-2.5957e-002
20638	22.377	0.18182	5.e-002	9.1991e-006
20639	22.377	9.0909e-002	0.	9.1128e-003
20640	22.377	0.45455	0.	-1.3792e-002
20641	22.467	0.36364	0.	-3.7673e-002
20642	22.377	0.36364	5.e-002	1.226e-005
20643	22.377	0.63636	0.	1.3023e-002
20644	22.467	0.54545	0.	7.3937e-003
20645	22.377	0.54545	5.e-002	1.465e-005
20646	22.377	0.81818	0.	2.4664e-002
20647	22.467	0.72727	0.	2.0193e-002
20648	22.377	0.72727	5.e-002	1.4407e-005
20649	22.377	1.	0.	3.3971e-002
20650	22.467	0.90909	0.	3.2377e-002
20651	22.377	0.90909	5.e-002	1.0661e-005
20652	22.377	1.1818	0.	4.0171e-002
20653	22.467	1.0909	0.	3.9958e-002
20654	22.377	1.0909	5.e-002	7.1577e-006
20655	22.377	1.3636	0.	4.4561e-002
20656	22.467	1.2727	0.	4.5413e-002
20657	22.377	1.2727	5.e-002	4.2743e-006
20658	22.377	1.5455	0.	4.7599e-002
20659	22.467	1.4545	0.	4.915e-002
20660	22.377	1.4545	5.e-002	5.8183e-006
20661	22.377	1.7273	0.	4.971e-002
20662	22.467	1.6364	0.	5.1762e-002
20663	22.377	1.6364	5.e-002	7.3345e-006
20664	22.377	1.9091	0.	5.1164e-002
20665	22.467	1.8182	0.	5.357e-002
20666	22.377	1.8182	5.e-002	7.4458e-006
20667	22.377	2.0909	0.	5.2161e-002
20668	22.467	2.	0.	5.4825e-002
20669	22.377	2.	5.e-002	7.558e-006
20670	22.377	2.2727	0.	5.2835e-002
20671	22.467	2.1818	0.	5.5683e-002
20672	22.377	2.1818	5.e-002	9.1072e-006
20673	22.377	2.4545	0.	5.3279e-002
20674	22.467	2.3636	0.	5.6263e-002
20675	22.377	2.3636	5.e-002	8.7294e-006
20676	22.377	2.6364	0.	5.3557e-002
20677	22.467	2.5455	0.	5.6641e-002
20678	22.377	2.5455	5.e-002	9.7866e-006
20679	22.377	2.8182	0.	5.371e-002
20680	22.467	2.7273	0.	5.6869e-002
20681	22.377	2.7273	5.e-002	7.9705e-006
20682	22.377	3.	0.	5.3758e-002
20683	22.467	2.9091	0.	5.6977e-002
20684	22.377	2.9091	5.e-002	9.4917e-006
20685	22.377	3.1818	0.	5.371e-002
20686	22.467	3.0909	0.	5.6975e-002
20687	22.377	3.0909	5.e-002	9.1054e-006
20688	22.377	3.3636	0.	5.3558e-002
20689	22.467	3.2727	0.	5.6869e-002
20690	22.377	3.2727	5.e-002	1.1105e-005
20691	22.377	3.5455	0.	5.3278e-002
20692	22.467	3.4545	0.	5.6642e-002
20693	22.377	3.4545	5.e-002	1.0723e-005
20694	22.377	3.7273	0.	5.2835e-002
20695	22.467	3.6364	0.	5.6264e-002
20696	22.377	3.6364	5.e-002	1.2253e-005
20697	22.377	3.9091	0.	5.2162e-002
20698	22.467	3.8182	0.	5.5685e-002
20699	22.377	3.8182	5.e-002	1.3798e-005
20700	22.377	4.0909	0.	5.1164e-002
20701	22.467	4.	0.	5.4823e-002
20702	22.377	4.	5.e-002	1.2938e-005
20703	22.377	4.2727	0.	4.971e-002
20704	22.467	4.1818	0.	5.3571e-002
20705	22.377	4.1818	5.e-002	1.1629e-005
20706	22.377	4.4545	0.	4.7598e-002
20707	22.467	4.3636	0.	5.1762e-002
20708	22.377	4.3636	5.e-002	1.3566e-005
20709	22.377	4.6364	0.	4.456e-002
20710	22.467	4.5455	0.	4.915e-002
20711	22.377	4.5455	5.e-002	1.1203e-005
20712	22.377	4.8182	0.	4.017e-002
20713	22.467	4.7273	0.	4.5411e-002
20714	22.377	4.7273	5.e-002	1.2634e-005
20715	22.377	5.	0.	3.3972e-002
20716	22.467	4.9091	0.	3.9957e-002
20717	22.377	4.9091	5.e-002	1.2035e-005
20718	22.377	5.1818	0.	2.4666e-002
20719	22.467	5.0909	0.	3.2378e-002
20720	22.377	5.0909	5.e-002	1.0392e-005
20721	22.377	5.3636	0.	1.3024e-002
20722	22.467	5.2727	0.	2.0193e-002
20723	22.377	5.2727	5.e-002	1.1103e-005
20724	22.377	5.5455	0.	-1.3792e-002
20725	22.467	5.4545	0.	7.3941e-003
20726	22.377	5.4545	5.e-002	1.0442e-005
20727	22.377	5.7273	0.	-3.3758e-002
20728	22.467	5.6364	0.	-3.7675e-002
20729	22.377	5.6364	5.e-002	1.0538e-005
20730	22.467	5.8182	0.	-2.5954e-002
20731	22.377	5.8182	5.e-002	8.4739e-006
20732	22.377	5.9091	0.	9.1148e-003
20733	22.557	0.27273	0.	-3.9865e-002
20734	22.647	0.18182	0.	-3.3079e-002
20735	22.557	0.18182	5.e-002	7.9168e-006
20736	22.557	9.0909e-002	0.	1.1681e-002
20737	22.557	0.45455	0.	-1.4945e-002
20738	22.647	0.36364	0.	-4.2551e-002
20739	22.557	0.36364	5.e-002	1.4085e-005
20740	22.557	0.63636	0.	1.6044e-002
20741	22.647	0.54545	0.	1.0194e-002
20742	22.557	0.54545	5.e-002	1.4574e-005
20743	22.557	0.81818	0.	2.8998e-002
20744	22.647	0.72727	0.	2.4616e-002
20745	22.557	0.72727	5.e-002	1.3454e-005
20746	22.557	1.	0.	3.9201e-002
20747	22.647	0.90909	0.	3.8119e-002
20748	22.557	0.90909	5.e-002	1.0232e-005
20749	22.557	1.1818	0.	4.5879e-002
20750	22.647	1.0909	0.	4.6314e-002
20751	22.557	1.0909	5.e-002	7.2748e-006
20752	22.557	1.3636	0.	5.0582e-002
20753	22.647	1.2727	0.	5.2163e-002
20754	22.557	1.2727	5.e-002	5.3396e-006
20755	22.557	1.5455	0.	5.3832e-002
20756	22.647	1.4545	0.	5.6151e-002
20757	22.557	1.4545	5.e-002	5.2098e-006
20758	22.557	1.7273	0.	5.6102e-002
20759	22.647	1.6364	0.	5.8945e-002
20760	22.557	1.6364	5.e-002	6.5778e-006
20761	22.557	1.9091	0.	5.7685e-002
20762	22.647	1.8182	0.	6.0896e-002
20763	22.557	1.8182	5.e-002	5.2214e-006
20764	22.557	2.0909	0.	5.8784e-002
20765	22.647	2.	0.	6.2266e-002
20766	22.557	2.	5.e-002	6.714e-006
20767	22.557	2.2727	0.	5.9537e-002
20768	22.647	2.1818	0.	6.3217e-002
20769	22.557	2.1818	5.e-002	6.7641e-006
20770	22.557	2.4545	0.	6.0045e-002
20771	22.647	2.3636	0.	6.3872e-002
20772	22.557	2.3636	5.e-002	8.2853e-006
20773	22.557	2.6364	0.	6.0369e-002
20774	22.647	2.5455	0.	6.4307e-002
20775	22.557	2.5455	5.e-002	8.8463e-006
20776	22.557	2.8182	0.	6.0549e-002
20777	22.647	2.7273	0.	6.4571e-002
20778	22.557	2.7273	5.e-002	8.454e-006
20779	22.557	3.	0.	6.0606e-002
20780	22.647	2.9091	0.	6.4696e-002
20781	22.557	2.9091	5.e-002	9.4921e-006
20782	22.557	3.1818	0.	6.0547e-002
20783	22.647	3.0909	0.	6.4695e-002
20784	22.557	3.0909	5.e-002	9.1053e-006
20785	22.557	3.3636	0.	6.0369e-002
20786	22.647	3.2727	0.	6.457e-002
20787	22.557	3.2727	5.e-002	9.1938e-006
20788	22.557	3.5455	0.	6.0047e-002
20789	22.647	3.4545	0.	6.4307e-002
20790	22.557	3.4545	5.e-002	9.7594e-006
20791	22.557	3.7273	0.	5.9539e-002
20792	22.647	3.6364	0.	6.3873e-002
20793	22.557	3.6364	5.e-002	1.176e-005
20794	22.557	3.9091	0.	5.8783e-002
20795	22.647	3.8182	0.	6.3218e-002
20796	22.557	3.8182	5.e-002	1.2324e-005
20797	22.557	4.0909	0.	5.7684e-002
20798	22.647	4.	0.	6.2265e-002
20799	22.557	4.	5.e-002	1.1909e-005
20800	22.557	4.2727	0.	5.6102e-002
20801	22.647	4.1818	0.	6.0897e-002
20802	22.557	4.1818	5.e-002	1.0047e-005
20803	22.557	4.4545	0.	5.3832e-002
20804	22.647	4.3636	0.	5.8944e-002
20805	22.557	4.3636	5.e-002	1.2453e-005
20806	22.557	4.6364	0.	5.0581e-002
20807	22.647	4.5455	0.	5.6151e-002
20808	22.557	4.5455	5.e-002	1.0468e-005
20809	22.557	4.8182	0.	4.5877e-002
20810	22.647	4.7273	0.	5.2162e-002
20811	22.557	4.7273	5.e-002	1.0841e-005
20812	22.557	5.	0.	3.92e-002
20813	22.647	4.9091	0.	4.6313e-002
20814	22.557	4.9091	5.e-002	1.0702e-005
20815	22.557	5.1818	0.	2.8999e-002
20816	22.647	5.0909	0.	3.8119e-002
20817	22.557	5.0909	5.e-002	8.9154e-006
20818	22.557	5.3636	0.	1.6043e-002
20819	22.647	5.2727	0.	2.4616e-002
20820	22.557	5.2727	5.e-002	9.7853e-006
20821	22.557	5.5455	0.	-1.4946e-002
20822	22.647	5.4545	0.	1.0193e-002
20823	22.557	5.4545	5.e-002	8.1409e-006
20824	22.557	5.7273	0.	-3.9864e-002
20825	22.647	5.6364	0.	-4.2551e-002
20826	22.557	5.6364	5.e-002	7.7952e-006
20827	22.647	5.8182	0.	-3.3076e-002
20828	22.557	5.8182	5.e-002	6.4551e-006
20829	22.557	5.9091	0.	1.168e-002
20830	22.738	0.27273	0.	-4.664e-002
20831	22.828	0.18182	0.	-4.1938e-002
20832	22.738	0.18182	5.e-002	9.8763e-006
20833	22.738	9.0909e-002	0.	1.563e-002
20834	22.738	0.45455	0.	-1.5184e-002
20835	22.828	0.36364	0.	-4.6763e-002
20836	22.738	0.36364	5.e-002	1.718e-005
20837	22.738	0.63636	0.	2.0684e-002
20838	22.828	0.54545	0.	1.512e-002
20839	22.738	0.54545	5.e-002	1.6394e-005
20840	22.738	0.81818	0.	3.5127e-002
20841	22.828	0.72727	0.	3.1445e-002
20842	22.738	0.72727	5.e-002	1.2841e-005
20843	22.738	1.	0.	4.6303e-002
20844	22.828	0.90909	0.	4.6405e-002
20845	22.738	0.90909	5.e-002	1.0711e-005
20846	22.738	1.1818	0.	5.3482e-002
20847	22.828	1.0909	0.	5.5249e-002
20848	22.738	1.0909	5.e-002	1.0573e-005
20849	22.738	1.3636	0.	5.8507e-002
20850	22.828	1.2727	0.	6.1513e-002
20851	22.738	1.2727	5.e-002	8.461e-006
20852	22.738	1.5455	0.	6.1974e-002
20853	22.828	1.4545	0.	6.5764e-002
20854	22.738	1.4545	5.e-002	8.4158e-006
20855	22.738	1.7273	0.	6.4409e-002
20856	22.828	1.6364	0.	6.8752e-002
20857	22.738	1.6364	5.e-002	9.8631e-006
20858	22.738	1.9091	0.	6.6122e-002
20859	22.828	1.8182	0.	7.0857e-002
20860	22.738	1.8182	5.e-002	8.4287e-006
20861	22.738	2.0909	0.	6.7329e-002
20862	22.828	2.	0.	7.2351e-002
20863	22.738	2.	5.e-002	8.9892e-006
20864	22.738	2.2727	0.	6.8172e-002
20865	22.828	2.1818	0.	7.3406e-002
20866	22.738	2.1818	5.e-002	9.9969e-006
20867	22.738	2.4545	0.	6.8747e-002
20868	22.828	2.3636	0.	7.4142e-002
20869	22.738	2.3636	5.e-002	1.1057e-005
20870	22.738	2.6364	0.	6.9118e-002
20871	22.828	2.5455	0.	7.4636e-002
20872	22.738	2.5455	5.e-002	1.1165e-005
20873	22.738	2.8182	0.	6.9326e-002
20874	22.828	2.7273	0.	7.4941e-002
20875	22.738	2.7273	5.e-002	1.127e-005
20876	22.738	3.	0.	6.9392e-002
20877	22.828	2.9091	0.	7.5085e-002
20878	22.738	2.9091	5.e-002	1.0431e-005
20879	22.738	3.1818	0.	6.9325e-002
20880	22.828	3.0909	0.	7.5085e-002
20881	22.738	3.0909	5.e-002	1.2459e-005
20882	22.738	3.3636	0.	6.9118e-002
20883	22.828	3.2727	0.	7.494e-002
20884	22.738	3.2727	5.e-002	1.4486e-005
20885	22.738	3.5455	0.	6.8746e-002
20886	22.828	3.4545	0.	7.4636e-002
20887	22.738	3.4545	5.e-002	1.3651e-005
20888	22.738	3.7273	0.	6.8171e-002
20889	22.828	3.6364	0.	7.4142e-002
20890	22.738	3.6364	5.e-002	1.3772e-005
20891	22.738	3.9091	0.	6.7329e-002
20892	22.828	3.8182	0.	7.3407e-002
20893	22.738	3.8182	5.e-002	1.5809e-005
20894	22.738	4.0909	0.	6.6123e-002
20895	22.828	4.	0.	7.2351e-002
20896	22.738	4.	5.e-002	1.5432e-005
20897	22.738	4.2727	0.	6.4408e-002
20898	22.828	4.1818	0.	7.0858e-002
20899	22.738	4.1818	5.e-002	1.3607e-005
20900	22.738	4.4545	0.	6.1973e-002
20901	22.828	4.3636	0.	6.8752e-002
20902	22.738	4.3636	5.e-002	1.5564e-005
20903	22.738	4.6364	0.	5.8507e-002
20904	22.828	4.5455	0.	6.5763e-002
20905	22.738	4.5455	5.e-002	1.4197e-005
20906	22.738	4.8182	0.	5.3482e-002
20907	22.828	4.7273	0.	6.1512e-002
20908	22.738	4.7273	5.e-002	1.4529e-005
20909	22.738	5.	0.	4.6303e-002
20910	22.828	4.9091	0.	5.525e-002
20911	22.738	4.9091	5.e-002	1.4773e-005
20912	22.738	5.1818	0.	3.5126e-002
20913	22.828	5.0909	0.	4.6403e-002
20914	22.738	5.0909	5.e-002	1.1564e-005
20915	22.738	5.3636	0.	2.0684e-002
20916	22.828	5.2727	0.	3.1444e-002
20917	22.738	5.2727	5.e-002	1.2465e-005
20918	22.738	5.5455	0.	-1.5184e-002
20919	22.828	5.4545	0.	1.5119e-002
20920	22.738	5.4545	5.e-002	1.1645e-005
20921	22.738	5.7273	0.	-4.6638e-002
20922	22.828	5.6364	0.	-4.6761e-002
20923	22.738	5.6364	5.e-002	1.1602e-005
20924	22.828	5.8182	0.	-4.1937e-002
20925	22.738	5.8182	5.e-002	9.0831e-006
20926	22.738	5.9091	0.	1.5632e-002
20927	22.918	0.27273	0.	-5.3562e-002
20928	23.008	0.18182	0.	-5.3745e-002
20929	22.918	0.18182	5.e-002	1.304e-005
20930	22.918	9.0909e-002	0.	2.2168e-002
20931	22.918	0.45455	0.	-1.3271e-002
20932	23.008	0.36364	0.	-5.0368e-002
20933	22.918	0.36364	5.e-002	1.7031e-005
20934	22.918	0.63636	0.	2.8399e-002
20935	23.008	0.54545	0.	2.251e-002
20936	22.918	0.54545	5.e-002	1.0118e-005
20937	22.918	0.81818	0.	4.4539e-002
20938	23.008	0.72727	0.	4.101e-002
20939	22.918	0.72727	5.e-002	4.5433e-006
20940	22.918	1.	0.	5.6779e-002
20941	23.008	0.90909	0.	5.7593e-002
20942	22.918	0.90909	5.e-002	4.4657e-006
20943	22.918	1.1818	0.	6.4495e-002
20944	23.008	1.0909	0.	6.7133e-002
20945	22.918	1.0909	5.e-002	4.0877e-006
20946	22.918	1.3636	0.	6.9867e-002
20947	23.008	1.2727	0.	7.385e-002
20948	22.918	1.2727	5.e-002	3.1059e-006
20949	22.918	1.5455	0.	7.3572e-002
20950	23.008	1.4545	0.	7.8398e-002
20951	22.918	1.4545	5.e-002	2.7934e-006
20952	22.918	1.7273	0.	7.6192e-002
20953	23.008	1.6364	0.	8.1615e-002
20954	22.918	1.6364	5.e-002	3.8428e-006
20955	22.918	1.9091	0.	7.8056e-002
20956	23.008	1.8182	0.	8.3902e-002
20957	22.918	1.8182	5.e-002	2.9596e-006
20958	22.918	2.0909	0.	7.9384e-002
20959	23.008	2.	0.	8.5545e-002
20960	22.918	2.	5.e-002	4.9605e-006
20961	22.918	2.2727	0.	8.0324e-002
20962	23.008	2.1818	0.	8.6719e-002
20963	22.918	2.1818	5.e-002	5.057e-006
20964	22.918	2.4545	0.	8.0974e-002
20965	23.008	2.3636	0.	8.7546e-002
20966	22.918	2.3636	5.e-002	5.1928e-006
20967	22.918	2.6364	0.	8.1398e-002
20968	23.008	2.5455	0.	8.811e-002
20969	22.918	2.5455	5.e-002	6.2996e-006
20970	22.918	2.8182	0.	8.1638e-002
20971	23.008	2.7273	0.	8.846e-002
20972	22.918	2.7273	5.e-002	5.4913e-006
20973	22.918	3.	0.	8.1716e-002
20974	23.008	2.9091	0.	8.8626e-002
20975	22.918	2.9091	5.e-002	5.6431e-006
20976	22.918	3.1818	0.	8.1639e-002
20977	23.008	3.0909	0.	8.8627e-002
20978	22.918	3.0909	5.e-002	6.7561e-006
20979	22.918	3.3636	0.	8.1398e-002
20980	23.008	3.2727	0.	8.8459e-002
20981	22.918	3.2727	5.e-002	6.9141e-006
20982	22.918	3.5455	0.	8.0974e-002
20983	23.008	3.4545	0.	8.811e-002
20984	22.918	3.4545	5.e-002	8.0235e-006
20985	22.918	3.7273	0.	8.0325e-002
20986	23.008	3.6364	0.	8.7547e-002
20987	22.918	3.6364	5.e-002	8.1874e-006
20988	22.918	3.9091	0.	7.9385e-002
20989	23.008	3.8182	0.	8.6719e-002
20990	22.918	3.8182	5.e-002	1.0266e-005
20991	22.918	4.0909	0.	7.8056e-002
20992	23.008	4.	0.	8.5543e-002
20993	22.918	4.	5.e-002	1.0401e-005
20994	22.918	4.2727	0.	7.6194e-002
20995	23.008	4.1818	0.	8.3903e-002
20996	22.918	4.1818	5.e-002	9.5945e-006
20997	22.918	4.4545	0.	7.3572e-002
20998	23.008	4.3636	0.	8.1617e-002
20999	22.918	4.3636	5.e-002	1.2455e-005
21000	22.918	4.6364	0.	6.9865e-002
21001	23.008	4.5455	0.	7.8397e-002
21002	22.918	4.5455	5.e-002	9.1501e-006
21003	22.918	4.8182	0.	6.4494e-002
21004	23.008	4.7273	0.	7.3848e-002
21005	22.918	4.7273	5.e-002	9.7242e-006
21006	22.918	5.	0.	5.6777e-002
21007	23.008	4.9091	0.	6.7133e-002
21008	22.918	4.9091	5.e-002	9.9654e-006
21009	22.918	5.1818	0.	4.4537e-002
21010	23.008	5.0909	0.	5.759e-002
21011	22.918	5.0909	5.e-002	7.1587e-006
21012	22.918	5.3636	0.	2.8399e-002
21013	23.008	5.2727	0.	4.101e-002
21014	22.918	5.2727	5.e-002	8.5771e-006
21015	22.918	5.5455	0.	-1.3271e-002
21016	23.008	5.4545	0.	2.251e-002
21017	22.918	5.4545	5.e-002	6.7595e-006
21018	22.918	5.7273	0.	-5.3561e-002
21019	23.008	5.6364	0.	-5.0365e-002
21020	22.918	5.6364	5.e-002	7.5301e-006
21021	23.008	5.8182	0.	-5.3745e-002
21022	22.918	5.8182	5.e-002	4.7919e-006
21023	22.918	5.9091	0.	2.2164e-002
21024	23.098	0.27273	0.	-6.2103e-002
21025	23.188	0.18182	0.	-6.7074e-002
21026	23.098	0.18182	5.e-002	7.9168e-006
21027	23.098	9.0909e-002	0.	3.142e-002
21028	23.098	0.45455	0.	-9.9847e-003
21029	23.188	0.36364	0.	-4.901e-002
21030	23.098	0.36364	5.e-002	7.0424e-006
21031	23.098	0.63636	0.	3.8533e-002
21032	23.188	0.54545	0.	3.7883e-002
21033	23.098	0.54545	5.e-002	4.3997e-006
21034	23.098	0.81818	0.	5.6563e-002
21035	23.188	0.72727	0.	5.8926e-002
21036	23.098	0.72727	5.e-002	3.4691e-006
21037	23.098	1.	0.	6.9987e-002
21038	23.188	0.90909	0.	7.7363e-002
21039	23.098	0.90909	5.e-002	4.9944e-006
21040	23.098	1.1818	0.	7.8296e-002
21041	23.188	1.0909	0.	8.7733e-002
21042	23.098	1.0909	5.e-002	5.8222e-006
21043	23.098	1.3636	0.	8.4069e-002
21044	23.188	1.2727	0.	9.5013e-002
21045	23.098	1.2727	5.e-002	5.3412e-006
21046	23.098	1.5455	0.	8.8066e-002
21047	23.188	1.4545	0.	9.9949e-002
21048	23.098	1.4545	5.e-002	4.1973e-006
21049	23.098	1.7273	0.	9.0917e-002
21050	23.188	1.6364	0.	0.10347
21051	23.098	1.6364	5.e-002	6.1321e-006
21052	23.098	1.9091	0.	9.2964e-002
21053	23.188	1.8182	0.	0.10599
21054	23.098	1.8182	5.e-002	4.211e-006
21055	23.098	2.0909	0.	9.4443e-002
21056	23.188	2.	0.	0.10782
21057	23.098	2.	5.e-002	4.237e-006
21058	23.098	2.2727	0.	9.55e-002
21059	23.188	2.1818	0.	0.10914
21060	23.098	2.1818	5.e-002	6.2147e-006
21061	23.098	2.4545	0.	9.6238e-002
21062	23.188	2.3636	0.	0.11008
21063	23.098	2.3636	5.e-002	6.2988e-006
21064	23.098	2.6364	0.	9.6725e-002
21065	23.188	2.5455	0.	0.11072
21066	23.098	2.5455	5.e-002	7.3525e-006
21067	23.098	2.8182	0.	9.7001e-002
21068	23.188	2.7273	0.	0.11113
21069	23.098	2.7273	5.e-002	4.5974e-006
21070	23.098	3.	0.	9.7091e-002
21071	23.188	2.9091	0.	0.11132
21072	23.098	2.9091	5.e-002	6.616e-006
21073	23.098	3.1818	0.	9.7001e-002
21074	23.188	3.0909	0.	0.11132
21075	23.098	3.0909	5.e-002	6.7367e-006
21076	23.098	3.3636	0.	9.6725e-002
21077	23.188	3.2727	0.	0.11113
21078	23.098	3.2727	5.e-002	7.8137e-006
21079	23.098	3.5455	0.	9.6238e-002
21080	23.188	3.4545	0.	0.11072
21081	23.098	3.4545	5.e-002	7.9293e-006
21082	23.098	3.7273	0.	9.5499e-002
21083	23.188	3.6364	0.	0.11008
21084	23.098	3.6364	5.e-002	9.0015e-006
21085	23.098	3.9091	0.	9.4441e-002
21086	23.188	3.8182	0.	0.10914
21087	23.098	3.8182	5.e-002	1.1037e-005
21088	23.098	4.0909	0.	9.2964e-002
21089	23.188	4.	0.	0.10782
21090	23.098	4.	5.e-002	1.0154e-005
21091	23.098	4.2727	0.	9.0918e-002
21092	23.188	4.1818	0.	0.10599
21093	23.098	4.1818	5.e-002	1.0234e-005
21094	23.098	4.4545	0.	8.8067e-002
21095	23.188	4.3636	0.	0.10347
21096	23.098	4.3636	5.e-002	1.1234e-005
21097	23.098	4.6364	0.	8.4069e-002
21098	23.188	4.5455	0.	9.995e-002
21099	23.098	4.5455	5.e-002	9.2733e-006
21100	23.098	4.8182	0.	7.8294e-002
21101	23.188	4.7273	0.	9.5012e-002
21102	23.098	4.7273	5.e-002	9.996e-006
21103	23.098	5.	0.	6.9985e-002
21104	23.188	4.9091	0.	8.7732e-002
21105	23.098	4.9091	5.e-002	9.7457e-006
21106	23.098	5.1818	0.	5.6562e-002
21107	23.188	5.0909	0.	7.7362e-002
21108	23.098	5.0909	5.e-002	6.9655e-006
21109	23.098	5.3636	0.	3.8534e-002
21110	23.188	5.2727	0.	5.8924e-002
21111	23.098	5.2727	5.e-002	7.3165e-006
21112	23.098	5.5455	0.	-9.9826e-003
21113	23.188	5.4545	0.	3.7887e-002
21114	23.098	5.4545	5.e-002	6.4987e-006
21115	23.098	5.7273	0.	-6.2102e-002
21116	23.188	5.6364	0.	-4.9007e-002
21117	23.098	5.6364	5.e-002	7.8103e-006
21118	23.188	5.8182	0.	-6.7076e-002
21119	23.098	5.8182	5.e-002	3.5901e-006
21120	23.098	5.9091	0.	3.1422e-002
21121	23.279	0.27273	0.	-6.4271e-002
21122	23.369	0.18182	0.	-9.1484e-002
21123	23.279	0.18182	5.e-002	1.1467e-005
21124	23.279	9.0909e-002	0.	5.2266e-002
21125	23.279	0.45455	0.	5.7152e-003
21126	23.369	0.36364	0.	-5.0729e-002
21127	23.279	0.36364	5.e-002	7.1129e-006
21128	23.279	0.63636	0.	6.3199e-002
21129	23.369	0.54545	0.	5.202e-002
21130	23.279	0.54545	5.e-002	-3.2441e-006
21131	23.279	0.81818	0.	8.3499e-002
21132	23.369	0.72727	0.	7.6635e-002
21133	23.279	0.72727	5.e-002	-8.0304e-007
21134	23.279	1.	0.	9.8369e-002
21135	23.369	0.90909	0.	9.7221e-002
21136	23.279	0.90909	5.e-002	2.4247e-006
21137	23.279	1.1818	0.	0.10748
21138	23.369	1.0909	0.	0.1086
21139	23.279	1.0909	5.e-002	5.527e-006
21140	23.279	1.3636	0.	0.11381
21141	23.369	1.2727	0.	0.11665
21142	23.279	1.2727	5.e-002	7.5583e-006
21143	23.279	1.5455	0.	0.11822
21144	23.369	1.4545	0.	0.12213
21145	23.279	1.4545	5.e-002	6.7315e-006
21146	23.279	1.7273	0.	0.12139
21147	23.369	1.6364	0.	0.12607
21148	23.279	1.6364	5.e-002	6.9306e-006
21149	23.279	1.9091	0.	0.12369
21150	23.369	1.8182	0.	0.12892
21151	23.279	1.8182	5.e-002	4.1351e-006
21152	23.279	2.0909	0.	0.12536
21153	23.369	2.	0.	0.13101
21154	23.279	2.	5.e-002	5.1483e-006
21155	23.279	2.2727	0.	0.12656
21156	23.369	2.1818	0.	0.13252
21157	23.279	2.1818	5.e-002	6.1645e-006
21158	23.279	2.4545	0.	0.12741
21159	23.369	2.3636	0.	0.13361
21160	23.279	2.3636	5.e-002	8.1583e-006
21161	23.279	2.6364	0.	0.12797
21162	23.369	2.5455	0.	0.13436
21163	23.279	2.5455	5.e-002	8.277e-006
21164	23.279	2.8182	0.	0.12829
21165	23.369	2.7273	0.	0.13483
21166	23.279	2.7273	5.e-002	6.4859e-006
21167	23.279	3.	0.	0.12839
21168	23.369	2.9091	0.	0.13506
21169	23.279	2.9091	5.e-002	8.5167e-006
21170	23.279	3.1818	0.	0.12829
21171	23.369	3.0909	0.	0.13506
21172	23.279	3.0909	5.e-002	7.6974e-006
21173	23.279	3.3636	0.	0.12797
21174	23.369	3.2727	0.	0.13483
21175	23.279	3.2727	5.e-002	9.737e-006
21176	23.279	3.5455	0.	0.12741
21177	23.369	3.4545	0.	0.13436
21178	23.279	3.4545	5.e-002	9.868e-006
21179	23.279	3.7273	0.	0.12656
21180	23.369	3.6364	0.	0.13361
21181	23.279	3.6364	5.e-002	9.9959e-006
21182	23.279	3.9091	0.	0.12536
21183	23.369	3.8182	0.	0.13252
21184	23.279	3.8182	5.e-002	1.3024e-005
21185	23.279	4.0909	0.	0.12369
21186	23.369	4.	0.	0.13101
21187	23.279	4.	5.e-002	1.1219e-005
21188	23.279	4.2727	0.	0.12139
21189	23.369	4.1818	0.	0.12892
21190	23.279	4.1818	5.e-002	1.0396e-005
21191	23.279	4.4545	0.	0.11822
21192	23.369	4.3636	0.	0.12607
21193	23.279	4.3636	5.e-002	1.3302e-005
21194	23.279	4.6364	0.	0.11381
21195	23.369	4.5455	0.	0.12213
21196	23.279	4.5455	5.e-002	1.1433e-005
21197	23.279	4.8182	0.	0.10748
21198	23.369	4.7273	0.	0.11665
21199	23.279	4.7273	5.e-002	1.325e-005
21200	23.279	5.	0.	9.8368e-002
21201	23.369	4.9091	0.	0.1086
21202	23.279	4.9091	5.e-002	1.3029e-005
21203	23.279	5.1818	0.	8.3496e-002
21204	23.369	5.0909	0.	9.7222e-002
21205	23.279	5.0909	5.e-002	1.0238e-005
21206	23.279	5.3636	0.	6.32e-002
21207	23.369	5.2727	0.	7.6632e-002
21208	23.279	5.2727	5.e-002	1.0022e-005
21209	23.279	5.5455	0.	5.7204e-003
21210	23.369	5.4545	0.	5.2025e-002
21211	23.279	5.4545	5.e-002	9.2273e-006
21212	23.279	5.7273	0.	-6.4271e-002
21213	23.369	5.6364	0.	-5.0727e-002
21214	23.279	5.6364	5.e-002	8.7681e-006
21215	23.369	5.8182	0.	-9.1487e-002
21216	23.279	5.8182	5.e-002	5.4971e-006
21217	23.279	5.9091	0.	5.2263e-002
21218	23.459	0.27273	0.	-8.384e-002
21219	23.549	0.18182	0.	-9.6666e-002
21220	23.459	0.18182	5.e-002	9.4026e-006
21221	23.459	9.0909e-002	0.	6.8968e-002
21222	23.459	0.45455	0.	6.6018e-003
21223	23.549	0.36364	0.	-2.672e-003
21224	23.459	0.36364	5.e-002	7.5537e-006
21225	23.459	0.63636	0.	7.3535e-002
21226	23.549	0.54545	0.	0.13023
21227	23.459	0.54545	5.e-002	1.087e-006
21228	23.459	0.81818	0.	9.7099e-002
21229	23.549	0.72727	0.	0.15888
21230	23.459	0.72727	5.e-002	-1.746e-006
21231	23.459	1.	0.	0.1137
21232	23.549	0.90909	0.	0.18355
21233	23.459	0.90909	5.e-002	-4.0711e-008
21234	23.459	1.1818	0.	0.12384
21235	23.549	1.0909	0.	0.19697
21236	23.459	1.0909	5.e-002	9.5519e-007
21237	23.459	1.3636	0.	0.13098
21238	23.549	1.2727	0.	0.20654
21239	23.459	1.2727	5.e-002	2.8115e-006
21240	23.459	1.5455	0.	0.13598
21241	23.549	1.4545	0.	0.21308
21242	23.459	1.4545	5.e-002	3.2677e-006
21243	23.459	1.7273	0.	0.13962
21244	23.549	1.6364	0.	0.21779
21245	23.459	1.6364	5.e-002	2.5577e-006
21246	23.459	1.9091	0.	0.14228
21247	23.549	1.8182	0.	0.22119
21248	23.459	1.8182	5.e-002	3.7171e-006
21249	23.459	2.0909	0.	0.14423
21250	23.549	2.	0.	0.22367
21251	23.459	2.	5.e-002	3.8704e-006
21252	23.459	2.2727	0.	0.14564
21253	23.549	2.1818	0.	0.22547
21254	23.459	2.1818	5.e-002	4.9713e-006
21255	23.459	2.4545	0.	0.14665
21256	23.549	2.3636	0.	0.22675
21257	23.459	2.3636	5.e-002	7.038e-006
21258	23.459	2.6364	0.	0.14731
21259	23.549	2.5455	0.	0.22762
21260	23.459	2.5455	5.e-002	6.2583e-006
21261	23.459	2.8182	0.	0.14769
21262	23.549	2.7273	0.	0.22817
21263	23.459	2.7273	5.e-002	5.4658e-006
21264	23.459	3.	0.	0.14782
21265	23.549	2.9091	0.	0.22843
21266	23.459	2.9091	5.e-002	7.5416e-006
21267	23.459	3.1818	0.	0.14769
21268	23.549	3.0909	0.	0.22843
21269	23.459	3.0909	5.e-002	6.7647e-006
21270	23.459	3.3636	0.	0.14731
21271	23.549	3.2727	0.	0.22817
21272	23.459	3.2727	5.e-002	7.8953e-006
21273	23.459	3.5455	0.	0.14665
21274	23.549	3.4545	0.	0.22762
21275	23.459	3.4545	5.e-002	9.0261e-006
21276	23.459	3.7273	0.	0.14564
21277	23.549	3.6364	0.	0.22675
21278	23.459	3.6364	5.e-002	1.1115e-005
21279	23.459	3.9091	0.	0.14423
21280	23.549	3.8182	0.	0.22547
21281	23.459	3.8182	5.e-002	1.1338e-005
21282	23.459	4.0909	0.	0.14228
21283	23.549	4.	0.	0.22367
21284	23.459	4.	5.e-002	1.1499e-005
21285	23.459	4.2727	0.	0.13962
21286	23.549	4.1818	0.	0.22119
21287	23.459	4.1818	5.e-002	1.0707e-005
21288	23.459	4.4545	0.	0.13598
21289	23.549	4.3636	0.	0.21779
21290	23.459	4.3636	5.e-002	1.3721e-005
21291	23.459	4.6364	0.	0.13098
21292	23.549	4.5455	0.	0.21308
21293	23.459	4.5455	5.e-002	1.1916e-005
21294	23.459	4.8182	0.	0.12384
21295	23.549	4.7273	0.	0.20654
21296	23.459	4.7273	5.e-002	1.3864e-005
21297	23.459	5.	0.	0.1137
21298	23.549	4.9091	0.	0.19697
21299	23.459	4.9091	5.e-002	1.2822e-005
21300	23.459	5.1818	0.	9.7099e-002
21301	23.549	5.0909	0.	0.18355
21302	23.459	5.0909	5.e-002	9.1946e-006
21303	23.459	5.3636	0.	7.3536e-002
21304	23.549	5.2727	0.	0.15888
21305	23.459	5.2727	5.e-002	1.0792e-005
21306	23.459	5.5455	0.	6.6034e-003
21307	23.549	5.4545	0.	0.13024
21308	23.459	5.4545	5.e-002	9.9732e-006
21309	23.459	5.7273	0.	-8.3839e-002
21310	23.549	5.6364	0.	-2.6702e-003
21311	23.459	5.6364	5.e-002	8.9581e-006
21312	23.549	5.8182	0.	-9.6665e-002
21313	23.459	5.8182	5.e-002	5.3714e-006
21314	23.459	5.9091	0.	6.8968e-002
21315	23.639	0.27273	0.	-8.1163e-003
21316	23.729	0.18182	0.	-0.26846
21317	23.639	0.18182	5.e-002	-3.0039e-006
21318	23.639	9.0909e-002	0.	0.17843
21319	23.639	0.45455	0.	0.14222
21320	23.729	0.36364	0.	-8.8377e-002
21321	23.639	0.36364	5.e-002	-5.4055e-006
21322	23.639	0.63636	0.	0.23299
21323	23.729	0.54545	0.	9.8194e-002
21324	23.639	0.54545	5.e-002	-3.2349e-006
21325	23.639	0.81818	0.	0.2616
21326	23.729	0.72727	0.	0.13448
21327	23.639	0.72727	5.e-002	-1.476e-006
21328	23.639	1.	0.	0.28288
21329	23.729	0.90909	0.	0.1681
21330	23.639	0.90909	5.e-002	-1.2688e-006
21331	23.639	1.1818	0.	0.29581
21332	23.729	1.0909	0.	0.18685
21333	23.639	1.0909	5.e-002	7.199e-007
21334	23.639	1.3636	0.	0.30493
21335	23.729	1.2727	0.	0.20049
21336	23.639	1.2727	5.e-002	-1.3961e-006
21337	23.639	1.5455	0.	0.31131
21338	23.729	1.4545	0.	0.21002
21339	23.639	1.4545	5.e-002	5.6656e-007
21340	23.639	1.7273	0.	0.31591
21341	23.729	1.6364	0.	0.21699
21342	23.639	1.6364	5.e-002	7.5726e-007
21343	23.639	1.9091	0.	0.31924
21344	23.729	1.8182	0.	0.2221
21345	23.639	1.8182	5.e-002	9.4468e-007
21346	23.639	2.0909	0.	0.32165
21347	23.729	2.	0.	0.22586
21348	23.639	2.	5.e-002	-8.0002e-007
21349	23.639	2.2727	0.	0.32337
21350	23.729	2.1818	0.	0.22862
21351	23.639	2.1818	5.e-002	2.2172e-006
21352	23.639	2.4545	0.	0.32457
21353	23.729	2.3636	0.	0.23059
21354	23.639	2.3636	5.e-002	1.396e-006
21355	23.639	2.6364	0.	0.32535
21356	23.729	2.5455	0.	0.23195
21357	23.639	2.5455	5.e-002	4.4056e-006
21358	23.639	2.8182	0.	0.3258
21359	23.729	2.7273	0.	0.23279
21360	23.639	2.7273	5.e-002	1.6886e-006
21361	23.639	3.	0.	0.32594
21362	23.729	2.9091	0.	0.2332
21363	23.639	2.9091	5.e-002	3.7394e-006
21364	23.639	3.1818	0.	0.3258
21365	23.729	3.0909	0.	0.2332
21366	23.639	3.0909	5.e-002	2.9377e-006
21367	23.639	3.3636	0.	0.32535
21368	23.729	3.2727	0.	0.23279
21369	23.639	3.2727	5.e-002	6.8977e-006
21370	23.639	3.5455	0.	0.32457
21371	23.729	3.4545	0.	0.23195
21372	23.639	3.4545	5.e-002	6.0776e-006
21373	23.639	3.7273	0.	0.32337
21374	23.729	3.6364	0.	0.23059
21375	23.639	3.6364	5.e-002	9.0884e-006
21376	23.639	3.9091	0.	0.32165
21377	23.729	3.8182	0.	0.22862
21378	23.639	3.8182	5.e-002	9.2731e-006
21379	23.639	4.0909	0.	0.31924
21380	23.729	4.	0.	0.22586
21381	23.639	4.	5.e-002	1.0334e-005
21382	23.639	4.2727	0.	0.31591
21383	23.729	4.1818	0.	0.2221
21384	23.639	4.1818	5.e-002	9.5216e-006
21385	23.639	4.4545	0.	0.31131
21386	23.729	4.3636	0.	0.21699
21387	23.639	4.3636	5.e-002	1.1548e-005
21388	23.639	4.6364	0.	0.30493
21389	23.729	4.5455	0.	0.21002
21390	23.639	4.5455	5.e-002	9.6594e-006
21391	23.639	4.8182	0.	0.29581
21392	23.729	4.7273	0.	0.20049
21393	23.639	4.7273	5.e-002	1.0582e-005
21394	23.639	5.	0.	0.28288
21395	23.729	4.9091	0.	0.18685
21396	23.639	4.9091	5.e-002	1.1444e-005
21397	23.639	5.1818	0.	0.2616
21398	23.729	5.0909	0.	0.1681
21399	23.639	5.0909	5.e-002	1.0552e-005
21400	23.639	5.3636	0.	0.23299
21401	23.729	5.2727	0.	0.13448
21402	23.639	5.2727	5.e-002	9.9863e-006
21403	23.639	5.5455	0.	0.14222
21404	23.729	5.4545	0.	9.8193e-002
21405	23.639	5.4545	5.e-002	7.5427e-006
21406	23.639	5.7273	0.	-8.1138e-003
21407	23.729	5.6364	0.	-8.8375e-002
21408	23.639	5.6364	5.e-002	6.6932e-006
21409	23.729	5.8182	0.	-0.26846
21410	23.639	5.8182	5.e-002	1.2838e-006
21411	23.639	5.9091	0.	0.17844
21412	23.82	0.27273	0.	-0.29295
21413	23.82	0.18182	5.e-002	9.8667e-007
21414	23.82	9.0909e-002	0.	-2.0373e-003
21415	23.91	0.18182	0.	3.7961e-002
21416	23.82	0.45455	0.	-6.208e-002
21417	23.82	0.36364	5.e-002	-6.1816e-006
21418	23.91	0.36364	0.	0.23307
21419	23.82	0.63636	0.	6.972e-002
21420	23.82	0.54545	5.e-002	-6.5831e-006
21421	23.91	0.54545	0.	0.40456
21422	23.82	0.81818	0.	0.11344
21423	23.82	0.72727	5.e-002	-3.6231e-006
21424	23.91	0.72727	0.	0.41511
21425	23.82	1.	0.	0.14723
21426	23.82	0.90909	5.e-002	8.7824e-008
21427	23.91	0.90909	0.	0.43485
21428	23.82	1.1818	0.	0.16902
21429	23.82	1.0909	5.e-002	3.5513e-006
21430	23.91	1.0909	0.	0.44307
21431	23.82	1.3636	0.	0.18499
21432	23.82	1.2727	5.e-002	2.2177e-006
21433	23.91	1.2727	0.	0.44942
21434	23.82	1.5455	0.	0.19663
21435	23.82	1.4545	5.e-002	1.4413e-006
21436	23.91	1.4545	0.	0.4535
21437	23.82	1.7273	0.	0.20531
21438	23.82	1.6364	5.e-002	2.5152e-006
21439	23.91	1.6364	0.	0.45642
21440	23.82	1.9091	0.	0.21179
21441	23.82	1.8182	5.e-002	2.6981e-006
21442	23.91	1.8182	0.	0.45848
21443	23.82	2.0909	0.	0.21661
21444	23.82	2.	5.e-002	3.8119e-006
21445	23.91	2.	0.	0.45997
21446	23.82	2.2727	0.	0.22015
21447	23.82	2.1818	5.e-002	3.0505e-006
21448	23.91	2.1818	0.	0.46103
21449	23.82	2.4545	0.	0.22266
21450	23.82	2.3636	5.e-002	8.9231e-006
21451	23.91	2.3636	0.	0.46178
21452	23.82	2.6364	0.	0.22434
21453	23.82	2.5455	5.e-002	5.299e-006
21454	23.91	2.5455	0.	0.46229
21455	23.82	2.8182	0.	0.2253
21456	23.82	2.7273	5.e-002	5.4711e-006
21457	23.91	2.7273	0.	0.46261
21458	23.82	3.	0.	0.22561
21459	23.82	2.9091	5.e-002	3.7272e-006
21460	23.91	2.9091	0.	0.46276
21461	23.82	3.1818	0.	0.2253
21462	23.82	3.0909	5.e-002	3.9045e-006
21463	23.91	3.0909	0.	0.46276
21464	23.82	3.3636	0.	0.22434
21465	23.82	3.2727	5.e-002	1.1695e-005
21466	23.91	3.2727	0.	0.46261
21467	23.82	3.5455	0.	0.22266
21468	23.82	3.4545	5.e-002	9.9358e-006
21469	23.91	3.4545	0.	0.46229
21470	23.82	3.7273	0.	0.22015
21471	23.82	3.6364	5.e-002	1.2017e-005
21472	23.91	3.6364	0.	0.46178
21473	23.82	3.9091	0.	0.21661
21474	23.82	3.8182	5.e-002	1.222e-005
21475	23.91	3.8182	0.	0.46103
21476	23.82	4.0909	0.	0.21179
21477	23.82	4.	5.e-002	1.3318e-005
21478	23.91	4.	0.	0.45997
21479	23.82	4.2727	0.	0.20531
21480	23.82	4.1818	5.e-002	1.4412e-005
21481	23.91	4.1818	0.	0.45848
21482	23.82	4.4545	0.	0.19663
21483	23.82	4.3636	5.e-002	1.5433e-005
21484	23.91	4.3636	0.	0.45642
21485	23.82	4.6364	0.	0.18499
21486	23.82	4.5455	5.e-002	1.5521e-005
21487	23.91	4.5455	0.	0.4535
21488	23.82	4.8182	0.	0.16902
21489	23.82	4.7273	5.e-002	1.6396e-005
21490	23.91	4.7273	0.	0.44942
21491	23.82	5.	0.	0.14722
21492	23.82	4.9091	5.e-002	1.6212e-005
21493	23.91	4.9091	0.	0.44307
21494	23.82	5.1818	0.	0.11344
21495	23.82	5.0909	5.e-002	1.558e-005
21496	23.91	5.0909	0.	0.43485
21497	23.82	5.3636	0.	6.9718e-002
21498	23.82	5.2727	5.e-002	1.4162e-005
21499	23.91	5.2727	0.	0.41511
21500	23.82	5.5455	0.	-6.208e-002
21501	23.82	5.4545	5.e-002	1.2739e-005
21502	23.91	5.4545	0.	0.40456
21503	23.82	5.7273	0.	-0.29295
21504	23.82	5.6364	5.e-002	1.3107e-005
21505	23.91	5.6364	0.	0.23307
21506	23.82	5.8182	5.e-002	7.9506e-006
21507	23.91	5.8182	0.	3.7959e-002
21508	23.82	5.9091	0.	-2.0397e-003
21509	23.82	5.7273	0.1	0.29295
21510	23.729	5.8182	0.1	0.26846
21511	23.82	5.9091	0.1	2.0365e-003
21512	23.91	5.8182	0.1	-3.796e-002
21513	23.82	5.5455	0.1	6.2077e-002
21514	23.729	5.6364	0.1	8.8374e-002
21515	23.91	5.6364	0.1	-0.23307
21516	23.82	5.3636	0.1	-6.972e-002
21517	23.729	5.4545	0.1	-9.8195e-002
21518	23.91	5.4545	0.1	-0.40457
21519	23.82	5.1818	0.1	-0.11344
21520	23.729	5.2727	0.1	-0.13448
21521	23.91	5.2727	0.1	-0.41511
21522	23.82	5.	0.1	-0.14723
21523	23.729	5.0909	0.1	-0.1681
21524	23.91	5.0909	0.1	-0.43485
21525	23.82	4.8182	0.1	-0.16902
21526	23.729	4.9091	0.1	-0.18685
21527	23.91	4.9091	0.1	-0.44307
21528	23.82	4.6364	0.1	-0.18499
21529	23.729	4.7273	0.1	-0.20049
21530	23.91	4.7273	0.1	-0.44942
21531	23.82	4.4545	0.1	-0.19663
21532	23.729	4.5455	0.1	-0.21002
21533	23.91	4.5455	0.1	-0.4535
21534	23.82	4.2727	0.1	-0.20531
21535	23.729	4.3636	0.1	-0.21699
21536	23.91	4.3636	0.1	-0.45642
21537	23.82	4.0909	0.1	-0.21179
21538	23.729	4.1818	0.1	-0.2221
21539	23.91	4.1818	0.1	-0.45848
21540	23.82	3.9091	0.1	-0.21662
21541	23.729	4.	0.1	-0.22587
21542	23.91	4.	0.1	-0.45997
21543	23.82	3.7273	0.1	-0.22015
21544	23.729	3.8182	0.1	-0.22862
21545	23.91	3.8182	0.1	-0.46103
21546	23.82	3.5455	0.1	-0.22267
21547	23.729	3.6364	0.1	-0.23059
21548	23.91	3.6364	0.1	-0.46178
21549	23.82	3.3636	0.1	-0.22434
21550	23.729	3.4545	0.1	-0.23195
21551	23.91	3.4545	0.1	-0.46229
21552	23.82	3.1818	0.1	-0.2253
21553	23.729	3.2727	0.1	-0.2328
21554	23.91	3.2727	0.1	-0.46261
21555	23.82	3.	0.1	-0.22561
21556	23.729	3.0909	0.1	-0.2332
21557	23.91	3.0909	0.1	-0.46276
21558	23.82	2.8182	0.1	-0.2253
21559	23.729	2.9091	0.1	-0.2332
21560	23.91	2.9091	0.1	-0.46276
21561	23.82	2.6364	0.1	-0.22434
21562	23.729	2.7273	0.1	-0.2328
21563	23.91	2.7273	0.1	-0.46261
21564	23.82	2.4545	0.1	-0.22266
21565	23.729	2.5455	0.1	-0.23195
21566	23.91	2.5455	0.1	-0.4623
21567	23.82	2.2727	0.1	-0.22015
21568	23.729	2.3636	0.1	-0.23059
21569	23.91	2.3636	0.1	-0.46178
21570	23.82	2.0909	0.1	-0.21662
21571	23.729	2.1818	0.1	-0.22862
21572	23.91	2.1818	0.1	-0.46103
21573	23.82	1.9091	0.1	-0.21179
21574	23.729	2.	0.1	-0.22587
21575	23.91	2.	0.1	-0.45997
21576	23.82	1.7273	0.1	-0.20531
21577	23.729	1.8182	0.1	-0.2221
21578	23.91	1.8182	0.1	-0.45848
21579	23.82	1.5455	0.1	-0.19663
21580	23.729	1.6364	0.1	-0.21699
21581	23.91	1.6364	0.1	-0.45642
21582	23.82	1.3636	0.1	-0.18499
21583	23.729	1.4545	0.1	-0.21002
21584	23.91	1.4545	0.1	-0.4535
21585	23.82	1.1818	0.1	-0.16902
21586	23.729	1.2727	0.1	-0.20049
21587	23.91	1.2727	0.1	-0.44942
21588	23.82	1.	0.1	-0.14723
21589	23.729	1.0909	0.1	-0.18685
21590	23.91	1.0909	0.1	-0.44307
21591	23.82	0.81818	0.1	-0.11344
21592	23.729	0.90909	0.1	-0.1681
21593	23.91	0.90909	0.1	-0.43485
21594	23.82	0.63636	0.1	-6.9721e-002
21595	23.729	0.72727	0.1	-0.13449
21596	23.91	0.72727	0.1	-0.41511
21597	23.82	0.45455	0.1	6.2078e-002
21598	23.729	0.54545	0.1	-9.8196e-002
21599	23.91	0.54545	0.1	-0.40457
21600	23.82	0.27273	0.1	0.29295
21601	23.729	0.36364	0.1	8.8376e-002
21602	23.91	0.36364	0.1	-0.23307
21603	23.729	0.18182	0.1	0.26846
21604	23.91	0.18182	0.1	-3.7962e-002
21605	23.82	9.0909e-002	0.1	2.041e-003
21606	23.639	5.7273	0.1	8.1141e-003
21607	23.549	5.8182	0.1	9.6665e-002
21608	23.639	5.9091	0.1	-0.17844
21609	23.639	5.5455	0.1	-0.14222
21610	23.549	5.6364	0.1	2.6698e-003
21611	23.639	5.3636	0.1	-0.23299
21612	23.549	5.4545	0.1	-0.13024
21613	23.639	5.1818	0.1	-0.2616
21614	23.549	5.2727	0.1	-0.15888
21615	23.639	5.	0.1	-0.28288
21616	23.549	5.0909	0.1	-0.18355
21617	23.639	4.8182	0.1	-0.29581
21618	23.549	4.9091	0.1	-0.19697
21619	23.639	4.6364	0.1	-0.30493
21620	23.549	4.7273	0.1	-0.20654
21621	23.639	4.4545	0.1	-0.31131
21622	23.549	4.5455	0.1	-0.21308
21623	23.639	4.2727	0.1	-0.31591
21624	23.549	4.3636	0.1	-0.21779
21625	23.639	4.0909	0.1	-0.31924
21626	23.549	4.1818	0.1	-0.22119
21627	23.639	3.9091	0.1	-0.32165
21628	23.549	4.	0.1	-0.22367
21629	23.639	3.7273	0.1	-0.32337
21630	23.549	3.8182	0.1	-0.22547
21631	23.639	3.5455	0.1	-0.32457
21632	23.549	3.6364	0.1	-0.22675
21633	23.639	3.3636	0.1	-0.32535
21634	23.549	3.4545	0.1	-0.22762
21635	23.639	3.1818	0.1	-0.3258
21636	23.549	3.2727	0.1	-0.22817
21637	23.639	3.	0.1	-0.32594
21638	23.549	3.0909	0.1	-0.22843
21639	23.639	2.8182	0.1	-0.3258
21640	23.549	2.9091	0.1	-0.22843
21641	23.639	2.6364	0.1	-0.32535
21642	23.549	2.7273	0.1	-0.22817
21643	23.639	2.4545	0.1	-0.32457
21644	23.549	2.5455	0.1	-0.22762
21645	23.639	2.2727	0.1	-0.32337
21646	23.549	2.3636	0.1	-0.22675
21647	23.639	2.0909	0.1	-0.32165
21648	23.549	2.1818	0.1	-0.22547
21649	23.639	1.9091	0.1	-0.31924
21650	23.549	2.	0.1	-0.22367
21651	23.639	1.7273	0.1	-0.31591
21652	23.549	1.8182	0.1	-0.22119
21653	23.639	1.5455	0.1	-0.31131
21654	23.549	1.6364	0.1	-0.21779
21655	23.639	1.3636	0.1	-0.30493
21656	23.549	1.4545	0.1	-0.21308
21657	23.639	1.1818	0.1	-0.29581
21658	23.549	1.2727	0.1	-0.20654
21659	23.639	1.	0.1	-0.28289
21660	23.549	1.0909	0.1	-0.19697
21661	23.639	0.81818	0.1	-0.2616
21662	23.549	0.90909	0.1	-0.18355
21663	23.639	0.63636	0.1	-0.23299
21664	23.549	0.72727	0.1	-0.15888
21665	23.639	0.45455	0.1	-0.14222
21666	23.549	0.54545	0.1	-0.13023
21667	23.639	0.27273	0.1	8.1152e-003
21668	23.549	0.36364	0.1	2.6714e-003
21669	23.549	0.18182	0.1	9.6666e-002
21670	23.639	9.0909e-002	0.1	-0.17844
21671	23.459	5.7273	0.1	8.3839e-002
21672	23.369	5.8182	0.1	9.1486e-002
21673	23.459	5.9091	0.1	-6.8966e-002
21674	23.459	5.5455	0.1	-6.6025e-003
21675	23.369	5.6364	0.1	5.0726e-002
21676	23.459	5.3636	0.1	-7.3534e-002
21677	23.369	5.4545	0.1	-5.2022e-002
21678	23.459	5.1818	0.1	-9.7099e-002
21679	23.369	5.2727	0.1	-7.6631e-002
21680	23.459	5.	0.1	-0.1137
21681	23.369	5.0909	0.1	-9.7222e-002
21682	23.459	4.8182	0.1	-0.12384
21683	23.369	4.9091	0.1	-0.1086
21684	23.459	4.6364	0.1	-0.13097
21685	23.369	4.7273	0.1	-0.11665
21686	23.459	4.4545	0.1	-0.13598
21687	23.369	4.5455	0.1	-0.12213
21688	23.459	4.2727	0.1	-0.13962
21689	23.369	4.3636	0.1	-0.12607
21690	23.459	4.0909	0.1	-0.14228
21691	23.369	4.1818	0.1	-0.12892
21692	23.459	3.9091	0.1	-0.14423
21693	23.369	4.	0.1	-0.13101
21694	23.459	3.7273	0.1	-0.14564
21695	23.369	3.8182	0.1	-0.13252
21696	23.459	3.5455	0.1	-0.14664
21697	23.369	3.6364	0.1	-0.13361
21698	23.459	3.3636	0.1	-0.14731
21699	23.369	3.4545	0.1	-0.13436
21700	23.459	3.1818	0.1	-0.14769
21701	23.369	3.2727	0.1	-0.13483
21702	23.459	3.	0.1	-0.14781
21703	23.369	3.0909	0.1	-0.13505
21704	23.459	2.8182	0.1	-0.14769
21705	23.369	2.9091	0.1	-0.13505
21706	23.459	2.6364	0.1	-0.14731
21707	23.369	2.7273	0.1	-0.13483
21708	23.459	2.4545	0.1	-0.14664
21709	23.369	2.5455	0.1	-0.13436
21710	23.459	2.2727	0.1	-0.14564
21711	23.369	2.3636	0.1	-0.13361
21712	23.459	2.0909	0.1	-0.14423
21713	23.369	2.1818	0.1	-0.13252
21714	23.459	1.9091	0.1	-0.14228
21715	23.369	2.	0.1	-0.13101
21716	23.459	1.7273	0.1	-0.13962
21717	23.369	1.8182	0.1	-0.12892
21718	23.459	1.5455	0.1	-0.13598
21719	23.369	1.6364	0.1	-0.12607
21720	23.459	1.3636	0.1	-0.13098
21721	23.369	1.4545	0.1	-0.12213
21722	23.459	1.1818	0.1	-0.12384
21723	23.369	1.2727	0.1	-0.11665
21724	23.459	1.	0.1	-0.1137
21725	23.369	1.0909	0.1	-0.1086
21726	23.459	0.81818	0.1	-9.71e-002
21727	23.369	0.90909	0.1	-9.7223e-002
21728	23.459	0.63636	0.1	-7.3535e-002
21729	23.369	0.72727	0.1	-7.6633e-002
21730	23.459	0.45455	0.1	-6.6012e-003
21731	23.369	0.54545	0.1	-5.2021e-002
21732	23.459	0.27273	0.1	8.384e-002
21733	23.369	0.36364	0.1	5.0729e-002
21734	23.369	0.18182	0.1	9.1486e-002
21735	23.459	9.0909e-002	0.1	-6.8967e-002
21736	23.279	5.7273	0.1	6.4271e-002
21737	23.188	5.8182	0.1	6.7076e-002
21738	23.279	5.9091	0.1	-5.2262e-002
21739	23.279	5.5455	0.1	-5.7194e-003
21740	23.188	5.6364	0.1	4.9007e-002
21741	23.279	5.3636	0.1	-6.3199e-002
21742	23.188	5.4545	0.1	-3.7886e-002
21743	23.279	5.1818	0.1	-8.3496e-002
21744	23.188	5.2727	0.1	-5.8924e-002
21745	23.279	5.	0.1	-9.8368e-002
21746	23.188	5.0909	0.1	-7.7363e-002
21747	23.279	4.8182	0.1	-0.10747
21748	23.188	4.9091	0.1	-8.7732e-002
21749	23.279	4.6364	0.1	-0.11381
21750	23.188	4.7273	0.1	-9.5012e-002
21751	23.279	4.4545	0.1	-0.11822
21752	23.188	4.5455	0.1	-9.9949e-002
21753	23.279	4.2727	0.1	-0.12139
21754	23.188	4.3636	0.1	-0.10347
21755	23.279	4.0909	0.1	-0.12369
21756	23.188	4.1818	0.1	-0.10599
21757	23.279	3.9091	0.1	-0.12536
21758	23.188	4.	0.1	-0.10782
21759	23.279	3.7273	0.1	-0.12656
21760	23.188	3.8182	0.1	-0.10914
21761	23.279	3.5455	0.1	-0.12741
21762	23.188	3.6364	0.1	-0.11008
21763	23.279	3.3636	0.1	-0.12797
21764	23.188	3.4545	0.1	-0.11072
21765	23.279	3.1818	0.1	-0.12829
21766	23.188	3.2727	0.1	-0.11113
21767	23.279	3.	0.1	-0.12839
21768	23.188	3.0909	0.1	-0.11132
21769	23.279	2.8182	0.1	-0.12829
21770	23.188	2.9091	0.1	-0.11132
21771	23.279	2.6364	0.1	-0.12797
21772	23.188	2.7273	0.1	-0.11113
21773	23.279	2.4545	0.1	-0.12741
21774	23.188	2.5455	0.1	-0.11072
21775	23.279	2.2727	0.1	-0.12656
21776	23.188	2.3636	0.1	-0.11008
21777	23.279	2.0909	0.1	-0.12536
21778	23.188	2.1818	0.1	-0.10914
21779	23.279	1.9091	0.1	-0.12369
21780	23.188	2.	0.1	-0.10782
21781	23.279	1.7273	0.1	-0.12139
21782	23.188	1.8182	0.1	-0.10599
21783	23.279	1.5455	0.1	-0.11822
21784	23.188	1.6364	0.1	-0.10347
21785	23.279	1.3636	0.1	-0.11381
21786	23.188	1.4545	0.1	-9.995e-002
21787	23.279	1.1818	0.1	-0.10748
21788	23.188	1.2727	0.1	-9.5012e-002
21789	23.279	1.	0.1	-9.8368e-002
21790	23.188	1.0909	0.1	-8.7732e-002
21791	23.279	0.81818	0.1	-8.3497e-002
21792	23.188	0.90909	0.1	-7.7363e-002
21793	23.279	0.63636	0.1	-6.3199e-002
21794	23.188	0.72727	0.1	-5.8926e-002
21795	23.279	0.45455	0.1	-5.7163e-003
21796	23.188	0.54545	0.1	-3.7883e-002
21797	23.279	0.27273	0.1	6.4272e-002
21798	23.188	0.36364	0.1	4.9008e-002
21799	23.188	0.18182	0.1	6.7075e-002
21800	23.279	9.0909e-002	0.1	-5.2262e-002
21801	23.098	5.7273	0.1	6.2103e-002
21802	23.008	5.8182	0.1	5.3745e-002
21803	23.098	5.9091	0.1	-3.1419e-002
21804	23.098	5.5455	0.1	9.9841e-003
21805	23.008	5.6364	0.1	5.0365e-002
21806	23.098	5.3636	0.1	-3.8534e-002
21807	23.008	5.4545	0.1	-2.251e-002
21808	23.098	5.1818	0.1	-5.6563e-002
21809	23.008	5.2727	0.1	-4.101e-002
21810	23.098	5.	0.1	-6.9986e-002
21811	23.008	5.0909	0.1	-5.7592e-002
21812	23.098	4.8182	0.1	-7.8295e-002
21813	23.008	4.9091	0.1	-6.7133e-002
21814	23.098	4.6364	0.1	-8.407e-002
21815	23.008	4.7273	0.1	-7.3849e-002
21816	23.098	4.4545	0.1	-8.8066e-002
21817	23.008	4.5455	0.1	-7.8399e-002
21818	23.098	4.2727	0.1	-9.0917e-002
21819	23.008	4.3636	0.1	-8.1616e-002
21820	23.098	4.0909	0.1	-9.2965e-002
21821	23.008	4.1818	0.1	-8.3905e-002
21822	23.098	3.9091	0.1	-9.4442e-002
21823	23.008	4.	0.1	-8.5544e-002
21824	23.098	3.7273	0.1	-9.5499e-002
21825	23.008	3.8182	0.1	-8.6719e-002
21826	23.098	3.5455	0.1	-9.6238e-002
21827	23.008	3.6364	0.1	-8.7547e-002
21828	23.098	3.3636	0.1	-9.6725e-002
21829	23.008	3.4545	0.1	-8.8111e-002
21830	23.098	3.1818	0.1	-9.7001e-002
21831	23.008	3.2727	0.1	-8.8459e-002
21832	23.098	3.	0.1	-9.7091e-002
21833	23.008	3.0909	0.1	-8.8627e-002
21834	23.098	2.8182	0.1	-9.7002e-002
21835	23.008	2.9091	0.1	-8.8627e-002
21836	23.098	2.6364	0.1	-9.6726e-002
21837	23.008	2.7273	0.1	-8.846e-002
21838	23.098	2.4545	0.1	-9.6239e-002
21839	23.008	2.5455	0.1	-8.8111e-002
21840	23.098	2.2727	0.1	-9.55e-002
21841	23.008	2.3636	0.1	-8.7548e-002
21842	23.098	2.0909	0.1	-9.4443e-002
21843	23.008	2.1818	0.1	-8.6719e-002
21844	23.098	1.9091	0.1	-9.2965e-002
21845	23.008	2.	0.1	-8.5546e-002
21846	23.098	1.7273	0.1	-9.0917e-002
21847	23.008	1.8182	0.1	-8.3903e-002
21848	23.098	1.5455	0.1	-8.8067e-002
21849	23.008	1.6364	0.1	-8.1616e-002
21850	23.098	1.3636	0.1	-8.407e-002
21851	23.008	1.4545	0.1	-7.8399e-002
21852	23.098	1.1818	0.1	-7.8296e-002
21853	23.008	1.2727	0.1	-7.385e-002
21854	23.098	1.	0.1	-6.9987e-002
21855	23.008	1.0909	0.1	-6.7133e-002
21856	23.098	0.81818	0.1	-5.6564e-002
21857	23.008	0.90909	0.1	-5.7594e-002
21858	23.098	0.63636	0.1	-3.8534e-002
21859	23.008	0.72727	0.1	-4.1012e-002
21860	23.098	0.45455	0.1	9.9843e-003
21861	23.008	0.54545	0.1	-2.2509e-002
21862	23.098	0.27273	0.1	6.2103e-002
21863	23.008	0.36364	0.1	5.0366e-002
21864	23.008	0.18182	0.1	5.3746e-002
21865	23.098	9.0909e-002	0.1	-3.1421e-002
21866	22.918	5.7273	0.1	5.3559e-002
21867	22.828	5.8182	0.1	4.1936e-002
21868	22.918	5.9091	0.1	-2.2165e-002
21869	22.918	5.5455	0.1	1.3269e-002
21870	22.828	5.6364	0.1	4.676e-002
21871	22.918	5.3636	0.1	-2.8399e-002
21872	22.828	5.4545	0.1	-1.5119e-002
21873	22.918	5.1818	0.1	-4.4538e-002
21874	22.828	5.2727	0.1	-3.1444e-002
21875	22.918	5.	0.1	-5.6779e-002
21876	22.828	5.0909	0.1	-4.6403e-002
21877	22.918	4.8182	0.1	-6.4495e-002
21878	22.828	4.9091	0.1	-5.5248e-002
21879	22.918	4.6364	0.1	-6.9867e-002
21880	22.828	4.7273	0.1	-6.1512e-002
21881	22.918	4.4545	0.1	-7.3573e-002
21882	22.828	4.5455	0.1	-6.5764e-002
21883	22.918	4.2727	0.1	-7.6194e-002
21884	22.828	4.3636	0.1	-6.8752e-002
21885	22.918	4.0909	0.1	-7.8056e-002
21886	22.828	4.1818	0.1	-7.0858e-002
21887	22.918	3.9091	0.1	-7.9385e-002
21888	22.828	4.	0.1	-7.235e-002
21889	22.918	3.7273	0.1	-8.0325e-002
21890	22.828	3.8182	0.1	-7.3407e-002
21891	22.918	3.5455	0.1	-8.0975e-002
21892	22.828	3.6364	0.1	-7.4141e-002
21893	22.918	3.3636	0.1	-8.1399e-002
21894	22.828	3.4545	0.1	-7.4636e-002
21895	22.918	3.1818	0.1	-8.1638e-002
21896	22.828	3.2727	0.1	-7.494e-002
21897	22.918	3.	0.1	-8.1716e-002
21898	22.828	3.0909	0.1	-7.5084e-002
21899	22.918	2.8182	0.1	-8.1639e-002
21900	22.828	2.9091	0.1	-7.5085e-002
21901	22.918	2.6364	0.1	-8.1399e-002
21902	22.828	2.7273	0.1	-7.494e-002
21903	22.918	2.4545	0.1	-8.0975e-002
21904	22.828	2.5455	0.1	-7.4636e-002
21905	22.918	2.2727	0.1	-8.0325e-002
21906	22.828	2.3636	0.1	-7.4142e-002
21907	22.918	2.0909	0.1	-7.9385e-002
21908	22.828	2.1818	0.1	-7.3406e-002
21909	22.918	1.9091	0.1	-7.8057e-002
21910	22.828	2.	0.1	-7.2351e-002
21911	22.918	1.7273	0.1	-7.6194e-002
21912	22.828	1.8182	0.1	-7.0857e-002
21913	22.918	1.5455	0.1	-7.3573e-002
21914	22.828	1.6364	0.1	-6.8752e-002
21915	22.918	1.3636	0.1	-6.9867e-002
21916	22.828	1.4545	0.1	-6.5764e-002
21917	22.918	1.1818	0.1	-6.4495e-002
21918	22.828	1.2727	0.1	-6.1513e-002
21919	22.918	1.	0.1	-5.678e-002
21920	22.828	1.0909	0.1	-5.5249e-002
21921	22.918	0.81818	0.1	-4.454e-002
21922	22.828	0.90909	0.1	-4.6405e-002
21923	22.918	0.63636	0.1	-2.84e-002
21924	22.828	0.72727	0.1	-3.1445e-002
21925	22.918	0.45455	0.1	1.327e-002
21926	22.828	0.54545	0.1	-1.512e-002
21927	22.918	0.27273	0.1	5.3561e-002
21928	22.828	0.36364	0.1	4.6763e-002
21929	22.828	0.18182	0.1	4.1939e-002
21930	22.918	9.0909e-002	0.1	-2.2163e-002
21931	22.738	5.7273	0.1	4.6639e-002
21932	22.647	5.8182	0.1	3.3077e-002
21933	22.738	5.9091	0.1	-1.5629e-002
21934	22.738	5.5455	0.1	1.5185e-002
21935	22.647	5.6364	0.1	4.255e-002
21936	22.738	5.3636	0.1	-2.0683e-002
21937	22.647	5.4545	0.1	-1.0192e-002
21938	22.738	5.1818	0.1	-3.5125e-002
21939	22.647	5.2727	0.1	-2.4615e-002
21940	22.738	5.	0.1	-4.6301e-002
21941	22.647	5.0909	0.1	-3.8119e-002
21942	22.738	4.8182	0.1	-5.3481e-002
21943	22.647	4.9091	0.1	-4.6312e-002
21944	22.738	4.6364	0.1	-5.8507e-002
21945	22.647	4.7273	0.1	-5.2162e-002
21946	22.738	4.4545	0.1	-6.1973e-002
21947	22.647	4.5455	0.1	-5.6151e-002
21948	22.738	4.2727	0.1	-6.4407e-002
21949	22.647	4.3636	0.1	-5.8944e-002
21950	22.738	4.0909	0.1	-6.6122e-002
21951	22.647	4.1818	0.1	-6.0897e-002
21952	22.738	3.9091	0.1	-6.7328e-002
21953	22.647	4.	0.1	-6.2265e-002
21954	22.738	3.7273	0.1	-6.817e-002
21955	22.647	3.8182	0.1	-6.3217e-002
21956	22.738	3.5455	0.1	-6.8745e-002
21957	22.647	3.6364	0.1	-6.3872e-002
21958	22.738	3.3636	0.1	-6.9116e-002
21959	22.647	3.4545	0.1	-6.4306e-002
21960	22.738	3.1818	0.1	-6.9324e-002
21961	22.647	3.2727	0.1	-6.457e-002
21962	22.738	3.	0.1	-6.9391e-002
21963	22.647	3.0909	0.1	-6.4694e-002
21964	22.738	2.8182	0.1	-6.9324e-002
21965	22.647	2.9091	0.1	-6.4695e-002
21966	22.738	2.6364	0.1	-6.9117e-002
21967	22.647	2.7273	0.1	-6.457e-002
21968	22.738	2.4545	0.1	-6.8746e-002
21969	22.647	2.5455	0.1	-6.4306e-002
21970	22.738	2.2727	0.1	-6.8171e-002
21971	22.647	2.3636	0.1	-6.3872e-002
21972	22.738	2.0909	0.1	-6.7328e-002
21973	22.647	2.1818	0.1	-6.3218e-002
21974	22.738	1.9091	0.1	-6.6121e-002
21975	22.647	2.	0.1	-6.2265e-002
21976	22.738	1.7273	0.1	-6.4408e-002
21977	22.647	1.8182	0.1	-6.0896e-002
21978	22.738	1.5455	0.1	-6.1973e-002
21979	22.647	1.6364	0.1	-5.8944e-002
21980	22.738	1.3636	0.1	-5.8506e-002
21981	22.647	1.4545	0.1	-5.6151e-002
21982	22.738	1.1818	0.1	-5.3482e-002
21983	22.647	1.2727	0.1	-5.2163e-002
21984	22.738	1.	0.1	-4.6302e-002
21985	22.647	1.0909	0.1	-4.6313e-002
21986	22.738	0.81818	0.1	-3.5126e-002
21987	22.647	0.90909	0.1	-3.8119e-002
21988	22.738	0.63636	0.1	-2.0683e-002
21989	22.647	0.72727	0.1	-2.4615e-002
21990	22.738	0.45455	0.1	1.5186e-002
21991	22.647	0.54545	0.1	-1.0193e-002
21992	22.738	0.27273	0.1	4.6642e-002
21993	22.647	0.36364	0.1	4.2553e-002
21994	22.647	0.18182	0.1	3.3079e-002
21995	22.738	9.0909e-002	0.1	-1.5631e-002
21996	22.557	5.7273	0.1	3.9864e-002
21997	22.467	5.8182	0.1	2.5956e-002
21998	22.557	5.9091	0.1	-1.168e-002
21999	22.557	5.5455	0.1	1.4946e-002
22000	22.467	5.6364	0.1	3.7673e-002
22001	22.557	5.3636	0.1	-1.6043e-002
22002	22.467	5.4545	0.1	-7.3929e-003
22003	22.557	5.1818	0.1	-2.8998e-002
22004	22.467	5.2727	0.1	-2.0192e-002
22005	22.557	5.	0.1	-3.92e-002
22006	22.467	5.0909	0.1	-3.2377e-002
22007	22.557	4.8182	0.1	-4.5877e-002
22008	22.467	4.9091	0.1	-3.9956e-002
22009	22.557	4.6364	0.1	-5.0581e-002
22010	22.467	4.7273	0.1	-4.5411e-002
22011	22.557	4.4545	0.1	-5.3832e-002
22012	22.467	4.5455	0.1	-4.9151e-002
22013	22.557	4.2727	0.1	-5.6103e-002
22014	22.467	4.3636	0.1	-5.1762e-002
22015	22.557	4.0909	0.1	-5.7685e-002
22016	22.467	4.1818	0.1	-5.3572e-002
22017	22.557	3.9091	0.1	-5.8783e-002
22018	22.467	4.	0.1	-5.4824e-002
22019	22.557	3.7273	0.1	-5.9539e-002
22020	22.467	3.8182	0.1	-5.5683e-002
22021	22.557	3.5455	0.1	-6.0047e-002
22022	22.467	3.6364	0.1	-5.6264e-002
22023	22.557	3.3636	0.1	-6.037e-002
22024	22.467	3.4545	0.1	-5.6642e-002
22025	22.557	3.1818	0.1	-6.0548e-002
22026	22.467	3.2727	0.1	-5.6869e-002
22027	22.557	3.	0.1	-6.0605e-002
22028	22.467	3.0909	0.1	-5.6976e-002
22029	22.557	2.8182	0.1	-6.0548e-002
22030	22.467	2.9091	0.1	-5.6976e-002
22031	22.557	2.6364	0.1	-6.0369e-002
22032	22.467	2.7273	0.1	-5.6869e-002
22033	22.557	2.4545	0.1	-6.0045e-002
22034	22.467	2.5455	0.1	-5.6642e-002
22035	22.557	2.2727	0.1	-5.9538e-002
22036	22.467	2.3636	0.1	-5.6263e-002
22037	22.557	2.0909	0.1	-5.8783e-002
22038	22.467	2.1818	0.1	-5.5682e-002
22039	22.557	1.9091	0.1	-5.7684e-002
22040	22.467	2.	0.1	-5.4825e-002
22041	22.557	1.7273	0.1	-5.6102e-002
22042	22.467	1.8182	0.1	-5.3571e-002
22043	22.557	1.5455	0.1	-5.3831e-002
22044	22.467	1.6364	0.1	-5.1761e-002
22045	22.557	1.3636	0.1	-5.0582e-002
22046	22.467	1.4545	0.1	-4.9151e-002
22047	22.557	1.1818	0.1	-4.5878e-002
22048	22.467	1.2727	0.1	-4.5413e-002
22049	22.557	1.	0.1	-3.92e-002
22050	22.467	1.0909	0.1	-3.9957e-002
22051	22.557	0.81818	0.1	-2.8997e-002
22052	22.467	0.90909	0.1	-3.2377e-002
22053	22.557	0.63636	0.1	-1.6043e-002
22054	22.467	0.72727	0.1	-2.0192e-002
22055	22.557	0.45455	0.1	1.4946e-002
22056	22.467	0.54545	0.1	-7.394e-003
22057	22.557	0.27273	0.1	3.9865e-002
22058	22.467	0.36364	0.1	3.7674e-002
22059	22.467	0.18182	0.1	2.5957e-002
22060	22.557	9.0909e-002	0.1	-1.1678e-002
22061	22.377	5.7273	0.1	3.376e-002
22062	22.287	5.8182	0.1	2.0276e-002
22063	22.377	5.9091	0.1	-9.1108e-003
22064	22.377	5.5455	0.1	1.3792e-002
22065	22.287	5.6364	0.1	3.2659e-002
22066	22.377	5.3636	0.1	-1.3022e-002
22067	22.287	5.4545	0.1	-5.8523e-003
22068	22.377	5.1818	0.1	-2.4664e-002
22069	22.287	5.2727	0.1	-1.7261e-002
22070	22.377	5.	0.1	-3.3971e-002
22071	22.287	5.0909	0.1	-2.8257e-002
22072	22.377	4.8182	0.1	-4.0169e-002
22073	22.287	4.9091	0.1	-3.5255e-002
22074	22.377	4.6364	0.1	-4.456e-002
22075	22.287	4.7273	0.1	-4.0326e-002
22076	22.377	4.4545	0.1	-4.7599e-002
22077	22.287	4.5455	0.1	-4.3816e-002
22078	22.377	4.2727	0.1	-4.971e-002
22079	22.287	4.3636	0.1	-4.6244e-002
22080	22.377	4.0909	0.1	-5.1165e-002
22081	22.287	4.1818	0.1	-4.7912e-002
22082	22.377	3.9091	0.1	-5.2162e-002
22083	22.287	4.	0.1	-4.9049e-002
22084	22.377	3.7273	0.1	-5.2835e-002
22085	22.287	3.8182	0.1	-4.9816e-002
22086	22.377	3.5455	0.1	-5.3279e-002
22087	22.287	3.6364	0.1	-5.0324e-002
22088	22.377	3.3636	0.1	-5.3557e-002
22089	22.287	3.4545	0.1	-5.0649e-002
22090	22.377	3.1818	0.1	-5.371e-002
22091	22.287	3.2727	0.1	-5.0842e-002
22092	22.377	3.	0.1	-5.3759e-002
22093	22.287	3.0909	0.1	-5.0931e-002
22094	22.377	2.8182	0.1	-5.371e-002
22095	22.287	2.9091	0.1	-5.0931e-002
22096	22.377	2.6364	0.1	-5.3558e-002
22097	22.287	2.7273	0.1	-5.0842e-002
22098	22.377	2.4545	0.1	-5.328e-002
22099	22.287	2.5455	0.1	-5.0649e-002
22100	22.377	2.2727	0.1	-5.2834e-002
22101	22.287	2.3636	0.1	-5.0324e-002
22102	22.377	2.0909	0.1	-5.2161e-002
22103	22.287	2.1818	0.1	-4.9815e-002
22104	22.377	1.9091	0.1	-5.1165e-002
22105	22.287	2.	0.1	-4.905e-002
22106	22.377	1.7273	0.1	-4.971e-002
22107	22.287	1.8182	0.1	-4.7911e-002
22108	22.377	1.5455	0.1	-4.7599e-002
22109	22.287	1.6364	0.1	-4.6244e-002
22110	22.377	1.3636	0.1	-4.4562e-002
22111	22.287	1.4545	0.1	-4.3816e-002
22112	22.377	1.1818	0.1	-4.0171e-002
22113	22.287	1.2727	0.1	-4.0328e-002
22114	22.377	1.	0.1	-3.3972e-002
22115	22.287	1.0909	0.1	-3.5256e-002
22116	22.377	0.81818	0.1	-2.4665e-002
22117	22.287	0.90909	0.1	-2.8257e-002
22118	22.377	0.63636	0.1	-1.3023e-002
22119	22.287	0.72727	0.1	-1.7261e-002
22120	22.377	0.45455	0.1	1.3791e-002
22121	22.287	0.54545	0.1	-5.8525e-003
22122	22.377	0.27273	0.1	3.3759e-002
22123	22.287	0.36364	0.1	3.266e-002
22124	22.287	0.18182	0.1	2.0277e-002
22125	22.377	9.0909e-002	0.1	-9.1124e-003
22126	22.197	5.7273	0.1	2.8184e-002
22127	22.106	5.8182	0.1	1.5683e-002
22128	22.197	5.9091	0.1	-7.5401e-003
22129	22.197	5.5455	0.1	1.1979e-002
22130	22.106	5.6364	0.1	2.7631e-002
22131	22.197	5.3636	0.1	-1.1233e-002
22132	22.106	5.4545	0.1	-5.2274e-003
22133	22.197	5.1818	0.1	-2.1724e-002
22134	22.106	5.2727	0.1	-1.5445e-002
22135	22.197	5.	0.1	-3.0212e-002
22136	22.106	5.0909	0.1	-2.5372e-002
22137	22.197	4.8182	0.1	-3.5951e-002
22138	22.106	4.9091	0.1	-3.1824e-002
22139	22.197	4.6364	0.1	-4.0034e-002
22140	22.106	4.7273	0.1	-3.6523e-002
22141	22.197	4.4545	0.1	-4.2857e-002
22142	22.106	4.5455	0.1	-3.9758e-002
22143	22.197	4.2727	0.1	-4.4803e-002
22144	22.106	4.3636	0.1	-4.1996e-002
22145	22.197	4.0909	0.1	-4.6128e-002
22146	22.106	4.1818	0.1	-4.3512e-002
22147	22.197	3.9091	0.1	-4.7019e-002
22148	22.106	4.	0.1	-4.453e-002
22149	22.197	3.7273	0.1	-4.761e-002
22150	22.106	3.8182	0.1	-4.5201e-002
22151	22.197	3.5455	0.1	-4.7991e-002
22152	22.106	3.6364	0.1	-4.5636e-002
22153	22.197	3.3636	0.1	-4.8226e-002
22154	22.106	3.4545	0.1	-4.5908e-002
22155	22.197	3.1818	0.1	-4.8353e-002
22156	22.106	3.2727	0.1	-4.6066e-002
22157	22.197	3.	0.1	-4.8393e-002
22158	22.106	3.0909	0.1	-4.6139e-002
22159	22.197	2.8182	0.1	-4.8353e-002
22160	22.106	2.9091	0.1	-4.6139e-002
22161	22.197	2.6364	0.1	-4.8226e-002
22162	22.106	2.7273	0.1	-4.6066e-002
22163	22.197	2.4545	0.1	-4.7991e-002
22164	22.106	2.5455	0.1	-4.5907e-002
22165	22.197	2.2727	0.1	-4.761e-002
22166	22.106	2.3636	0.1	-4.5636e-002
22167	22.197	2.0909	0.1	-4.7019e-002
22168	22.106	2.1818	0.1	-4.5201e-002
22169	22.197	1.9091	0.1	-4.6128e-002
22170	22.106	2.	0.1	-4.453e-002
22171	22.197	1.7273	0.1	-4.4803e-002
22172	22.106	1.8182	0.1	-4.3513e-002
22173	22.197	1.5455	0.1	-4.2857e-002
22174	22.106	1.6364	0.1	-4.1996e-002
22175	22.197	1.3636	0.1	-4.0034e-002
22176	22.106	1.4545	0.1	-3.9759e-002
22177	22.197	1.1818	0.1	-3.5952e-002
22178	22.106	1.2727	0.1	-3.6523e-002
22179	22.197	1.	0.1	-3.0213e-002
22180	22.106	1.0909	0.1	-3.1826e-002
22181	22.197	0.81818	0.1	-2.1724e-002
22182	22.106	0.90909	0.1	-2.5373e-002
22183	22.197	0.63636	0.1	-1.1233e-002
22184	22.106	0.72727	0.1	-1.5446e-002
22185	22.197	0.45455	0.1	1.1979e-002
22186	22.106	0.54545	0.1	-5.2276e-003
22187	22.197	0.27273	0.1	2.8186e-002
22188	22.106	0.36364	0.1	2.7632e-002
22189	22.106	0.18182	0.1	1.5685e-002
22190	22.197	9.0909e-002	0.1	-7.5372e-003
22191	22.016	5.7273	0.1	2.3126e-002
22192	21.926	5.8182	0.1	1.1969e-002
22193	22.016	5.9091	0.1	-6.6441e-003
22194	22.016	5.5455	0.1	9.7699e-003
22195	21.926	5.6364	0.1	2.2697e-002
22196	22.016	5.3636	0.1	-1.0312e-002
22197	21.926	5.4545	0.1	-5.2609e-003
22198	22.016	5.1818	0.1	-1.9787e-002
22199	21.926	5.2727	0.1	-1.4458e-002
22200	22.016	5.	0.1	-2.7529e-002
22201	21.926	5.0909	0.1	-2.3422e-002
22202	22.016	4.8182	0.1	-3.2834e-002
22203	21.926	4.9091	0.1	-2.9366e-002
22204	22.016	4.6364	0.1	-3.661e-002
22205	21.926	4.7273	0.1	-3.37e-002
22206	22.016	4.4545	0.1	-3.9208e-002
22207	21.926	4.5455	0.1	-3.6675e-002
22208	22.016	4.2727	0.1	-4.0979e-002
22209	21.926	4.3636	0.1	-3.8708e-002
22210	22.016	4.0909	0.1	-4.2163e-002
22211	21.926	4.1818	0.1	-4.0059e-002
22212	22.016	3.9091	0.1	-4.2943e-002
22213	21.926	4.	0.1	-4.0944e-002
22214	22.016	3.7273	0.1	-4.3447e-002
22215	21.926	3.8182	0.1	-4.1511e-002
22216	22.016	3.5455	0.1	-4.3766e-002
22217	21.926	3.6364	0.1	-4.1871e-002
22218	22.016	3.3636	0.1	-4.3957e-002
22219	21.926	3.4545	0.1	-4.2092e-002
22220	22.016	3.1818	0.1	-4.406e-002
22221	21.926	3.2727	0.1	-4.222e-002
22222	22.016	3.	0.1	-4.4093e-002
22223	21.926	3.0909	0.1	-4.2279e-002
22224	22.016	2.8182	0.1	-4.406e-002
22225	21.926	2.9091	0.1	-4.2279e-002
22226	22.016	2.6364	0.1	-4.3957e-002
22227	21.926	2.7273	0.1	-4.222e-002
22228	22.016	2.4545	0.1	-4.3766e-002
22229	21.926	2.5455	0.1	-4.2092e-002
22230	22.016	2.2727	0.1	-4.3447e-002
22231	21.926	2.3636	0.1	-4.1871e-002
22232	22.016	2.0909	0.1	-4.2943e-002
22233	21.926	2.1818	0.1	-4.1511e-002
22234	22.016	1.9091	0.1	-4.2164e-002
22235	21.926	2.	0.1	-4.0944e-002
22236	22.016	1.7273	0.1	-4.098e-002
22237	21.926	1.8182	0.1	-4.006e-002
22238	22.016	1.5455	0.1	-3.9209e-002
22239	21.926	1.6364	0.1	-3.8707e-002
22240	22.016	1.3636	0.1	-3.661e-002
22241	21.926	1.4545	0.1	-3.6676e-002
22242	22.016	1.1818	0.1	-3.2833e-002
22243	21.926	1.2727	0.1	-3.3699e-002
22244	22.016	1.	0.1	-2.753e-002
22245	21.926	1.0909	0.1	-2.9366e-002
22246	22.016	0.81818	0.1	-1.9788e-002
22247	21.926	0.90909	0.1	-2.3424e-002
22248	22.016	0.63636	0.1	-1.0312e-002
22249	21.926	0.72727	0.1	-1.4458e-002
22250	22.016	0.45455	0.1	9.7697e-003
22251	21.926	0.54545	0.1	-5.2618e-003
22252	22.016	0.27273	0.1	2.3126e-002
22253	21.926	0.36364	0.1	2.2698e-002
22254	21.926	0.18182	0.1	1.1972e-002
22255	22.016	9.0909e-002	0.1	-6.6464e-003
22256	21.836	5.7273	0.1	1.8539e-002
22257	21.746	5.8182	0.1	8.9735e-003
22258	21.836	5.9091	0.1	-6.2541e-003
22259	21.836	5.5455	0.1	7.3005e-003
22260	21.746	5.6364	0.1	1.7904e-002
22261	21.836	5.3636	0.1	-1.0057e-002
22262	21.746	5.4545	0.1	-5.8133e-003
22263	21.836	5.1818	0.1	-1.8639e-002
22264	21.746	5.2727	0.1	-1.4138e-002
22265	21.836	5.	0.1	-2.5701e-002
22266	21.746	5.0909	0.1	-2.2236e-002
22267	21.836	4.8182	0.1	-3.0592e-002
22268	21.746	4.9091	0.1	-2.7705e-002
22269	21.836	4.6364	0.1	-3.4061e-002
22270	21.746	4.7273	0.1	-3.168e-002
22271	21.836	4.4545	0.1	-3.6424e-002
22272	21.746	4.5455	0.1	-3.4383e-002
22273	21.836	4.2727	0.1	-3.8001e-002
22274	21.746	4.3636	0.1	-3.6184e-002
22275	21.836	4.0909	0.1	-3.9026e-002
22276	21.746	4.1818	0.1	-3.7345e-002
22277	21.836	3.9091	0.1	-3.9679e-002
22278	21.746	4.	0.1	-3.8073e-002
22279	21.836	3.7273	0.1	-4.0091e-002
22280	21.746	3.8182	0.1	-3.8526e-002
22281	21.836	3.5455	0.1	-4.0348e-002
22282	21.746	3.6364	0.1	-3.8811e-002
22283	21.836	3.3636	0.1	-4.0504e-002
22284	21.746	3.4545	0.1	-3.8993e-002
22285	21.836	3.1818	0.1	-4.0589e-002
22286	21.746	3.2727	0.1	-3.9107e-002
22287	21.836	3.	0.1	-4.0616e-002
22288	21.746	3.0909	0.1	-3.9163e-002
22289	21.836	2.8182	0.1	-4.0589e-002
22290	21.746	2.9091	0.1	-3.9163e-002
22291	21.836	2.6364	0.1	-4.0504e-002
22292	21.746	2.7273	0.1	-3.9107e-002
22293	21.836	2.4545	0.1	-4.0348e-002
22294	21.746	2.5455	0.1	-3.8994e-002
22295	21.836	2.2727	0.1	-4.009e-002
22296	21.746	2.3636	0.1	-3.8811e-002
22297	21.836	2.0909	0.1	-3.9679e-002
22298	21.746	2.1818	0.1	-3.8525e-002
22299	21.836	1.9091	0.1	-3.9026e-002
22300	21.746	2.	0.1	-3.8073e-002
22301	21.836	1.7273	0.1	-3.8e-002
22302	21.746	1.8182	0.1	-3.7345e-002
22303	21.836	1.5455	0.1	-3.6423e-002
22304	21.746	1.6364	0.1	-3.6185e-002
22305	21.836	1.3636	0.1	-3.4061e-002
22306	21.746	1.4545	0.1	-3.4383e-002
22307	21.836	1.1818	0.1	-3.059e-002
22308	21.746	1.2727	0.1	-3.168e-002
22309	21.836	1.	0.1	-2.5701e-002
22310	21.746	1.0909	0.1	-2.7704e-002
22311	21.836	0.81818	0.1	-1.864e-002
22312	21.746	0.90909	0.1	-2.2237e-002
22313	21.836	0.63636	0.1	-1.0057e-002
22314	21.746	0.72727	0.1	-1.4138e-002
22315	21.836	0.45455	0.1	7.3013e-003
22316	21.746	0.54545	0.1	-5.8138e-003
22317	21.836	0.27273	0.1	1.8542e-002
22318	21.746	0.36364	0.1	1.7906e-002
22319	21.746	0.18182	0.1	8.9748e-003
22320	21.836	9.0909e-002	0.1	-6.2496e-003
22321	21.656	5.7273	0.1	1.4387e-002
22322	21.565	5.8182	0.1	6.5775e-003
22323	21.656	5.9091	0.1	-6.2767e-003
22324	21.656	5.5455	0.1	4.642e-003
22325	21.565	5.6364	0.1	1.3278e-002
22326	21.656	5.3636	0.1	-1.0358e-002
22327	21.565	5.4545	0.1	-6.8129e-003
22328	21.656	5.1818	0.1	-1.8155e-002
22329	21.565	5.2727	0.1	-1.4397e-002
22330	21.656	5.	0.1	-2.4596e-002
22331	21.565	5.0909	0.1	-2.1719e-002
22332	21.656	4.8182	0.1	-2.909e-002
22333	21.565	4.9091	0.1	-2.6737e-002
22334	21.656	4.6364	0.1	-3.2247e-002
22335	21.565	4.7273	0.1	-3.035e-002
22336	21.656	4.4545	0.1	-3.4343e-002
22337	21.565	4.5455	0.1	-3.2743e-002
22338	21.656	4.2727	0.1	-3.5686e-002
22339	21.565	4.3636	0.1	-3.4252e-002
22340	21.656	4.0909	0.1	-3.6513e-002
22341	21.565	4.1818	0.1	-3.5134e-002
22342	21.656	3.9091	0.1	-3.7013e-002
22343	21.565	4.	0.1	-3.5622e-002
22344	21.656	3.7273	0.1	-3.7324e-002
22345	21.565	3.8182	0.1	-3.59e-002
22346	21.656	3.5455	0.1	-3.7534e-002
22347	21.565	3.6364	0.1	-3.6108e-002
22348	21.656	3.3636	0.1	-3.7685e-002
22349	21.565	3.4545	0.1	-3.6318e-002
22350	21.656	3.1818	0.1	-3.7783e-002
22351	21.565	3.2727	0.1	-3.6527e-002
22352	21.656	3.	0.1	-3.7819e-002
22353	21.565	3.0909	0.1	-3.6667e-002
22354	21.656	2.8182	0.1	-3.7785e-002
22355	21.565	2.9091	0.1	-3.6668e-002
22356	21.656	2.6364	0.1	-3.7685e-002
22357	21.565	2.7273	0.1	-3.6527e-002
22358	21.656	2.4545	0.1	-3.7534e-002
22359	21.565	2.5455	0.1	-3.6317e-002
22360	21.656	2.2727	0.1	-3.7324e-002
22361	21.565	2.3636	0.1	-3.6107e-002
22362	21.656	2.0909	0.1	-3.7012e-002
22363	21.565	2.1818	0.1	-3.59e-002
22364	21.656	1.9091	0.1	-3.6513e-002
22365	21.565	2.	0.1	-3.5623e-002
22366	21.656	1.7273	0.1	-3.5687e-002
22367	21.565	1.8182	0.1	-3.5134e-002
22368	21.656	1.5455	0.1	-3.4344e-002
22369	21.565	1.6364	0.1	-3.4252e-002
22370	21.656	1.3636	0.1	-3.2246e-002
22371	21.565	1.4545	0.1	-3.2743e-002
22372	21.656	1.1818	0.1	-2.909e-002
22373	21.565	1.2727	0.1	-3.035e-002
22374	21.656	1.	0.1	-2.4595e-002
22375	21.565	1.0909	0.1	-2.6736e-002
22376	21.656	0.81818	0.1	-1.8155e-002
22377	21.565	0.90909	0.1	-2.1719e-002
22378	21.656	0.63636	0.1	-1.0358e-002
22379	21.565	0.72727	0.1	-1.4398e-002
22380	21.656	0.45455	0.1	4.6429e-003
22381	21.565	0.54545	0.1	-6.8131e-003
22382	21.656	0.27273	0.1	1.4388e-002
22383	21.565	0.36364	0.1	1.3279e-002
22384	21.565	0.18182	0.1	6.5772e-003
22385	21.656	9.0909e-002	0.1	-6.2801e-003
22386	21.475	5.7273	0.1	1.0645e-002
22387	21.385	5.8182	0.1	4.7046e-003
22388	21.475	5.9091	0.1	-6.6816e-003
22389	21.475	5.5455	0.1	1.8318e-003
22390	21.385	5.6364	0.1	8.8509e-003
22391	21.475	5.3636	0.1	-1.1161e-002
22392	21.385	5.4545	0.1	-8.2197e-003
22393	21.475	5.1818	0.1	-1.8271e-002
22394	21.385	5.2727	0.1	-1.5191e-002
22395	21.475	5.	0.1	-2.4143e-002
22396	21.385	5.0909	0.1	-2.1815e-002
22397	21.475	4.8182	0.1	-2.8245e-002
22398	21.385	4.9091	0.1	-2.6395e-002
22399	21.475	4.6364	0.1	-3.105e-002
22400	21.385	4.7273	0.1	-2.9594e-002
22401	21.475	4.4545	0.1	-3.2786e-002
22402	21.385	4.5455	0.1	-3.1493e-002
22403	21.475	4.2727	0.1	-3.3719e-002
22404	21.385	4.3636	0.1	-3.2185e-002
22405	21.475	4.0909	0.1	-3.4064e-002
22406	21.385	4.1818	0.1	-3.0973e-002
22407	21.475	3.9091	0.1	-3.4008e-002
22408	21.385	4.	0.1	4.2001e-002
22409	21.475	3.7273	0.1	-3.3677e-002
22410	21.385	3.8182	0.1	1.6206
22411	21.475	3.5455	0.1	-3.3077e-002
22412	21.385	3.6364	0.1	3.0698
22413	21.475	3.3636	0.1	-3.14e-002
22414	21.385	3.4545	0.1	4.2337
22415	21.475	3.1818	0.1	0.10981
22416	21.385	3.2727	0.1	5.0476
22417	21.475	3.	0.1	0.28139
22418	21.385	3.0909	0.1	5.4662
22419	21.475	2.8182	0.1	0.10981
22420	21.385	2.9091	0.1	5.4662
22421	21.475	2.6364	0.1	-3.1399e-002
22422	21.385	2.7273	0.1	5.0476
22423	21.475	2.4545	0.1	-3.3077e-002
22424	21.385	2.5455	0.1	4.2337
22425	21.475	2.2727	0.1	-3.3676e-002
22426	21.385	2.3636	0.1	3.0698
22427	21.475	2.0909	0.1	-3.4009e-002
22428	21.385	2.1818	0.1	1.6206
22429	21.475	1.9091	0.1	-3.4065e-002
22430	21.385	2.	0.1	4.2003e-002
22431	21.475	1.7273	0.1	-3.3718e-002
22432	21.385	1.8182	0.1	-3.0972e-002
22433	21.475	1.5455	0.1	-3.2786e-002
22434	21.385	1.6364	0.1	-3.2185e-002
22435	21.475	1.3636	0.1	-3.1051e-002
22436	21.385	1.4545	0.1	-3.1493e-002
22437	21.475	1.1818	0.1	-2.8245e-002
22438	21.385	1.2727	0.1	-2.9594e-002
22439	21.475	1.	0.1	-2.4143e-002
22440	21.385	1.0909	0.1	-2.6395e-002
22441	21.475	0.81818	0.1	-1.8272e-002
22442	21.385	0.90909	0.1	-2.1816e-002
22443	21.475	0.63636	0.1	-1.1162e-002
22444	21.385	0.72727	0.1	-1.5192e-002
22445	21.475	0.45455	0.1	1.8317e-003
22446	21.385	0.54545	0.1	-8.2188e-003
22447	21.475	0.27273	0.1	1.0645e-002
22448	21.385	0.36364	0.1	8.8504e-003
22449	21.385	0.18182	0.1	4.7059e-003
22450	21.475	9.0909e-002	0.1	-6.6809e-003
22451	21.295	5.7273	0.1	7.3275e-003
22452	21.205	5.8182	0.1	3.3147e-003
22453	21.295	5.9091	0.1	-7.4686e-003
22454	21.295	5.5455	0.1	-1.0871e-003
22455	21.205	5.6364	0.1	4.6797e-003
22456	21.295	5.3636	0.1	-1.2433e-002
22457	21.205	5.4545	0.1	-9.9969e-003
22458	21.295	5.1818	0.1	-1.8951e-002
22459	21.205	5.2727	0.1	-1.649e-002
22460	21.295	5.	0.1	-2.4291e-002
22461	21.205	5.0909	0.1	-2.2484e-002
22462	21.295	4.8182	0.1	-2.7955e-002
22463	21.205	4.9091	0.1	-2.6554e-002
22464	21.295	4.6364	0.1	-3.0103e-002
22465	21.205	4.7273	0.1	-2.8586e-002
22466	21.295	4.4545	0.1	-2.9215e-002
22467	21.205	4.5455	0.1	0.678
22468	21.295	4.2727	0.1	0.94668
22469	21.205	4.3636	0.1	3.2772
22470	21.295	4.0909	0.1	3.108
22471	21.205	4.1818	0.1	5.89
22472	21.295	3.9091	0.1	5.1578
22473	21.205	4.	0.1	8.4052
22474	21.295	3.7273	0.1	6.9965
22475	21.205	3.8182	0.1	10.712
22476	21.295	3.5455	0.1	8.5334
22477	21.205	3.6364	0.1	12.705
22478	21.295	3.3636	0.1	9.6911
22479	21.205	3.4545	0.1	14.29
22480	21.295	3.1818	0.1	10.411
22481	21.205	3.2727	0.1	15.391
22482	21.295	3.	0.1	10.655
22483	21.205	3.0909	0.1	15.956
22484	21.295	2.8182	0.1	10.411
22485	21.205	2.9091	0.1	15.956
22486	21.295	2.6364	0.1	9.6911
22487	21.205	2.7273	0.1	15.391
22488	21.295	2.4545	0.1	8.5334
22489	21.205	2.5455	0.1	14.29
22490	21.295	2.2727	0.1	6.9965
22491	21.205	2.3636	0.1	12.705
22492	21.295	2.0909	0.1	5.1578
22493	21.205	2.1818	0.1	10.712
22494	21.295	1.9091	0.1	3.1079
22495	21.205	2.	0.1	8.4052
22496	21.295	1.7273	0.1	0.94668
22497	21.205	1.8182	0.1	5.89
22498	21.295	1.5455	0.1	-2.9215e-002
22499	21.205	1.6364	0.1	3.2772
22500	21.295	1.3636	0.1	-3.0103e-002
22501	21.205	1.4545	0.1	0.67801
22502	21.295	1.1818	0.1	-2.7955e-002
22503	21.205	1.2727	0.1	-2.8586e-002
22504	21.295	1.	0.1	-2.4292e-002
22505	21.205	1.0909	0.1	-2.6554e-002
22506	21.295	0.81818	0.1	-1.8953e-002
22507	21.205	0.90909	0.1	-2.2485e-002
22508	21.295	0.63636	0.1	-1.2433e-002
22509	21.205	0.72727	0.1	-1.6491e-002
22510	21.295	0.45455	0.1	-1.0865e-003
22511	21.205	0.54545	0.1	-9.9954e-003
22512	21.295	0.27273	0.1	7.3282e-003
22513	21.205	0.36364	0.1	4.6804e-003
22514	21.205	0.18182	0.1	3.3166e-003
22515	21.295	9.0909e-002	0.1	-7.468e-003
22516	21.115	5.7273	0.1	4.4797e-003
22517	21.024	5.8182	0.1	2.3868e-003
22518	21.115	5.9091	0.1	-8.6753e-003
22519	21.115	5.5455	0.1	-4.0556e-003
22520	21.024	5.6364	0.1	8.6725e-004
22521	21.115	5.3636	0.1	-1.4143e-002
22522	21.024	5.4545	0.1	-1.2067e-002
22523	21.115	5.1818	0.1	-2.0166e-002
22524	21.024	5.2727	0.1	-1.8209e-002
22525	21.115	5.	0.1	-2.4929e-002
22526	21.024	5.0909	0.1	-2.3501e-002
22527	21.115	4.8182	0.1	-2.5962e-002
22528	21.024	4.9091	0.1	5.4961e-002
22529	21.115	4.6364	0.1	2.2232
22530	21.024	4.7273	0.1	3.2312
22531	21.115	4.4545	0.1	5.208
22532	21.024	4.5455	0.1	6.6362
22533	21.115	4.2727	0.1	8.2386
22534	21.024	4.3636	0.1	10.139
22535	21.115	4.0909	0.1	11.199
22536	21.024	4.1818	0.1	13.612
22537	21.115	3.9091	0.1	13.968
22538	21.024	4.	0.1	16.922
22539	21.115	3.7273	0.1	16.427
22540	21.024	3.8182	0.1	19.933
22541	21.115	3.5455	0.1	18.466
22542	21.024	3.6364	0.1	22.518
22543	21.115	3.3636	0.1	19.994
22544	21.024	3.4545	0.1	24.564
22545	21.115	3.1818	0.1	20.94
22546	21.024	3.2727	0.1	25.98
22547	21.115	3.	0.1	21.261
22548	21.024	3.0909	0.1	26.705
22549	21.115	2.8182	0.1	20.94
22550	21.024	2.9091	0.1	26.705
22551	21.115	2.6364	0.1	19.994
22552	21.024	2.7273	0.1	25.98
22553	21.115	2.4545	0.1	18.466
22554	21.024	2.5455	0.1	24.564
22555	21.115	2.2727	0.1	16.427
22556	21.024	2.3636	0.1	22.518
22557	21.115	2.0909	0.1	13.968
22558	21.024	2.1818	0.1	19.933
22559	21.115	1.9091	0.1	11.199
22560	21.024	2.	0.1	16.922
22561	21.115	1.7273	0.1	8.2386
22562	21.024	1.8182	0.1	13.612
22563	21.115	1.5455	0.1	5.208
22564	21.024	1.6364	0.1	10.139
22565	21.115	1.3636	0.1	2.2232
22566	21.024	1.4545	0.1	6.6362
22567	21.115	1.1818	0.1	-2.5962e-002
22568	21.024	1.2727	0.1	3.2312
22569	21.115	1.	0.1	-2.4929e-002
22570	21.024	1.0909	0.1	5.498e-002
22571	21.115	0.81818	0.1	-2.0167e-002
22572	21.024	0.90909	0.1	-2.3502e-002
22573	21.115	0.63636	0.1	-1.4144e-002
22574	21.024	0.72727	0.1	-1.821e-002
22575	21.115	0.45455	0.1	-4.054e-003
22576	21.024	0.54545	0.1	-1.2067e-002
22577	21.115	0.27273	0.1	4.4815e-003
22578	21.024	0.36364	0.1	8.6871e-004
22579	21.024	0.18182	0.1	2.3885e-003
22580	21.115	9.0909e-002	0.1	-8.6739e-003
22581	20.934	5.7273	0.1	2.1887e-003
22582	20.844	5.8182	0.1	1.919e-003
22583	20.934	5.9091	0.1	-1.0371e-002
22584	20.934	5.5455	0.1	-6.9393e-003
22585	20.844	5.6364	0.1	-2.395e-003
22586	20.934	5.3636	0.1	-1.6153e-002
22587	20.844	5.4545	0.1	-1.4182e-002
22588	20.934	5.1818	0.1	-2.1613e-002
22589	20.844	5.2727	0.1	-1.9783e-002
22590	20.934	5.	0.1	0.4172
22591	20.844	5.0909	0.1	0.22984
22592	20.934	4.8182	0.1	3.9067
22593	20.844	4.9091	0.1	3.9982
22594	20.934	4.6364	0.1	7.6678
22595	20.844	4.7273	0.1	8.1315
22596	20.934	4.4545	0.1	11.585
22597	20.844	4.5455	0.1	12.502
22598	20.934	4.2727	0.1	15.527
22599	20.844	4.3636	0.1	16.967
22600	20.934	4.0909	0.1	19.346
22601	20.844	4.1818	0.1	21.369
22602	20.934	3.9091	0.1	22.896
22603	20.844	4.	0.1	25.542
22604	20.934	3.7273	0.1	26.03
22605	20.844	3.8182	0.1	29.32
22606	20.934	3.5455	0.1	28.62
22607	20.844	3.6364	0.1	32.552
22608	20.934	3.3636	0.1	30.554
22609	20.844	3.4545	0.1	35.102
22610	20.934	3.1818	0.1	31.749
22611	20.844	3.2727	0.1	36.865
22612	20.934	3.	0.1	32.153
22613	20.844	3.0909	0.1	37.766
22614	20.934	2.8182	0.1	31.749
22615	20.844	2.9091	0.1	37.766
22616	20.934	2.6364	0.1	30.554
22617	20.844	2.7273	0.1	36.865
22618	20.934	2.4545	0.1	28.62
22619	20.844	2.5455	0.1	35.102
22620	20.934	2.2727	0.1	26.03
22621	20.844	2.3636	0.1	32.552
22622	20.934	2.0909	0.1	22.896
22623	20.844	2.1818	0.1	29.32
22624	20.934	1.9091	0.1	19.346
22625	20.844	2.	0.1	25.542
22626	20.934	1.7273	0.1	15.527
22627	20.844	1.8182	0.1	21.369
22628	20.934	1.5455	0.1	11.585
22629	20.844	1.6364	0.1	16.967
22630	20.934	1.3636	0.1	7.6679
22631	20.844	1.4545	0.1	12.502
22632	20.934	1.1818	0.1	3.9067
22633	20.844	1.2727	0.1	8.1315
22634	20.934	1.	0.1	0.41723
22635	20.844	1.0909	0.1	3.9982
22636	20.934	0.81818	0.1	-2.1613e-002
22637	20.844	0.90909	0.1	0.22988
22638	20.934	0.63636	0.1	-1.6154e-002
22639	20.844	0.72727	0.1	-1.9783e-002
22640	20.934	0.45455	0.1	-6.9393e-003
22641	20.844	0.54545	0.1	-1.4183e-002
22642	20.934	0.27273	0.1	2.19e-003
22643	20.844	0.36364	0.1	-2.3953e-003
22644	20.844	0.18182	0.1	1.9213e-003
22645	20.934	9.0909e-002	0.1	-1.037e-002
22646	20.754	5.7273	0.1	5.9575e-004
22647	20.664	5.8182	0.1	1.908e-003
22648	20.754	5.9091	0.1	-1.2636e-002
22649	20.754	5.5455	0.1	-9.4251e-003
22650	20.664	5.6364	0.1	-4.7898e-003
22651	20.754	5.3636	0.1	-1.7795e-002
22652	20.664	5.4545	0.1	-1.5595e-002
22653	20.754	5.1818	0.1	4.9888e-003
22654	20.664	5.2727	0.1	-1.5091e-002
22655	20.754	5.	0.1	3.8361
22656	20.664	5.0909	0.1	3.0711
22657	20.754	4.8182	0.1	8.2512
22658	20.664	4.9091	0.1	7.7545
22659	20.754	4.6364	0.1	12.989
22660	20.664	4.7273	0.1	12.873
22661	20.754	4.4545	0.1	17.902
22662	20.664	4.5455	0.1	18.272
22663	20.754	4.2727	0.1	22.824
22664	20.664	4.3636	0.1	23.774
22665	20.754	4.0909	0.1	27.576
22666	20.664	4.1818	0.1	29.181
22667	20.754	3.9091	0.1	31.975
22668	20.664	4.	0.1	34.292
22669	20.754	3.7273	0.1	35.848
22670	20.664	3.8182	0.1	38.909
22671	20.754	3.5455	0.1	39.039
22672	20.664	3.6364	0.1	42.847
22673	20.754	3.3636	0.1	41.418
22674	20.664	3.4545	0.1	45.95
22675	20.754	3.1818	0.1	42.885
22676	20.664	3.2727	0.1	48.092
22677	20.754	3.	0.1	43.381
22678	20.664	3.0909	0.1	49.185
22679	20.754	2.8182	0.1	42.885
22680	20.664	2.9091	0.1	49.185
22681	20.754	2.6364	0.1	41.418
22682	20.664	2.7273	0.1	48.092
22683	20.754	2.4545	0.1	39.039
22684	20.664	2.5455	0.1	45.95
22685	20.754	2.2727	0.1	35.848
22686	20.664	2.3636	0.1	42.847
22687	20.754	2.0909	0.1	31.975
22688	20.664	2.1818	0.1	38.909
22689	20.754	1.9091	0.1	27.576
22690	20.664	2.	0.1	34.292
22691	20.754	1.7273	0.1	22.824
22692	20.664	1.8182	0.1	29.181
22693	20.754	1.5455	0.1	17.902
22694	20.664	1.6364	0.1	23.774
22695	20.754	1.3636	0.1	12.989
22696	20.664	1.4545	0.1	18.272
22697	20.754	1.1818	0.1	8.2512
22698	20.664	1.2727	0.1	12.873
22699	20.754	1.	0.1	3.8361
22700	20.664	1.0909	0.1	7.7545
22701	20.754	0.81818	0.1	4.9943e-003
22702	20.664	0.90909	0.1	3.0711
22703	20.754	0.63636	0.1	-1.7796e-002
22704	20.664	0.72727	0.1	-1.5092e-002
22705	20.754	0.45455	0.1	-9.4263e-003
22706	20.664	0.54545	0.1	-1.5597e-002
22707	20.754	0.27273	0.1	5.9644e-004
22708	20.664	0.36364	0.1	-4.7896e-003
22709	20.664	0.18182	0.1	1.9101e-003
22710	20.754	9.0909e-002	0.1	-1.2634e-002
22711	20.574	5.7273	0.1	-1.3277e-004
22712	20.483	5.8182	0.1	2.329e-003
22713	20.574	5.9091	0.1	-1.5572e-002
22714	20.574	5.5455	0.1	-1.0866e-002
22715	20.483	5.6364	0.1	-5.8246e-003
22716	20.574	5.3636	0.1	-1.5655e-002
22717	20.483	5.4545	0.1	-1.4275e-002
22718	20.574	5.1818	0.1	2.1879
22719	20.483	5.2727	0.1	0.73883
22720	20.574	5.	0.1	7.0217
22721	20.483	5.0909	0.1	5.6529
22722	20.574	4.8182	0.1	12.404
22723	20.483	4.9091	0.1	11.279
22724	20.574	4.6364	0.1	18.179
22725	20.483	4.7273	0.1	17.44
22726	20.574	4.4545	0.1	24.162
22727	20.483	4.5455	0.1	23.943
22728	20.574	4.2727	0.1	30.145
22729	20.483	4.3636	0.1	30.563
22730	20.574	4.0909	0.1	35.908
22731	20.483	4.1818	0.1	37.063
22732	20.574	3.9091	0.1	41.234
22733	20.483	4.	0.1	43.196
22734	20.574	3.7273	0.1	45.914
22735	20.483	3.8182	0.1	48.727
22736	20.574	3.5455	0.1	49.763
22737	20.483	3.6364	0.1	53.438
22738	20.574	3.3636	0.1	52.628
22739	20.483	3.4545	0.1	57.145
22740	20.574	3.1818	0.1	54.395
22741	20.483	3.2727	0.1	59.7
22742	20.574	3.	0.1	54.992
22743	20.483	3.0909	0.1	61.003
22744	20.574	2.8182	0.1	54.395
22745	20.483	2.9091	0.1	61.003
22746	20.574	2.6364	0.1	52.628
22747	20.483	2.7273	0.1	59.7
22748	20.574	2.4545	0.1	49.763
22749	20.483	2.5455	0.1	57.145
22750	20.574	2.2727	0.1	45.914
22751	20.483	2.3636	0.1	53.438
22752	20.574	2.0909	0.1	41.234
22753	20.483	2.1818	0.1	48.727
22754	20.574	1.9091	0.1	35.908
22755	20.483	2.	0.1	43.196
22756	20.574	1.7273	0.1	30.145
22757	20.483	1.8182	0.1	37.063
22758	20.574	1.5455	0.1	24.162
22759	20.483	1.6364	0.1	30.563
22760	20.574	1.3636	0.1	18.179
22761	20.483	1.4545	0.1	23.943
22762	20.574	1.1818	0.1	12.404
22763	20.483	1.2727	0.1	17.44
22764	20.574	1.	0.1	7.0217
22765	20.483	1.0909	0.1	11.279
22766	20.574	0.81818	0.1	2.188
22767	20.483	0.90909	0.1	5.653
22768	20.574	0.63636	0.1	-1.5657e-002
22769	20.483	0.72727	0.1	0.73887
22770	20.574	0.45455	0.1	-1.0867e-002
22771	20.483	0.54545	0.1	-1.4277e-002
22772	20.574	0.27273	0.1	-1.312e-004
22773	20.483	0.36364	0.1	-5.8225e-003
22774	20.483	0.18182	0.1	2.3302e-003
22775	20.574	9.0909e-002	0.1	-1.5571e-002
22776	20.393	5.7273	0.1	2.008e-004
22777	20.303	5.8182	0.1	3.1386e-003
22778	20.393	5.9091	0.1	-1.9243e-002
22779	20.393	5.5455	0.1	-1.0043e-002
22780	20.303	5.6364	0.1	-4.8275e-003
22781	20.393	5.3636	0.1	1.9192e-002
22782	20.303	5.4545	0.1	-5.4881e-003
22783	20.393	5.1818	0.1	4.2197
22784	20.303	5.2727	0.1	2.1838
22785	20.393	5.	0.1	9.942
22786	20.303	5.0909	0.1	7.9303
22787	20.393	4.8182	0.1	16.343
22788	20.303	4.9091	0.1	14.543
22789	20.393	4.6364	0.1	23.227
22790	20.303	4.7273	0.1	21.815
22791	20.393	4.4545	0.1	30.362
22792	20.303	4.5455	0.1	29.503
22793	20.393	4.2727	0.1	37.495
22794	20.303	4.3636	0.1	37.336
22795	20.393	4.0909	0.1	44.361
22796	20.303	4.1818	0.1	45.023
22797	20.393	3.9091	0.1	50.697
22798	20.303	4.	0.1	52.27
22799	20.393	3.7273	0.1	56.257
22800	20.303	3.8182	0.1	58.797
22801	20.393	3.5455	0.1	60.824
22802	20.303	3.6364	0.1	64.35
22803	20.393	3.3636	0.1	64.22
22804	20.303	3.4545	0.1	68.712
22805	20.393	3.1818	0.1	66.312
22806	20.303	3.2727	0.1	71.716
22807	20.393	3.	0.1	67.018
22808	20.303	3.0909	0.1	73.247
22809	20.393	2.8182	0.1	66.312
22810	20.303	2.9091	0.1	73.247
22811	20.393	2.6364	0.1	64.22
22812	20.303	2.7273	0.1	71.716
22813	20.393	2.4545	0.1	60.824
22814	20.303	2.5455	0.1	68.712
22815	20.393	2.2727	0.1	56.257
22816	20.303	2.3636	0.1	64.35
22817	20.393	2.0909	0.1	50.697
22818	20.303	2.1818	0.1	58.797
22819	20.393	1.9091	0.1	44.361
22820	20.303	2.	0.1	52.27
22821	20.393	1.7273	0.1	37.495
22822	20.303	1.8182	0.1	45.023
22823	20.393	1.5455	0.1	30.362
22824	20.303	1.6364	0.1	37.336
22825	20.393	1.3636	0.1	23.227
22826	20.303	1.4545	0.1	29.503
22827	20.393	1.1818	0.1	16.343
22828	20.303	1.2727	0.1	21.815
22829	20.393	1.	0.1	9.942
22830	20.303	1.0909	0.1	14.543
22831	20.393	0.81818	0.1	4.2198
22832	20.303	0.90909	0.1	7.9303
22833	20.393	0.63636	0.1	1.9193e-002
22834	20.303	0.72727	0.1	2.1838
22835	20.393	0.45455	0.1	-1.0043e-002
22836	20.303	0.54545	0.1	-5.4894e-003
22837	20.393	0.27273	0.1	2.0243e-004
22838	20.303	0.36364	0.1	-4.8251e-003
22839	20.303	0.18182	0.1	3.1395e-003
22840	20.393	9.0909e-002	0.1	-1.9243e-002
22841	20.213	5.7273	0.1	1.7954e-003
22842	20.123	5.8182	0.1	4.2748e-003
22843	20.213	5.9091	0.1	-2.3619e-002
22844	20.213	5.5455	0.1	-5.1777e-003
22845	20.123	5.6364	0.1	-1.0883e-003
22846	20.213	5.3636	0.1	0.4307
22847	20.123	5.4545	0.1	1.7793e-002
22848	20.213	5.1818	0.1	5.9194
22849	20.123	5.2727	0.1	3.2773
22850	20.213	5.	0.1	12.562
22851	20.123	5.0909	0.1	9.8632
22852	20.213	4.8182	0.1	20.042
22853	20.123	4.9091	0.1	17.514
22854	20.213	4.6364	0.1	28.114
22855	20.123	4.7273	0.1	25.971
22856	20.213	4.4545	0.1	36.495
22857	20.123	4.5455	0.1	34.938
22858	20.213	4.2727	0.1	44.877
22859	20.123	4.3636	0.1	44.085
22860	20.213	4.0909	0.1	52.942
22861	20.123	4.1818	0.1	53.063
22862	20.213	3.9091	0.1	60.378
22863	20.123	4.	0.1	61.521
22864	20.213	3.7273	0.1	66.896
22865	20.123	3.8182	0.1	69.13
22866	20.213	3.5455	0.1	72.242
22867	20.123	3.6364	0.1	75.593
22868	20.213	3.3636	0.1	76.212
22869	20.123	3.4545	0.1	80.662
22870	20.213	3.1818	0.1	78.655
22871	20.123	3.2727	0.1	84.149
22872	20.213	3.	0.1	79.48
22873	20.123	3.0909	0.1	85.924
22874	20.213	2.8182	0.1	78.655
22875	20.123	2.9091	0.1	85.924
22876	20.213	2.6364	0.1	76.212
22877	20.123	2.7273	0.1	84.149
22878	20.213	2.4545	0.1	72.242
22879	20.123	2.5455	0.1	80.662
22880	20.213	2.2727	0.1	66.896
22881	20.123	2.3636	0.1	75.593
22882	20.213	2.0909	0.1	60.378
22883	20.123	2.1818	0.1	69.13
22884	20.213	1.9091	0.1	52.942
22885	20.123	2.	0.1	61.521
22886	20.213	1.7273	0.1	44.877
22887	20.123	1.8182	0.1	53.063
22888	20.213	1.5455	0.1	36.495
22889	20.123	1.6364	0.1	44.085
22890	20.213	1.3636	0.1	28.114
22891	20.123	1.4545	0.1	34.938
22892	20.213	1.1818	0.1	20.042
22893	20.123	1.2727	0.1	25.971
22894	20.213	1.	0.1	12.562
22895	20.123	1.0909	0.1	17.514
22896	20.213	0.81818	0.1	5.9194
22897	20.123	0.90909	0.1	9.8632
22898	20.213	0.63636	0.1	0.43072
22899	20.123	0.72727	0.1	3.2774
22900	20.213	0.45455	0.1	-5.1774e-003
22901	20.123	0.54545	0.1	1.7792e-002
22902	20.213	0.27273	0.1	1.797e-003
22903	20.123	0.36364	0.1	-1.0869e-003
22904	20.123	0.18182	0.1	4.2761e-003
22905	20.213	9.0909e-002	0.1	-2.3619e-002
22906	20.032	5.7273	0.1	4.8048e-003
22907	19.942	5.8182	0.1	5.6563e-003
22908	20.032	5.9091	0.1	-2.8512e-002
22909	20.032	5.5455	0.1	5.2331e-003
22910	19.942	5.6364	0.1	5.8597e-003
22911	20.032	5.3636	0.1	1.0016
22912	19.942	5.4545	0.1	5.589e-002
22913	20.032	5.1818	0.1	7.2434
22914	19.942	5.2727	0.1	3.9676
22915	20.032	5.	0.1	14.844
22916	19.942	5.0909	0.1	11.408
22917	20.032	4.8182	0.1	23.468
22918	19.942	4.9091	0.1	20.151
22919	20.032	4.6364	0.1	32.817
22920	19.942	4.7273	0.1	29.876
22921	20.032	4.4545	0.1	42.546
22922	19.942	4.5455	0.1	40.223
22923	20.032	4.2727	0.1	52.284
22924	19.942	4.3636	0.1	50.795
22925	20.032	4.0909	0.1	61.652
22926	19.942	4.1818	0.1	61.174
22927	20.032	3.9091	0.1	70.281
22928	19.942	4.	0.1	70.944
22929	20.032	3.7273	0.1	77.833
22930	19.942	3.8182	0.1	79.72
22931	20.032	3.5455	0.1	84.018
22932	19.942	3.6364	0.1	87.158
22933	20.032	3.3636	0.1	88.603
22934	19.942	3.4545	0.1	92.981
22935	20.032	3.1818	0.1	91.421
22936	19.942	3.2727	0.1	96.977
22937	20.032	3.	0.1	92.372
22938	19.942	3.0909	0.1	99.01
22939	20.032	2.8182	0.1	91.421
22940	19.942	2.9091	0.1	99.01
22941	20.032	2.6364	0.1	88.603
22942	19.942	2.7273	0.1	96.977
22943	20.032	2.4545	0.1	84.018
22944	19.942	2.5455	0.1	92.98
22945	20.032	2.2727	0.1	77.833
22946	19.942	2.3636	0.1	87.158
22947	20.032	2.0909	0.1	70.281
22948	19.942	2.1818	0.1	79.72
22949	20.032	1.9091	0.1	61.652
22950	19.942	2.	0.1	70.944
22951	20.032	1.7273	0.1	52.284
22952	19.942	1.8182	0.1	61.174
22953	20.032	1.5455	0.1	42.546
22954	19.942	1.6364	0.1	50.795
22955	20.032	1.3636	0.1	32.817
22956	19.942	1.4545	0.1	40.223
22957	20.032	1.1818	0.1	23.468
22958	19.942	1.2727	0.1	29.876
22959	20.032	1.	0.1	14.844
22960	19.942	1.0909	0.1	20.152
22961	20.032	0.81818	0.1	7.2434
22962	19.942	0.90909	0.1	11.409
22963	20.032	0.63636	0.1	1.0017
22964	19.942	0.72727	0.1	3.9676
22965	20.032	0.45455	0.1	5.2326e-003
22966	19.942	0.54545	0.1	5.5889e-002
22967	20.032	0.27273	0.1	4.8059e-003
22968	19.942	0.36364	0.1	5.8608e-003
22969	19.942	0.18182	0.1	5.6576e-003
22970	20.032	9.0909e-002	0.1	-2.8512e-002
22971	19.852	5.7273	0.1	9.2868e-003
22972	19.762	5.8182	0.1	7.1739e-003
22973	19.852	5.9091	0.1	-3.3558e-002
22974	19.852	5.5455	0.1	2.0991e-002
22975	19.762	5.6364	0.1	1.6034e-002
22976	19.852	5.3636	0.1	1.2313
22977	19.762	5.4545	0.1	9.5401e-002
22978	19.852	5.1818	0.1	8.1469
22979	19.762	5.2727	0.1	4.215
22980	19.852	5.	0.1	16.742
22981	19.762	5.0909	0.1	12.521
22982	19.852	4.8182	0.1	26.583
22983	19.762	4.9091	0.1	22.412
22984	19.852	4.6364	0.1	37.303
22985	19.762	4.7273	0.1	33.491
22986	19.852	4.4545	0.1	48.489
22987	19.762	4.5455	0.1	45.325
22988	19.852	4.2727	0.1	59.697
22989	19.762	4.3636	0.1	57.438
22990	19.852	4.0909	0.1	70.476
22991	19.762	4.1818	0.1	69.332
22992	19.852	3.9091	0.1	80.391
22993	19.762	4.	0.1	80.516
22994	19.852	3.7273	0.1	89.051
22995	19.762	3.8182	0.1	90.538
22996	19.852	3.5455	0.1	96.126
22997	19.762	3.6364	0.1	99.008
22998	19.852	3.3636	0.1	101.36
22999	19.762	3.4545	0.1	105.62
23000	19.852	3.1818	0.1	104.57
23001	19.762	3.2727	0.1	110.14
23002	19.852	3.	0.1	105.65
23003	19.762	3.0909	0.1	112.44
23004	19.852	2.8182	0.1	104.57
23005	19.762	2.9091	0.1	112.44
23006	19.852	2.6364	0.1	101.36
23007	19.762	2.7273	0.1	110.14
23008	19.852	2.4545	0.1	96.126
23009	19.762	2.5455	0.1	105.62
23010	19.852	2.2727	0.1	89.051
23011	19.762	2.3636	0.1	99.008
23012	19.852	2.0909	0.1	80.391
23013	19.762	2.1818	0.1	90.538
23014	19.852	1.9091	0.1	70.476
23015	19.762	2.	0.1	80.516
23016	19.852	1.7273	0.1	59.697
23017	19.762	1.8182	0.1	69.332
23018	19.852	1.5455	0.1	48.489
23019	19.762	1.6364	0.1	57.438
23020	19.852	1.3636	0.1	37.303
23021	19.762	1.4545	0.1	45.325
23022	19.852	1.1818	0.1	26.583
23023	19.762	1.2727	0.1	33.491
23024	19.852	1.	0.1	16.742
23025	19.762	1.0909	0.1	22.412
23026	19.852	0.81818	0.1	8.1469
23027	19.762	0.90909	0.1	12.521
23028	19.852	0.63636	0.1	1.2313
23029	19.762	0.72727	0.1	4.215
23030	19.852	0.45455	0.1	2.0991e-002
23031	19.762	0.54545	0.1	9.5401e-002
23032	19.852	0.27273	0.1	9.2882e-003
23033	19.762	0.36364	0.1	1.6036e-002
23034	19.762	0.18182	0.1	7.1748e-003
23035	19.852	9.0909e-002	0.1	-3.3558e-002
23036	19.672	5.7273	0.1	1.5191e-002
23037	19.582	5.8182	0.1	8.7254e-003
23038	19.672	5.9091	0.1	-3.828e-002
23039	19.672	5.5455	0.1	4.0168e-002
23040	19.582	5.6364	0.1	2.9174e-002
23041	19.672	5.3636	0.1	1.113
23042	19.582	5.4545	0.1	0.1261
23043	19.672	5.1818	0.1	8.5856
23044	19.582	5.2727	0.1	3.9949
23045	19.672	5.	0.1	18.21
23046	19.582	5.0909	0.1	13.152
23047	19.672	4.8182	0.1	29.339
23048	19.582	4.9091	0.1	24.243
23049	19.672	4.6364	0.1	41.529
23050	19.582	4.7273	0.1	36.762
23051	19.672	4.4545	0.1	54.287
23052	19.582	4.5455	0.1	50.193
23053	19.672	4.2727	0.1	67.083
23054	19.582	4.3636	0.1	63.969
23055	19.672	4.0909	0.1	79.38
23056	19.582	4.1818	0.1	77.494
23057	19.672	3.9091	0.1	90.67
23058	19.582	4.	0.1	90.188
23059	19.672	3.7273	0.1	100.5
23060	19.582	3.8182	0.1	101.52
23061	19.672	3.5455	0.1	108.5
23062	19.582	3.6364	0.1	111.06
23063	19.672	3.3636	0.1	114.4
23064	19.582	3.4545	0.1	118.47
23065	19.672	3.1818	0.1	118.01
23066	19.582	3.2727	0.1	123.52
23067	19.672	3.	0.1	119.23
23068	19.582	3.0909	0.1	126.07
23069	19.672	2.8182	0.1	118.01
23070	19.582	2.9091	0.1	126.07
23071	19.672	2.6364	0.1	114.4
23072	19.582	2.7273	0.1	123.52
23073	19.672	2.4545	0.1	108.5
23074	19.582	2.5455	0.1	118.47
23075	19.672	2.2727	0.1	100.5
23076	19.582	2.3636	0.1	111.06
23077	19.672	2.0909	0.1	90.67
23078	19.582	2.1818	0.1	101.52
23079	19.672	1.9091	0.1	79.38
23080	19.582	2.	0.1	90.188
23081	19.672	1.7273	0.1	67.083
23082	19.582	1.8182	0.1	77.494
23083	19.672	1.5455	0.1	54.287
23084	19.582	1.6364	0.1	63.969
23085	19.672	1.3636	0.1	41.529
23086	19.582	1.4545	0.1	50.193
23087	19.672	1.1818	0.1	29.339
23088	19.582	1.2727	0.1	36.762
23089	19.672	1.	0.1	18.21
23090	19.582	1.0909	0.1	24.243
23091	19.672	0.81818	0.1	8.5856
23092	19.582	0.90909	0.1	13.153
23093	19.672	0.63636	0.1	1.113
23094	19.582	0.72727	0.1	3.9949
23095	19.672	0.45455	0.1	4.0168e-002
23096	19.582	0.54545	0.1	0.1261
23097	19.672	0.27273	0.1	1.5192e-002
23098	19.582	0.36364	0.1	2.9176e-002
23099	19.582	0.18182	0.1	8.7268e-003
23100	19.672	9.0909e-002	0.1	-3.828e-002
23101	19.491	5.7273	0.1	2.2501e-002
23102	19.401	5.8182	0.1	1.0273e-002
23103	19.491	5.9091	0.1	-4.214e-002
23104	19.491	5.5455	0.1	6.1118e-002
23105	19.401	5.6364	0.1	4.5148e-002
23106	19.491	5.3636	0.1	0.8124
23107	19.401	5.4545	0.1	0.15035
23108	19.491	5.1818	0.1	8.5196
23109	19.401	5.2727	0.1	3.3253
23110	19.491	5.	0.1	19.194
23111	19.401	5.0909	0.1	13.257
23112	19.491	4.8182	0.1	31.677
23113	19.401	4.9091	0.1	25.582
23114	19.491	4.6364	0.1	45.435
23115	19.401	4.7273	0.1	39.618
23116	19.491	4.4545	0.1	59.88
23117	19.401	4.5455	0.1	54.753
23118	19.491	4.2727	0.1	74.383
23119	19.401	4.3636	0.1	70.311
23120	19.491	4.0909	0.1	88.304
23121	19.401	4.1818	0.1	85.582
23122	19.491	3.9091	0.1	101.04
23123	19.401	4.	0.1	99.873
23124	19.491	3.7273	0.1	112.09
23125	19.401	3.8182	0.1	112.57
23126	19.491	3.5455	0.1	121.03
23127	19.401	3.6364	0.1	123.18
23128	19.491	3.3636	0.1	127.59
23129	19.401	3.4545	0.1	131.35
23130	19.491	3.1818	0.1	131.58
23131	19.401	3.2727	0.1	136.89
23132	19.491	3.	0.1	132.92
23133	19.401	3.0909	0.1	139.68
23134	19.491	2.8182	0.1	131.58
23135	19.401	2.9091	0.1	139.68
23136	19.491	2.6364	0.1	127.59
23137	19.401	2.7273	0.1	136.89
23138	19.491	2.4545	0.1	121.03
23139	19.401	2.5455	0.1	131.35
23140	19.491	2.2727	0.1	112.09
23141	19.401	2.3636	0.1	123.18
23142	19.491	2.0909	0.1	101.04
23143	19.401	2.1818	0.1	112.57
23144	19.491	1.9091	0.1	88.304
23145	19.401	2.	0.1	99.873
23146	19.491	1.7273	0.1	74.383
23147	19.401	1.8182	0.1	85.582
23148	19.491	1.5455	0.1	59.88
23149	19.401	1.6364	0.1	70.311
23150	19.491	1.3636	0.1	45.435
23151	19.401	1.4545	0.1	54.753
23152	19.491	1.1818	0.1	31.677
23153	19.401	1.2727	0.1	39.618
23154	19.491	1.	0.1	19.194
23155	19.401	1.0909	0.1	25.582
23156	19.491	0.81818	0.1	8.5196
23157	19.401	0.90909	0.1	13.257
23158	19.491	0.63636	0.1	0.81241
23159	19.401	0.72727	0.1	3.3253
23160	19.491	0.45455	0.1	6.1119e-002
23161	19.401	0.54545	0.1	0.15035
23162	19.491	0.27273	0.1	2.2504e-002
23163	19.401	0.36364	0.1	4.515e-002
23164	19.401	0.18182	0.1	1.0274e-002
23165	19.491	9.0909e-002	0.1	-4.214e-002
23166	19.311	5.7273	0.1	3.135e-002
23167	19.221	5.8182	0.1	1.1879e-002
23168	19.311	5.9091	0.1	-4.4707e-002
23169	19.311	5.5455	0.1	8.3826e-002
23170	19.221	5.6364	0.1	6.4249e-002
23171	19.311	5.3636	0.1	0.58781
23172	19.221	5.4545	0.1	0.17455
23173	19.311	5.1818	0.1	7.9203
23174	19.221	5.2727	0.1	2.3583
23175	19.311	5.	0.1	19.633
23176	19.221	5.0909	0.1	12.784
23177	19.311	4.8182	0.1	33.517
23178	19.221	4.9091	0.1	26.343
23179	19.311	4.6364	0.1	48.929
23180	19.221	4.7273	0.1	41.95
23181	19.311	4.4545	0.1	65.175
23182	19.221	4.5455	0.1	58.884
23183	19.311	4.2727	0.1	81.501
23184	19.221	4.3636	0.1	76.342
23185	19.311	4.0909	0.1	97.143
23186	19.221	4.1818	0.1	93.469
23187	19.311	3.9091	0.1	111.39
23188	19.221	4.	0.1	109.43
23189	19.311	3.7273	0.1	123.66
23190	19.221	3.8182	0.1	123.5
23191	19.311	3.5455	0.1	133.51
23192	19.221	3.6364	0.1	135.13
23193	19.311	3.3636	0.1	140.67
23194	19.221	3.4545	0.1	143.99
23195	19.311	3.1818	0.1	145.01
23196	19.221	3.2727	0.1	149.93
23197	19.311	3.	0.1	146.46
23198	19.221	3.0909	0.1	152.89
23199	19.311	2.8182	0.1	145.01
23200	19.221	2.9091	0.1	152.89
23201	19.311	2.6364	0.1	140.67
23202	19.221	2.7273	0.1	149.93
23203	19.311	2.4545	0.1	133.51
23204	19.221	2.5455	0.1	143.99
23205	19.311	2.2727	0.1	123.66
23206	19.221	2.3636	0.1	135.13
23207	19.311	2.0909	0.1	111.39
23208	19.221	2.1818	0.1	123.5
23209	19.311	1.9091	0.1	97.143
23210	19.221	2.	0.1	109.43
23211	19.311	1.7273	0.1	81.501
23212	19.221	1.8182	0.1	93.469
23213	19.311	1.5455	0.1	65.175
23214	19.221	1.6364	0.1	76.342
23215	19.311	1.3636	0.1	48.929
23216	19.221	1.4545	0.1	58.884
23217	19.311	1.1818	0.1	33.517
23218	19.221	1.2727	0.1	41.95
23219	19.311	1.	0.1	19.633
23220	19.221	1.0909	0.1	26.343
23221	19.311	0.81818	0.1	7.9203
23222	19.221	0.90909	0.1	12.784
23223	19.311	0.63636	0.1	0.58781
23224	19.221	0.72727	0.1	2.3584
23225	19.311	0.45455	0.1	8.3827e-002
23226	19.221	0.54545	0.1	0.17455
23227	19.311	0.27273	0.1	3.135e-002
23228	19.221	0.36364	0.1	6.4249e-002
23229	19.221	0.18182	0.1	1.1877e-002
23230	19.311	9.0909e-002	0.1	-4.4704e-002
23231	19.131	5.7273	0.1	4.2127e-002
23232	19.041	5.8182	0.1	1.3829e-002
23233	19.131	5.9091	0.1	-4.5799e-002
23234	19.131	5.5455	0.1	0.10972
23235	19.041	5.6364	0.1	8.7332e-002
23236	19.131	5.3636	0.1	0.49081
23237	19.041	5.4545	0.1	0.20417
23238	19.131	5.1818	0.1	6.7874
23239	19.041	5.2727	0.1	1.5196
23240	19.131	5.	0.1	19.445
23241	19.041	5.0909	0.1	11.687
23242	19.131	4.8182	0.1	34.741
23243	19.041	4.9091	0.1	26.4
23244	19.131	4.6364	0.1	51.87
23245	19.041	4.7273	0.1	43.584
23246	19.131	4.4545	0.1	70.017
23247	19.041	4.5455	0.1	62.387
23248	19.131	4.2727	0.1	88.278
23249	19.041	4.3636	0.1	81.855
23250	19.131	4.0909	0.1	105.73
23251	19.041	4.1818	0.1	100.94
23252	19.131	3.9091	0.1	121.51
23253	19.041	4.	0.1	118.62
23254	19.131	3.7273	0.1	134.96
23255	19.041	3.8182	0.1	134.03
23256	19.131	3.5455	0.1	145.62
23257	19.041	3.6364	0.1	146.56
23258	19.131	3.3636	0.1	153.27
23259	19.041	3.4545	0.1	155.93
23260	19.131	3.1818	0.1	157.85
23261	19.041	3.2727	0.1	162.09
23262	19.131	3.	0.1	159.37
23263	19.041	3.0909	0.1	165.14
23264	19.131	2.8182	0.1	157.85
23265	19.041	2.9091	0.1	165.14
23266	19.131	2.6364	0.1	153.27
23267	19.041	2.7273	0.1	162.09
23268	19.131	2.4545	0.1	145.62
23269	19.041	2.5455	0.1	155.93
23270	19.131	2.2727	0.1	134.96
23271	19.041	2.3636	0.1	146.56
23272	19.131	2.0909	0.1	121.51
23273	19.041	2.1818	0.1	134.03
23274	19.131	1.9091	0.1	105.73
23275	19.041	2.	0.1	118.62
23276	19.131	1.7273	0.1	88.278
23277	19.041	1.8182	0.1	100.94
23278	19.131	1.5455	0.1	70.017
23279	19.041	1.6364	0.1	81.855
23280	19.131	1.3636	0.1	51.87
23281	19.041	1.4545	0.1	62.387
23282	19.131	1.1818	0.1	34.741
23283	19.041	1.2727	0.1	43.584
23284	19.131	1.	0.1	19.446
23285	19.041	1.0909	0.1	26.4
23286	19.131	0.81818	0.1	6.7874
23287	19.041	0.90909	0.1	11.688
23288	19.131	0.63636	0.1	0.49082
23289	19.041	0.72727	0.1	1.5196
23290	19.131	0.45455	0.1	0.10972
23291	19.041	0.54545	0.1	0.20417
23292	19.131	0.27273	0.1	4.2126e-002
23293	19.041	0.36364	0.1	8.7332e-002
23294	19.041	0.18182	0.1	1.3827e-002
23295	19.131	9.0909e-002	0.1	-4.5802e-002
23296	18.95	5.7273	0.1	5.5681e-002
23297	18.86	5.8182	0.1	1.6888e-002
23298	18.95	5.9091	0.1	-4.5546e-002
23299	18.95	5.5455	0.1	0.14121
23300	18.86	5.6364	0.1	0.11595
23301	18.95	5.3636	0.1	0.46734
23302	18.86	5.4545	0.1	0.24398
23303	18.95	5.1818	0.1	5.2058
23304	18.86	5.2727	0.1	1.1091
23305	18.95	5.	0.1	18.522
23306	18.86	5.0909	0.1	9.9273
23307	18.95	4.8182	0.1	35.16
23308	18.86	4.9091	0.1	25.557
23309	18.95	4.6364	0.1	54.02
23310	18.86	4.7273	0.1	44.232
23311	18.95	4.4545	0.1	74.146
23312	18.86	4.5455	0.1	64.924
23313	18.95	4.2727	0.1	94.448
23314	18.86	4.3636	0.1	86.502
23315	18.95	4.0909	0.1	113.78
23316	18.86	4.1818	0.1	107.66
23317	18.95	3.9091	0.1	131.09
23318	18.86	4.	0.1	127.1
23319	18.95	3.7273	0.1	145.61
23320	18.86	3.8182	0.1	143.74
23321	18.95	3.5455	0.1	156.88
23322	18.86	3.6364	0.1	156.94
23323	18.95	3.3636	0.1	164.79
23324	18.86	3.4545	0.1	166.5
23325	18.95	3.1818	0.1	169.44
23326	18.86	3.2727	0.1	172.59
23327	18.95	3.	0.1	170.97
23328	18.86	3.0909	0.1	175.53
23329	18.95	2.8182	0.1	169.44
23330	18.86	2.9091	0.1	175.53
23331	18.95	2.6364	0.1	164.79
23332	18.86	2.7273	0.1	172.59
23333	18.95	2.4545	0.1	156.88
23334	18.86	2.5455	0.1	166.5
23335	18.95	2.2727	0.1	145.61
23336	18.86	2.3636	0.1	156.94
23337	18.95	2.0909	0.1	131.09
23338	18.86	2.1818	0.1	143.74
23339	18.95	1.9091	0.1	113.78
23340	18.86	2.	0.1	127.1
23341	18.95	1.7273	0.1	94.448
23342	18.86	1.8182	0.1	107.66
23343	18.95	1.5455	0.1	74.146
23344	18.86	1.6364	0.1	86.502
23345	18.95	1.3636	0.1	54.02
23346	18.86	1.4545	0.1	64.924
23347	18.95	1.1818	0.1	35.16
23348	18.86	1.2727	0.1	44.232
23349	18.95	1.	0.1	18.522
23350	18.86	1.0909	0.1	25.557
23351	18.95	0.81818	0.1	5.2059
23352	18.86	0.90909	0.1	9.9273
23353	18.95	0.63636	0.1	0.46734
23354	18.86	0.72727	0.1	1.1091
23355	18.95	0.45455	0.1	0.14121
23356	18.86	0.54545	0.1	0.24398
23357	18.95	0.27273	0.1	5.5681e-002
23358	18.86	0.36364	0.1	0.11595
23359	18.86	0.18182	0.1	1.6889e-002
23360	18.95	9.0909e-002	0.1	-4.5544e-002
23361	18.77	5.7273	0.1	7.3607e-002
23362	18.68	5.8182	0.1	2.2858e-002
23363	18.77	5.9091	0.1	-4.4439e-002
23364	18.77	5.5455	0.1	0.18169
23365	18.68	5.6364	0.1	0.1527
23366	18.77	5.3636	0.1	0.48812
23367	18.68	5.4545	0.1	0.29939
23368	18.77	5.1818	0.1	3.5133
23369	18.68	5.2727	0.1	0.97113
23370	18.77	5.	0.1	16.699
23371	18.68	5.0909	0.1	7.5402
23372	18.77	4.8182	0.1	34.46
23373	18.68	4.9091	0.1	23.493
23374	18.77	4.6364	0.1	54.974
23375	18.68	4.7273	0.1	43.401
23376	18.77	4.4545	0.1	77.123
23377	18.68	4.5455	0.1	65.915
23378	18.77	4.2727	0.1	99.572
23379	18.68	4.3636	0.1	89.69
23380	18.77	4.0909	0.1	120.86
23381	18.68	4.1818	0.1	113.06
23382	18.77	3.9091	0.1	139.66
23383	18.68	4.	0.1	134.3
23384	18.77	3.7273	0.1	155.03
23385	18.68	3.8182	0.1	152.01
23386	18.77	3.5455	0.1	166.57
23387	18.68	3.6364	0.1	165.46
23388	18.77	3.3636	0.1	174.37
23389	18.68	3.4545	0.1	174.69
23390	18.77	3.1818	0.1	178.8
23391	18.68	3.2727	0.1	180.23
23392	18.77	3.	0.1	180.23
23393	18.68	3.0909	0.1	182.78
23394	18.77	2.8182	0.1	178.8
23395	18.68	2.9091	0.1	182.78
23396	18.77	2.6364	0.1	174.37
23397	18.68	2.7273	0.1	180.23
23398	18.77	2.4545	0.1	166.57
23399	18.68	2.5455	0.1	174.69
23400	18.77	2.2727	0.1	155.03
23401	18.68	2.3636	0.1	165.46
23402	18.77	2.0909	0.1	139.66
23403	18.68	2.1818	0.1	152.01
23404	18.77	1.9091	0.1	120.86
23405	18.68	2.	0.1	134.3
23406	18.77	1.7273	0.1	99.572
23407	18.68	1.8182	0.1	113.06
23408	18.77	1.5455	0.1	77.123
23409	18.68	1.6364	0.1	89.69
23410	18.77	1.3636	0.1	54.975
23411	18.68	1.4545	0.1	65.915
23412	18.77	1.1818	0.1	34.46
23413	18.68	1.2727	0.1	43.401
23414	18.77	1.	0.1	16.699
23415	18.68	1.0909	0.1	23.493
23416	18.77	0.81818	0.1	3.5133
23417	18.68	0.90909	0.1	7.5402
23418	18.77	0.63636	0.1	0.48812
23419	18.68	0.72727	0.1	0.97113
23420	18.77	0.45455	0.1	0.18169
23421	18.68	0.54545	0.1	0.29939
23422	18.77	0.27273	0.1	7.3608e-002
23423	18.68	0.36364	0.1	0.1527
23424	18.68	0.18182	0.1	2.2859e-002
23425	18.77	9.0909e-002	0.1	-4.4438e-002
23426	18.59	5.7273	0.1	9.8976e-002
23427	18.5	5.8182	0.1	3.5737e-002
23428	18.59	5.9091	0.1	-4.3334e-002
23429	18.59	5.5455	0.1	0.23621
23430	18.5	5.6364	0.1	0.20222
23431	18.59	5.3636	0.1	0.54464
23432	18.5	5.4545	0.1	0.37803
23433	18.59	5.1818	0.1	2.3358
23434	18.5	5.2727	0.1	0.96167
23435	18.59	5.	0.1	13.75
23436	18.5	5.0909	0.1	4.9199
23437	18.59	4.8182	0.1	32.116
23438	18.5	4.9091	0.1	19.707
23439	18.59	4.6364	0.1	54.042
23440	18.5	4.7273	0.1	40.255
23441	18.59	4.4545	0.1	78.194
23442	18.5	4.5455	0.1	64.36
23443	18.59	4.2727	0.1	102.92
23444	18.5	4.3636	0.1	90.409
23445	18.59	4.0909	0.1	126.28
23446	18.5	4.1818	0.1	116.21
23447	18.59	3.9091	0.1	146.49
23448	18.5	4.	0.1	139.35
23449	18.59	3.7273	0.1	162.37
23450	18.5	3.8182	0.1	157.87
23451	18.59	3.5455	0.1	173.61
23452	18.5	3.6364	0.1	170.96
23453	18.59	3.3636	0.1	180.69
23454	18.5	3.4545	0.1	179.02
23455	18.59	3.1818	0.1	184.43
23456	18.5	3.2727	0.1	183.25
23457	18.59	3.	0.1	185.58
23458	18.5	3.0909	0.1	184.96
23459	18.59	2.8182	0.1	184.43
23460	18.5	2.9091	0.1	184.96
23461	18.59	2.6364	0.1	180.69
23462	18.5	2.7273	0.1	183.25
23463	18.59	2.4545	0.1	173.61
23464	18.5	2.5455	0.1	179.02
23465	18.59	2.2727	0.1	162.37
23466	18.5	2.3636	0.1	170.96
23467	18.59	2.0909	0.1	146.49
23468	18.5	2.1818	0.1	157.87
23469	18.59	1.9091	0.1	126.28
23470	18.5	2.	0.1	139.35
23471	18.59	1.7273	0.1	102.92
23472	18.5	1.8182	0.1	116.21
23473	18.59	1.5455	0.1	78.194
23474	18.5	1.6364	0.1	90.409
23475	18.59	1.3636	0.1	54.042
23476	18.5	1.4545	0.1	64.36
23477	18.59	1.1818	0.1	32.116
23478	18.5	1.2727	0.1	40.255
23479	18.59	1.	0.1	13.75
23480	18.5	1.0909	0.1	19.707
23481	18.59	0.81818	0.1	2.3358
23482	18.5	0.90909	0.1	4.9199
23483	18.59	0.63636	0.1	0.54464
23484	18.5	0.72727	0.1	0.96167
23485	18.59	0.45455	0.1	0.23621
23486	18.5	0.54545	0.1	0.37803
23487	18.59	0.27273	0.1	9.8977e-002
23488	18.5	0.36364	0.1	0.20222
23489	18.5	0.18182	0.1	3.5737e-002
23490	18.59	9.0909e-002	0.1	-4.3335e-002
23491	18.409	5.7273	0.1	0.13782
23492	18.319	5.8182	0.1	6.4587e-002
23493	18.409	5.9091	0.1	-4.3552e-002
23494	18.409	5.5455	0.1	0.31284
23495	18.319	5.6364	0.1	0.27382
23496	18.409	5.3636	0.1	0.63825
23497	18.319	5.4545	0.1	0.49209
23498	18.409	5.1818	0.1	1.8022
23499	18.319	5.2727	0.1	1.0276
23500	18.409	5.	0.1	9.5374
23501	18.319	5.0909	0.1	3.0606
23502	18.409	4.8182	0.1	27.265
23503	18.319	4.9091	0.1	13.619
23504	18.409	4.6364	0.1	50.04
23505	18.319	4.7273	0.1	33.423
23506	18.409	4.4545	0.1	76.071
23507	18.319	4.5455	0.1	58.55
23508	18.409	4.2727	0.1	103.25
23509	18.319	4.3636	0.1	86.936
23510	18.409	4.0909	0.1	128.9
23511	18.319	4.1818	0.1	115.59
23512	18.409	3.9091	0.1	150.47
23513	18.319	4.	0.1	140.89
23514	18.409	3.7273	0.1	166.35
23515	18.319	3.8182	0.1	159.93
23516	18.409	3.5455	0.1	176.44
23517	18.319	3.6364	0.1	171.69
23518	18.409	3.3636	0.1	181.83
23519	18.319	3.4545	0.1	177.3
23520	18.409	3.1818	0.1	184.16
23521	18.319	3.2727	0.1	179.07
23522	18.409	3.	0.1	184.77
23523	18.319	3.0909	0.1	179.28
23524	18.409	2.8182	0.1	184.16
23525	18.319	2.9091	0.1	179.28
23526	18.409	2.6364	0.1	181.83
23527	18.319	2.7273	0.1	179.07
23528	18.409	2.4545	0.1	176.44
23529	18.319	2.5455	0.1	177.3
23530	18.409	2.2727	0.1	166.35
23531	18.319	2.3636	0.1	171.69
23532	18.409	2.0909	0.1	150.47
23533	18.319	2.1818	0.1	159.93
23534	18.409	1.9091	0.1	128.9
23535	18.319	2.	0.1	140.89
23536	18.409	1.7273	0.1	103.25
23537	18.319	1.8182	0.1	115.59
23538	18.409	1.5455	0.1	76.071
23539	18.319	1.6364	0.1	86.936
23540	18.409	1.3636	0.1	50.04
23541	18.319	1.4545	0.1	58.55
23542	18.409	1.1818	0.1	27.265
23543	18.319	1.2727	0.1	33.423
23544	18.409	1.	0.1	9.5374
23545	18.319	1.0909	0.1	13.619
23546	18.409	0.81818	0.1	1.8022
23547	18.319	0.90909	0.1	3.0607
23548	18.409	0.63636	0.1	0.63825
23549	18.319	0.72727	0.1	1.0276
23550	18.409	0.45455	0.1	0.31285
23551	18.319	0.54545	0.1	0.4921
23552	18.409	0.27273	0.1	0.13782
23553	18.319	0.36364	0.1	0.27382
23554	18.319	0.18182	0.1	6.4587e-002
23555	18.409	9.0909e-002	0.1	-4.3552e-002
23556	18.229	5.7273	0.1	0.20347
23557	18.139	5.8182	0.1	0.12763
23558	18.229	5.9091	0.1	-4.5771e-002
23559	18.229	5.5455	0.1	0.42663
23560	18.139	5.6364	0.1	0.38602
23561	18.229	5.3636	0.1	0.77706
23562	18.139	5.4545	0.1	0.66023
23563	18.229	5.1818	0.1	1.6033
23564	18.139	5.2727	0.1	1.1487
23565	18.229	5.	0.1	5.0825
23566	18.139	5.0909	0.1	2.211
23567	18.229	4.8182	0.1	18.731
23568	18.139	4.9091	0.1	6.323
23569	18.229	4.6364	0.1	41.018
23570	18.139	4.7273	0.1	21.062
23571	18.229	4.4545	0.1	68.562
23572	18.139	4.5455	0.1	45.669
23573	18.229	4.2727	0.1	98.516
23574	18.139	4.3636	0.1	76.313
23575	18.229	4.0909	0.1	126.96
23576	18.139	4.1818	0.1	108.62
23577	18.229	3.9091	0.1	149.93
23578	18.139	4.	0.1	136.8
23579	18.229	3.7273	0.1	165.12
23580	18.139	3.8182	0.1	156.06
23581	18.229	3.5455	0.1	172.73
23582	18.139	3.6364	0.1	165.1
23583	18.229	3.3636	0.1	175.02
23584	18.139	3.4545	0.1	166.36
23585	18.229	3.1818	0.1	174.88
23586	18.139	3.2727	0.1	164.04
23587	18.229	3.	0.1	174.56
23588	18.139	3.0909	0.1	161.86
23589	18.229	2.8182	0.1	174.88
23590	18.139	2.9091	0.1	161.86
23591	18.229	2.6364	0.1	175.02
23592	18.139	2.7273	0.1	164.04
23593	18.229	2.4545	0.1	172.73
23594	18.139	2.5455	0.1	166.36
23595	18.229	2.2727	0.1	165.12
23596	18.139	2.3636	0.1	165.1
23597	18.229	2.0909	0.1	149.93
23598	18.139	2.1818	0.1	156.06
23599	18.229	1.9091	0.1	126.96
23600	18.139	2.	0.1	136.8
23601	18.229	1.7273	0.1	98.516
23602	18.139	1.8182	0.1	108.62
23603	18.229	1.5455	0.1	68.562
23604	18.139	1.6364	0.1	76.313
23605	18.229	1.3636	0.1	41.018
23606	18.139	1.4545	0.1	45.669
23607	18.229	1.1818	0.1	18.731
23608	18.139	1.2727	0.1	21.062
23609	18.229	1.	0.1	5.0826
23610	18.139	1.0909	0.1	6.323
23611	18.229	0.81818	0.1	1.6033
23612	18.139	0.90909	0.1	2.211
23613	18.229	0.63636	0.1	0.77706
23614	18.139	0.72727	0.1	1.1487
23615	18.229	0.45455	0.1	0.42663
23616	18.139	0.54545	0.1	0.66023
23617	18.229	0.27273	0.1	0.20347
23618	18.139	0.36364	0.1	0.38602
23619	18.139	0.18182	0.1	0.12764
23620	18.229	9.0909e-002	0.1	-4.5771e-002
23621	18.049	5.7273	0.1	0.32149
23622	17.959	5.8182	0.1	0.26811
23623	18.049	5.9091	0.1	-5.2658e-002
23624	18.049	5.5455	0.1	0.60251
23625	17.959	5.6364	0.1	0.58387
23626	18.049	5.3636	0.1	0.9696
23627	17.959	5.4545	0.1	0.9157
23628	18.049	5.1818	0.1	1.5497
23629	17.959	5.2727	0.1	1.3147
23630	18.049	5.	0.1	2.7966
23631	17.959	5.0909	0.1	1.8562
23632	18.049	4.8182	0.1	7.5413
23633	17.959	4.9091	0.1	2.909
23634	18.049	4.6364	0.1	24.292
23635	17.959	4.7273	0.1	6.4553
23636	18.049	4.4545	0.1	52.032
23637	17.959	4.5455	0.1	22.267
23638	18.049	4.2727	0.1	85.204
23639	17.959	4.3636	0.1	53.667
23640	18.049	4.0909	0.1	117.5
23641	17.959	4.1818	0.1	90.98
23642	18.049	3.9091	0.1	142.31
23643	17.959	4.	0.1	123.74
23644	18.049	3.7273	0.1	155.91
23645	17.959	3.8182	0.1	143.15
23646	18.049	3.5455	0.1	159.14
23647	17.959	3.6364	0.1	147.37
23648	18.049	3.3636	0.1	156.27
23649	17.959	3.4545	0.1	141.58
23650	18.049	3.1818	0.1	152.23
23651	17.959	3.2727	0.1	133.14
23652	18.049	3.	0.1	150.48
23653	17.959	3.0909	0.1	127.6
23654	18.049	2.8182	0.1	152.23
23655	17.959	2.9091	0.1	127.6
23656	18.049	2.6364	0.1	156.27
23657	17.959	2.7273	0.1	133.14
23658	18.049	2.4545	0.1	159.14
23659	17.959	2.5455	0.1	141.58
23660	18.049	2.2727	0.1	155.91
23661	17.959	2.3636	0.1	147.37
23662	18.049	2.0909	0.1	142.31
23663	17.959	2.1818	0.1	143.15
23664	18.049	1.9091	0.1	117.5
23665	17.959	2.	0.1	123.74
23666	18.049	1.7273	0.1	85.204
23667	17.959	1.8182	0.1	90.98
23668	18.049	1.5455	0.1	52.031
23669	17.959	1.6364	0.1	53.667
23670	18.049	1.3636	0.1	24.292
23671	17.959	1.4545	0.1	22.267
23672	18.049	1.1818	0.1	7.5413
23673	17.959	1.2727	0.1	6.4553
23674	18.049	1.	0.1	2.7966
23675	17.959	1.0909	0.1	2.909
23676	18.049	0.81818	0.1	1.5497
23677	17.959	0.90909	0.1	1.8562
23678	18.049	0.63636	0.1	0.9696
23679	17.959	0.72727	0.1	1.3147
23680	18.049	0.45455	0.1	0.60252
23681	17.959	0.54545	0.1	0.9157
23682	18.049	0.27273	0.1	0.32149
23683	17.959	0.36364	0.1	0.58387
23684	17.959	0.18182	0.1	0.26811
23685	18.049	9.0909e-002	0.1	-5.2658e-002
23686	17.868	5.7273	0.1	0.55986
23687	17.778	5.8182	0.1	0.56071
23688	17.868	5.9091	0.1	-5.1544e-002
23689	17.868	5.5455	0.1	0.89788
23690	17.778	5.6364	0.1	0.94711
23691	17.868	5.3636	0.1	1.2312
23692	17.778	5.4545	0.1	1.279
23693	17.868	5.1818	0.1	1.5713
23694	17.778	5.2727	0.1	1.4868
23695	17.868	5.	0.1	2.0333
23696	17.778	5.0909	0.1	1.6891
23697	17.868	4.8182	0.1	2.9452
23698	17.778	4.9091	0.1	2.0039
23699	17.868	4.6364	0.1	5.9831
23700	17.778	4.7273	0.1	2.666
23701	17.868	4.4545	0.1	22.298
23702	17.778	4.5455	0.1	4.5393
23703	17.868	4.2727	0.1	57.6
23704	17.778	4.3636	0.1	15.563
23705	17.868	4.0909	0.1	95.801
23706	17.778	4.1818	0.1	55.163
23707	17.868	3.9091	0.1	123.79
23708	17.778	4.	0.1	95.913
23709	17.868	3.7273	0.1	134.66
23710	17.778	3.8182	0.1	116.05
23711	17.868	3.5455	0.1	130.75
23712	17.778	3.6364	0.1	112.64
23713	17.868	3.3636	0.1	120.09
23714	17.778	3.4545	0.1	96.433
23715	17.868	3.1818	0.1	110.54
23716	17.778	3.2727	0.1	80.094
23717	17.868	3.	0.1	106.87
23718	17.778	3.0909	0.1	70.68
23719	17.868	2.8182	0.1	110.54
23720	17.778	2.9091	0.1	70.68
23721	17.868	2.6364	0.1	120.09
23722	17.778	2.7273	0.1	80.094
23723	17.868	2.4545	0.1	130.75
23724	17.778	2.5455	0.1	96.433
23725	17.868	2.2727	0.1	134.66
23726	17.778	2.3636	0.1	112.64
23727	17.868	2.0909	0.1	123.79
23728	17.778	2.1818	0.1	116.05
23729	17.868	1.9091	0.1	95.801
23730	17.778	2.	0.1	95.913
23731	17.868	1.7273	0.1	57.6
23732	17.778	1.8182	0.1	55.163
23733	17.868	1.5455	0.1	22.298
23734	17.778	1.6364	0.1	15.563
23735	17.868	1.3636	0.1	5.9831
23736	17.778	1.4545	0.1	4.5393
23737	17.868	1.1818	0.1	2.9452
23738	17.778	1.2727	0.1	2.666
23739	17.868	1.	0.1	2.0333
23740	17.778	1.0909	0.1	2.0039
23741	17.868	0.81818	0.1	1.5713
23742	17.778	0.90909	0.1	1.6891
23743	17.868	0.63636	0.1	1.2312
23744	17.778	0.72727	0.1	1.4868
23745	17.868	0.45455	0.1	0.89788
23746	17.778	0.54545	0.1	1.279
23747	17.868	0.27273	0.1	0.55986
23748	17.778	0.36364	0.1	0.94711
23749	17.778	0.18182	0.1	0.56071
23750	17.868	9.0909e-002	0.1	-5.1543e-002
23751	17.688	5.7273	0.1	1.0185
23752	17.598	5.8182	0.1	1.2607
23753	17.688	5.9091	0.1	-6.101e-002
23754	17.688	5.5455	0.1	1.3513
23755	17.598	5.6364	0.1	1.7066
23756	17.688	5.3636	0.1	1.5053
23757	17.598	5.4545	0.1	1.79
23758	17.688	5.1818	0.1	1.5782
23759	17.598	5.2727	0.1	1.6764
23760	17.688	5.	0.1	1.7134
23761	17.598	5.0909	0.1	1.6566
23762	17.688	4.8182	0.1	2.0227
23763	17.598	4.9091	0.1	1.8075
23764	17.688	4.6364	0.1	2.6806
23765	17.598	4.7273	0.1	2.1437
23766	17.688	4.4545	0.1	4.0477
23767	17.598	4.5455	0.1	2.6915
23768	17.688	4.2727	0.1	13.162
23769	17.598	4.3636	0.1	4.7164
23770	17.688	4.0909	0.1	53.276
23771	17.598	4.1818	0.1	8.9285
23772	17.688	3.9091	0.1	87.351
23773	17.598	4.	0.1	43.952
23774	17.688	3.7273	0.1	94.781
23775	17.598	3.8182	0.1	67.39
23776	17.688	3.5455	0.1	80.509
23777	17.598	3.6364	0.1	52.024
23778	17.688	3.3636	0.1	59.44
23779	17.598	3.4545	0.1	23.567
23780	17.688	3.1818	0.1	43.456
23781	17.598	3.2727	0.1	3.423
23782	17.688	3.	0.1	37.707
23783	17.598	3.0909	0.1	-0.33943
23784	17.688	2.8182	0.1	43.456
23785	17.598	2.9091	0.1	-0.33943
23786	17.688	2.6364	0.1	59.44
23787	17.598	2.7273	0.1	3.423
23788	17.688	2.4545	0.1	80.509
23789	17.598	2.5455	0.1	23.567
23790	17.688	2.2727	0.1	94.781
23791	17.598	2.3636	0.1	52.024
23792	17.688	2.0909	0.1	87.351
23793	17.598	2.1818	0.1	67.39
23794	17.688	1.9091	0.1	53.276
23795	17.598	2.	0.1	43.951
23796	17.688	1.7273	0.1	13.162
23797	17.598	1.8182	0.1	8.9285
23798	17.688	1.5455	0.1	4.0477
23799	17.598	1.6364	0.1	4.7164
23800	17.688	1.3636	0.1	2.6806
23801	17.598	1.4545	0.1	2.6915
23802	17.688	1.1818	0.1	2.0227
23803	17.598	1.2727	0.1	2.1437
23804	17.688	1.	0.1	1.7134
23805	17.598	1.0909	0.1	1.8075
23806	17.688	0.81818	0.1	1.5782
23807	17.598	0.90909	0.1	1.6566
23808	17.688	0.63636	0.1	1.5053
23809	17.598	0.72727	0.1	1.6764
23810	17.688	0.45455	0.1	1.3513
23811	17.598	0.54545	0.1	1.79
23812	17.688	0.27273	0.1	1.0185
23813	17.598	0.36364	0.1	1.7066
23814	17.598	0.18182	0.1	1.2607
23815	17.688	9.0909e-002	0.1	-6.101e-002
23816	17.508	5.7273	0.1	2.1077
23817	17.418	5.8182	0.1	2.596
23818	17.508	5.9091	0.1	0.15456
23819	17.508	5.5455	0.1	2.1223
23820	17.418	5.6364	0.1	2.7113
23821	17.508	5.3636	0.1	1.8595
23822	17.418	5.4545	0.1	2.0145
23823	17.508	5.1818	0.1	1.6986
23824	17.418	5.2727	0.1	1.5102
23825	17.508	5.	0.1	1.7581
23826	17.418	5.0909	0.1	1.3488
23827	17.508	4.8182	0.1	2.0057
23828	17.418	4.9091	0.1	1.3907
23829	17.508	4.6364	0.1	2.3644
23830	17.418	4.7273	0.1	1.6453
23831	17.508	4.4545	0.1	4.0512
23832	17.418	4.5455	0.1	2.207
23833	17.508	4.2727	0.1	5.4861
23834	17.418	4.3636	0.1	3.4591
23835	17.508	4.0909	0.1	8.066
23836	17.418	4.1818	0.1	2.3217
23837	17.508	3.9091	0.1	23.448
23838	17.418	4.	0.1	-11.923
23839	17.508	3.7273	0.1	27.919
23840	17.418	3.8182	0.1	-2.5768
23841	17.508	3.5455	0.1	7.1367
23842	17.418	3.6364	0.1	4.2936
23843	17.508	3.3636	0.1	0.87576
23844	17.418	3.4545	0.1	0.73191
23845	17.508	3.1818	0.1	-0.28745
23846	17.418	3.2727	0.1	-1.8671e-002
23847	17.508	3.	0.1	-0.46549
23848	17.418	3.0909	0.1	-0.2115
23849	17.508	2.8182	0.1	-0.28745
23850	17.418	2.9091	0.1	-0.2115
23851	17.508	2.6364	0.1	0.87576
23852	17.418	2.7273	0.1	-1.8671e-002
23853	17.508	2.4545	0.1	7.1367
23854	17.418	2.5455	0.1	0.73191
23855	17.508	2.2727	0.1	27.919
23856	17.418	2.3636	0.1	4.2936
23857	17.508	2.0909	0.1	23.448
23858	17.418	2.1818	0.1	-2.5768
23859	17.508	1.9091	0.1	8.066
23860	17.418	2.	0.1	-11.923
23861	17.508	1.7273	0.1	5.4861
23862	17.418	1.8182	0.1	2.3217
23863	17.508	1.5455	0.1	4.0512
23864	17.418	1.6364	0.1	3.4591
23865	17.508	1.3636	0.1	2.3644
23866	17.418	1.4545	0.1	2.207
23867	17.508	1.1818	0.1	2.0057
23868	17.418	1.2727	0.1	1.6453
23869	17.508	1.	0.1	1.7581
23870	17.418	1.0909	0.1	1.3907
23871	17.508	0.81818	0.1	1.6986
23872	17.418	0.90909	0.1	1.3488
23873	17.508	0.63636	0.1	1.8595
23874	17.418	0.72727	0.1	1.5102
23875	17.508	0.45455	0.1	2.1223
23876	17.418	0.54545	0.1	2.0145
23877	17.508	0.27273	0.1	2.1077
23878	17.418	0.36364	0.1	2.7113
23879	17.418	0.18182	0.1	2.596
23880	17.508	9.0909e-002	0.1	0.15456
23881	17.327	5.7273	0.1	3.4261
23882	17.237	5.8182	0.1	6.7115
23883	17.327	5.9091	0.1	0.37247
23884	17.327	5.5455	0.1	2.2261
23885	17.237	5.6364	0.1	4.1504
23886	17.327	5.3636	0.1	1.4335
23887	17.237	5.4545	0.1	2.8108
23888	17.327	5.1818	0.1	1.0617
23889	17.237	5.2727	0.1	2.246
23890	17.327	5.	0.1	0.94417
23891	17.237	5.0909	0.1	2.1396
23892	17.327	4.8182	0.1	1.034
23893	17.237	4.9091	0.1	2.4891
23894	17.327	4.6364	0.1	1.5223
23895	17.237	4.7273	0.1	2.4593
23896	17.327	4.4545	0.1	1.6741
23897	17.237	4.5455	0.1	6.1212
23898	17.327	4.2727	0.1	-3.045e-002
23899	17.237	4.3636	0.1	-0.14245
23900	17.327	4.0909	0.1	-16.408
23901	17.237	4.1818	0.1	31.617
23902	17.327	3.9091	0.1	-23.402
23903	17.237	4.	0.1	93.897
23904	17.327	3.7273	0.1	-2.4576
23905	17.237	3.8182	0.1	4.5473
23906	17.327	3.5455	0.1	3.011
23907	17.237	3.6364	0.1	6.8551
23908	17.327	3.3636	0.1	0.15441
23909	17.237	3.4545	0.1	-0.62906
23910	17.327	3.1818	0.1	1.1017e-002
23911	17.237	3.2727	0.1	0.70788
23912	17.327	3.	0.1	-4.1919e-002
23913	17.237	3.0909	0.1	9.1239e-002
23914	17.327	2.8182	0.1	1.1016e-002
23915	17.237	2.9091	0.1	9.1238e-002
23916	17.327	2.6364	0.1	0.15441
23917	17.237	2.7273	0.1	0.70788
23918	17.327	2.4545	0.1	3.011
23919	17.237	2.5455	0.1	-0.62906
23920	17.327	2.2727	0.1	-2.4576
23921	17.237	2.3636	0.1	6.8551
23922	17.327	2.0909	0.1	-23.402
23923	17.237	2.1818	0.1	4.5473
23924	17.327	1.9091	0.1	-16.408
23925	17.237	2.	0.1	93.897
23926	17.327	1.7273	0.1	-3.0451e-002
23927	17.237	1.8182	0.1	31.617
23928	17.327	1.5455	0.1	1.6741
23929	17.237	1.6364	0.1	-0.14245
23930	17.327	1.3636	0.1	1.5223
23931	17.237	1.4545	0.1	6.1212
23932	17.327	1.1818	0.1	1.034
23933	17.237	1.2727	0.1	2.4593
23934	17.327	1.	0.1	0.94416
23935	17.237	1.0909	0.1	2.4891
23936	17.327	0.81818	0.1	1.0617
23937	17.237	0.90909	0.1	2.1396
23938	17.327	0.63636	0.1	1.4335
23939	17.237	0.72727	0.1	2.246
23940	17.327	0.45455	0.1	2.2261
23941	17.237	0.54545	0.1	2.8108
23942	17.327	0.27273	0.1	3.4261
23943	17.237	0.36364	0.1	4.1504
23944	17.237	0.18182	0.1	6.7115
23945	17.327	9.0909e-002	0.1	0.37247
23946	17.147	5.7273	0.1	6.3262
23947	17.057	5.8182	0.1	0.30012
23948	17.147	5.9091	0.1	5.0877
23949	17.147	5.5455	0.1	3.728
23950	17.057	5.6364	0.1	-1.2094
23951	17.147	5.3636	0.1	3.1368
23952	17.057	5.4545	0.1	-0.80208
23953	17.147	5.1818	0.1	3.0026
23954	17.057	5.2727	0.1	-0.8056
23955	17.147	5.	0.1	3.4203
23956	17.057	5.0909	0.1	-0.9386
23957	17.147	4.8182	0.1	3.6695
23958	17.057	4.9091	0.1	-0.45013
23959	17.147	4.6364	0.1	6.7969
23960	17.057	4.7273	0.1	-2.4016
23961	17.147	4.4545	0.1	3.9892
23962	17.057	4.5455	0.1	5.5874
23963	17.147	4.2727	0.1	30.998
23964	17.057	4.3636	0.1	-26.325
23965	17.147	4.0909	0.1	141.8
23966	17.057	4.1818	0.1	113.73
23967	17.147	3.9091	0.1	94.217
23968	17.057	4.	0.1	220.14
23969	17.147	3.7273	0.1	10.617
23970	17.057	3.8182	0.1	6.7918
23971	17.147	3.5455	0.1	3.1357
23972	17.057	3.6364	0.1	12.211
23973	17.147	3.3636	0.1	-0.21795
23974	17.057	3.4545	0.1	-1.1405
23975	17.147	3.1818	0.1	0.72919
23976	17.057	3.2727	0.1	1.5437
23977	17.147	3.	0.1	0.16326
23978	17.057	3.0909	0.1	0.52716
23979	17.147	2.8182	0.1	0.72919
23980	17.057	2.9091	0.1	0.52715
23981	17.147	2.6364	0.1	-0.21795
23982	17.057	2.7273	0.1	1.5437
23983	17.147	2.4545	0.1	3.1357
23984	17.057	2.5455	0.1	-1.1405
23985	17.147	2.2727	0.1	10.617
23986	17.057	2.3636	0.1	12.211
23987	17.147	2.0909	0.1	94.217
23988	17.057	2.1818	0.1	6.7919
23989	17.147	1.9091	0.1	141.8
23990	17.057	2.	0.1	220.14
23991	17.147	1.7273	0.1	30.998
23992	17.057	1.8182	0.1	113.73
23993	17.147	1.5455	0.1	3.9892
23994	17.057	1.6364	0.1	-26.325
23995	17.147	1.3636	0.1	6.7969
23996	17.057	1.4545	0.1	5.5874
23997	17.147	1.1818	0.1	3.6695
23998	17.057	1.2727	0.1	-2.4016
23999	17.147	1.	0.1	3.4203
24000	17.057	1.0909	0.1	-0.45014
24001	17.147	0.81818	0.1	3.0026
24002	17.057	0.90909	0.1	-0.9386
24003	17.147	0.63636	0.1	3.1368
24004	17.057	0.72727	0.1	-0.8056
24005	17.147	0.45455	0.1	3.728
24006	17.057	0.54545	0.1	-0.80208
24007	17.147	0.27273	0.1	6.3262
24008	17.057	0.36364	0.1	-1.2094
24009	17.057	0.18182	0.1	0.30012
24010	17.147	9.0909e-002	0.1	5.0877
24011	0.18462	0.27273	0.1	410.23
24012	0.27692	0.18182	0.1	2.1711
24013	9.2308e-002	0.18182	0.1	571.31
24014	0.18462	9.0909e-002	0.1	-88.71
24015	0.18462	0.45455	0.1	1043.2
24016	0.27692	0.36364	0.1	741.19
24017	9.2308e-002	0.36364	0.1	1563.6
24018	0.18462	0.63636	0.1	1382.6
24019	0.27692	0.54545	0.1	1242.6
24020	9.2308e-002	0.54545	0.1	2040.1
24021	0.18462	0.81818	0.1	1585.2
24022	0.27692	0.72727	0.1	1553.3
24023	9.2308e-002	0.72727	0.1	2318.7
24024	0.18462	1.	0.1	1717.8
24025	0.27692	0.90909	0.1	1754.4
24026	9.2308e-002	0.90909	0.1	2500.9
24027	0.18462	1.1818	0.1	1811.4
24028	0.27692	1.0909	0.1	1892.5
24029	9.2308e-002	1.0909	0.1	2629.7
24030	0.18462	1.3636	0.1	1880.3
24031	0.27692	1.2727	0.1	1991.8
24032	9.2308e-002	1.2727	0.1	2724.4
24033	0.18462	1.5455	0.1	1932.5
24034	0.27692	1.4545	0.1	2065.8
24035	9.2308e-002	1.4545	0.1	2796.1
24036	0.18462	1.7273	0.1	1972.5
24037	0.27692	1.6364	0.1	2121.9
24038	9.2308e-002	1.6364	0.1	2851.2
24039	0.18462	1.9091	0.1	2003.5
24040	0.27692	1.8182	0.1	2165.1
24041	9.2308e-002	1.8182	0.1	2893.9
24042	0.18462	2.0909	0.1	2027.4
24043	0.27692	2.	0.1	2198.4
24044	9.2308e-002	2.	0.1	2927.
24045	0.18462	2.2727	0.1	2045.5
24046	0.27692	2.1818	0.1	2223.8
24047	9.2308e-002	2.1818	0.1	2952.4
24048	0.18462	2.4545	0.1	2058.7
24049	0.27692	2.3636	0.1	2242.7
24050	9.2308e-002	2.3636	0.1	2971.4
24051	0.18462	2.6364	0.1	2067.8
24052	0.27692	2.5455	0.1	2256.3
24053	9.2308e-002	2.5455	0.1	2984.9
24054	0.18462	2.8182	0.1	2073.1
24055	0.27692	2.7273	0.1	2264.9
24056	9.2308e-002	2.7273	0.1	2993.6
24057	0.18462	3.	0.1	2074.8
24058	0.27692	2.9091	0.1	2269.2
24059	9.2308e-002	2.9091	0.1	2997.9
24060	0.18462	3.1818	0.1	2073.1
24061	0.27692	3.0909	0.1	2269.2
24062	9.2308e-002	3.0909	0.1	2997.9
24063	0.18462	3.3636	0.1	2067.8
24064	0.27692	3.2727	0.1	2264.9
24065	9.2308e-002	3.2727	0.1	2993.6
24066	0.18462	3.5455	0.1	2058.7
24067	0.27692	3.4545	0.1	2256.3
24068	9.2308e-002	3.4545	0.1	2984.9
24069	0.18462	3.7273	0.1	2045.5
24070	0.27692	3.6364	0.1	2242.7
24071	9.2308e-002	3.6364	0.1	2971.4
24072	0.18462	3.9091	0.1	2027.4
24073	0.27692	3.8182	0.1	2223.8
24074	9.2308e-002	3.8182	0.1	2952.4
24075	0.18462	4.0909	0.1	2003.5
24076	0.27692	4.	0.1	2198.4
24077	9.2308e-002	4.	0.1	2927.
24078	0.18462	4.2727	0.1	1972.5
24079	0.27692	4.1818	0.1	2165.1
24080	9.2308e-002	4.1818	0.1	2893.9
24081	0.18462	4.4545	0.1	1932.5
24082	0.27692	4.3636	0.1	2121.9
24083	9.2308e-002	4.3636	0.1	2851.2
24084	0.18462	4.6364	0.1	1880.3
24085	0.27692	4.5455	0.1	2065.8
24086	9.2308e-002	4.5455	0.1	2796.1
24087	0.18462	4.8182	0.1	1811.4
24088	0.27692	4.7273	0.1	1991.8
24089	9.2308e-002	4.7273	0.1	2724.4
24090	0.18462	5.	0.1	1717.8
24091	0.27692	4.9091	0.1	1892.5
24092	9.2308e-002	4.9091	0.1	2629.7
24093	0.18462	5.1818	0.1	1585.2
24094	0.27692	5.0909	0.1	1754.4
24095	9.2308e-002	5.0909	0.1	2500.9
24096	0.18462	5.3636	0.1	1382.6
24097	0.27692	5.2727	0.1	1553.3
24098	9.2308e-002	5.2727	0.1	2318.7
24099	0.18462	5.5455	0.1	1043.2
24100	0.27692	5.4545	0.1	1242.6
24101	9.2308e-002	5.4545	0.1	2040.1
24102	0.18462	5.7273	0.1	410.23
24103	0.27692	5.6364	0.1	741.19
24104	9.2308e-002	5.6364	0.1	1563.6
24105	0.27692	5.8182	0.1	2.171
24106	9.2308e-002	5.8182	0.1	571.31
24107	0.18462	5.9091	0.1	-88.71
24108	0.36923	0.27273	0.1	305.42
24109	0.46154	0.18182	0.1	41.331
24110	0.36923	9.0909e-002	0.1	23.621
24111	0.36923	0.45455	0.1	940.13
24112	0.46154	0.36364	0.1	534.97
24113	0.36923	0.63636	0.1	1406.1
24114	0.46154	0.54545	0.1	1037.8
24115	0.36923	0.81818	0.1	1715.9
24116	0.46154	0.72727	0.1	1406.5
24117	0.36923	1.	0.1	1924.4
24118	0.46154	0.90909	0.1	1666.5
24119	0.36923	1.1818	0.1	2069.9
24120	0.46154	1.0909	0.1	1850.5
24121	0.36923	1.3636	0.1	2175.4
24122	0.46154	1.2727	0.1	1983.8
24123	0.36923	1.5455	0.1	2254.
24124	0.46154	1.4545	0.1	2082.7
24125	0.36923	1.7273	0.1	2313.8
24126	0.46154	1.6364	0.1	2157.3
24127	0.36923	1.9091	0.1	2359.5
24128	0.46154	1.8182	0.1	2214.3
24129	0.36923	2.0909	0.1	2394.5
24130	0.46154	2.	0.1	2258.
24131	0.36923	2.2727	0.1	2420.9
24132	0.46154	2.1818	0.1	2291.2
24133	0.36923	2.4545	0.1	2440.2
24134	0.46154	2.3636	0.1	2315.9
24135	0.36923	2.6364	0.1	2453.4
24136	0.46154	2.5455	0.1	2333.5
24137	0.36923	2.8182	0.1	2461.
24138	0.46154	2.7273	0.1	2344.7
24139	0.36923	3.	0.1	2463.5
24140	0.46154	2.9091	0.1	2350.2
24141	0.36923	3.1818	0.1	2461.
24142	0.46154	3.0909	0.1	2350.2
24143	0.36923	3.3636	0.1	2453.4
24144	0.46154	3.2727	0.1	2344.7
24145	0.36923	3.5455	0.1	2440.2
24146	0.46154	3.4545	0.1	2333.5
24147	0.36923	3.7273	0.1	2420.9
24148	0.46154	3.6364	0.1	2315.9
24149	0.36923	3.9091	0.1	2394.5
24150	0.46154	3.8182	0.1	2291.2
24151	0.36923	4.0909	0.1	2359.5
24152	0.46154	4.	0.1	2258.
24153	0.36923	4.2727	0.1	2313.8
24154	0.46154	4.1818	0.1	2214.3
24155	0.36923	4.4545	0.1	2254.
24156	0.46154	4.3636	0.1	2157.3
24157	0.36923	4.6364	0.1	2175.4
24158	0.46154	4.5455	0.1	2082.7
24159	0.36923	4.8182	0.1	2069.9
24160	0.46154	4.7273	0.1	1983.8
24161	0.36923	5.	0.1	1924.4
24162	0.46154	4.9091	0.1	1850.5
24163	0.36923	5.1818	0.1	1715.9
24164	0.46154	5.0909	0.1	1666.5
24165	0.36923	5.3636	0.1	1406.1
24166	0.46154	5.2727	0.1	1406.5
24167	0.36923	5.5455	0.1	940.13
24168	0.46154	5.4545	0.1	1037.8
24169	0.36923	5.7273	0.1	305.42
24170	0.46154	5.6364	0.1	534.97
24171	0.46154	5.8182	0.1	41.331
24172	0.36923	5.9091	0.1	23.621
24173	0.55385	0.27273	0.1	168.67
24174	0.64615	0.18182	0.1	9.8058
24175	0.55385	9.0909e-002	0.1	-9.082
24176	0.55385	0.45455	0.1	635.48
24177	0.64615	0.36364	0.1	374.5
24178	0.55385	0.63636	0.1	1041.1
24179	0.64615	0.54545	0.1	782.05
24180	0.55385	0.81818	0.1	1358.1
24181	0.64615	0.72727	0.1	1128.4
24182	0.55385	1.	0.1	1592.4
24183	0.64615	0.90909	0.1	1399.8
24184	0.55385	1.1818	0.1	1763.8
24185	0.64615	1.0909	0.1	1605.5
24186	0.55385	1.3636	0.1	1890.5
24187	0.64615	1.2727	0.1	1760.5
24188	0.55385	1.5455	0.1	1985.4
24189	0.64615	1.4545	0.1	1877.7
24190	0.55385	1.7273	0.1	2057.5
24191	0.64615	1.6364	0.1	1967.2
24192	0.55385	1.9091	0.1	2112.6
24193	0.64615	1.8182	0.1	2035.7
24194	0.55385	2.0909	0.1	2154.5
24195	0.64615	2.	0.1	2088.3
24196	0.55385	2.2727	0.1	2186.1
24197	0.64615	2.1818	0.1	2128.3
24198	0.55385	2.4545	0.1	2209.1
24199	0.64615	2.3636	0.1	2158.
24200	0.55385	2.6364	0.1	2224.8
24201	0.64615	2.5455	0.1	2179.1
24202	0.55385	2.8182	0.1	2233.9
24203	0.64615	2.7273	0.1	2192.6
24204	0.55385	3.	0.1	2236.9
24205	0.64615	2.9091	0.1	2199.2
24206	0.55385	3.1818	0.1	2233.9
24207	0.64615	3.0909	0.1	2199.2
24208	0.55385	3.3636	0.1	2224.8
24209	0.64615	3.2727	0.1	2192.6
24210	0.55385	3.5455	0.1	2209.1
24211	0.64615	3.4545	0.1	2179.1
24212	0.55385	3.7273	0.1	2186.1
24213	0.64615	3.6364	0.1	2158.
24214	0.55385	3.9091	0.1	2154.5
24215	0.64615	3.8182	0.1	2128.3
24216	0.55385	4.0909	0.1	2112.6
24217	0.64615	4.	0.1	2088.3
24218	0.55385	4.2727	0.1	2057.5
24219	0.64615	4.1818	0.1	2035.7
24220	0.55385	4.4545	0.1	1985.4
24221	0.64615	4.3636	0.1	1967.2
24222	0.55385	4.6364	0.1	1890.5
24223	0.64615	4.5455	0.1	1877.7
24224	0.55385	4.8182	0.1	1763.8
24225	0.64615	4.7273	0.1	1760.5
24226	0.55385	5.	0.1	1592.4
24227	0.64615	4.9091	0.1	1605.5
24228	0.55385	5.1818	0.1	1358.1
24229	0.64615	5.0909	0.1	1399.8
24230	0.55385	5.3636	0.1	1041.1
24231	0.64615	5.2727	0.1	1128.4
24232	0.55385	5.5455	0.1	635.48
24233	0.64615	5.4545	0.1	782.05
24234	0.55385	5.7273	0.1	168.67
24235	0.64615	5.6364	0.1	374.5
24236	0.64615	5.8182	0.1	9.8058
24237	0.55385	5.9091	0.1	-9.082
24238	0.73846	0.27273	0.1	145.6
24239	0.83077	0.18182	0.1	16.397
24240	0.73846	9.0909e-002	0.1	1.414
24241	0.73846	0.45455	0.1	521.34
24242	0.83077	0.36364	0.1	310.75
24243	0.73846	0.63636	0.1	870.94
24244	0.83077	0.54545	0.1	646.71
24245	0.73846	0.81818	0.1	1171.6
24246	0.83077	0.72727	0.1	954.99
24247	0.73846	1.	0.1	1413.9
24248	0.83077	0.90909	0.1	1216.9
24249	0.73846	1.1818	0.1	1602.6
24250	0.83077	1.0909	0.1	1429.2
24251	0.73846	1.3636	0.1	1747.8
24252	0.83077	1.2727	0.1	1597.
24253	0.73846	1.5455	0.1	1859.4
24254	0.83077	1.4545	0.1	1728.3
24255	0.73846	1.7273	0.1	1945.3
24256	0.83077	1.6364	0.1	1830.7
24257	0.73846	1.9091	0.1	2011.4
24258	0.83077	1.8182	0.1	1910.3
24259	0.73846	2.0909	0.1	2062.
24260	0.83077	2.	0.1	1971.9
24261	0.73846	2.2727	0.1	2100.1
24262	0.83077	2.1818	0.1	2019.
24263	0.73846	2.4545	0.1	2127.9
24264	0.83077	2.3636	0.1	2054.1
24265	0.73846	2.6364	0.1	2146.9
24266	0.83077	2.5455	0.1	2079.1
24267	0.73846	2.8182	0.1	2157.9
24268	0.83077	2.7273	0.1	2095.1
24269	0.73846	3.	0.1	2161.5
24270	0.83077	2.9091	0.1	2102.9
24271	0.73846	3.1818	0.1	2157.9
24272	0.83077	3.0909	0.1	2102.9
24273	0.73846	3.3636	0.1	2146.9
24274	0.83077	3.2727	0.1	2095.1
24275	0.73846	3.5455	0.1	2127.9
24276	0.83077	3.4545	0.1	2079.1
24277	0.73846	3.7273	0.1	2100.1
24278	0.83077	3.6364	0.1	2054.1
24279	0.73846	3.9091	0.1	2062.
24280	0.83077	3.8182	0.1	2019.
24281	0.73846	4.0909	0.1	2011.4
24282	0.83077	4.	0.1	1971.9
24283	0.73846	4.2727	0.1	1945.3
24284	0.83077	4.1818	0.1	1910.3
24285	0.73846	4.4545	0.1	1859.4
24286	0.83077	4.3636	0.1	1830.7
24287	0.73846	4.6364	0.1	1747.8
24288	0.83077	4.5455	0.1	1728.3
24289	0.73846	4.8182	0.1	1602.6
24290	0.83077	4.7273	0.1	1597.
24291	0.73846	5.	0.1	1413.9
24292	0.83077	4.9091	0.1	1429.2
24293	0.73846	5.1818	0.1	1171.6
24294	0.83077	5.0909	0.1	1216.9
24295	0.73846	5.3636	0.1	870.94
24296	0.83077	5.2727	0.1	954.99
24297	0.73846	5.5455	0.1	521.34
24298	0.83077	5.4545	0.1	646.71
24299	0.73846	5.7273	0.1	145.6
24300	0.83077	5.6364	0.1	310.75
24301	0.83077	5.8182	0.1	16.397
24302	0.73846	5.9091	0.1	1.414
24303	0.92308	0.27273	0.1	127.58
24304	1.0154	0.18182	0.1	15.955
24305	0.92308	9.0909e-002	0.1	-1.0323
24306	0.92308	0.45455	0.1	435.45
24307	1.0154	0.36364	0.1	269.06
24308	0.92308	0.63636	0.1	731.29
24309	1.0154	0.54545	0.1	549.77
24310	0.92308	0.81818	0.1	1001.3
24311	1.0154	0.72727	0.1	818.3
24312	0.92308	1.	0.1	1233.3
24313	1.0154	0.90909	0.1	1059.3
24314	0.92308	1.1818	0.1	1424.3
24315	1.0154	1.0909	0.1	1265.1
24316	0.92308	1.3636	0.1	1578.
24317	1.0154	1.2727	0.1	1435.5
24318	0.92308	1.5455	0.1	1699.9
24319	1.0154	1.4545	0.1	1573.6
24320	0.92308	1.7273	0.1	1795.9
24321	1.0154	1.6364	0.1	1684.3
24322	0.92308	1.9091	0.1	1871.
24323	1.0154	1.8182	0.1	1772.1
24324	0.92308	2.0909	0.1	1929.1
24325	1.0154	2.	0.1	1841.
24326	0.92308	2.2727	0.1	1973.1
24327	1.0154	2.1818	0.1	1894.2
24328	0.92308	2.4545	0.1	2005.4
24329	1.0154	2.3636	0.1	1934.2
24330	0.92308	2.6364	0.1	2027.4
24331	1.0154	2.5455	0.1	1962.7
24332	0.92308	2.8182	0.1	2040.3
24333	1.0154	2.7273	0.1	1981.1
24334	0.92308	3.	0.1	2044.5
24335	1.0154	2.9091	0.1	1990.
24336	0.92308	3.1818	0.1	2040.3
24337	1.0154	3.0909	0.1	1990.
24338	0.92308	3.3636	0.1	2027.4
24339	1.0154	3.2727	0.1	1981.1
24340	0.92308	3.5455	0.1	2005.4
24341	1.0154	3.4545	0.1	1962.7
24342	0.92308	3.7273	0.1	1973.1
24343	1.0154	3.6364	0.1	1934.2
24344	0.92308	3.9091	0.1	1929.1
24345	1.0154	3.8182	0.1	1894.2
24346	0.92308	4.0909	0.1	1871.
24347	1.0154	4.	0.1	1841.
24348	0.92308	4.2727	0.1	1795.9
24349	1.0154	4.1818	0.1	1772.1
24350	0.92308	4.4545	0.1	1699.9
24351	1.0154	4.3636	0.1	1684.3
24352	0.92308	4.6364	0.1	1578.
24353	1.0154	4.5455	0.1	1573.6
24354	0.92308	4.8182	0.1	1424.3
24355	1.0154	4.7273	0.1	1435.5
24356	0.92308	5.	0.1	1233.3
24357	1.0154	4.9091	0.1	1265.1
24358	0.92308	5.1818	0.1	1001.3
24359	1.0154	5.0909	0.1	1059.3
24360	0.92308	5.3636	0.1	731.29
24361	1.0154	5.2727	0.1	818.3
24362	0.92308	5.5455	0.1	435.45
24363	1.0154	5.4545	0.1	549.77
24364	0.92308	5.7273	0.1	127.58
24365	1.0154	5.6364	0.1	269.06
24366	1.0154	5.8182	0.1	15.955
24367	0.92308	5.9091	0.1	-1.0323
24368	1.1077	0.27273	0.1	121.53
24369	1.2	0.18182	0.1	19.106
24370	1.1077	9.0909e-002	0.1	-9.2473e-004
24371	1.1077	0.45455	0.1	382.58
24372	1.2	0.36364	0.1	243.48
24373	1.1077	0.63636	0.1	636.75
24374	1.2	0.54545	0.1	483.6
24375	1.1077	0.81818	0.1	876.69
24376	1.2	0.72727	0.1	718.16
24377	1.1077	1.	0.1	1091.8
24378	1.2	0.90909	0.1	936.01
24379	1.1077	1.1818	0.1	1277.
24380	1.2	1.0909	0.1	1129.5
24381	1.1077	1.3636	0.1	1431.7
24382	1.2	1.2727	0.1	1295.6
24383	1.1077	1.5455	0.1	1558.5
24384	1.2	1.4545	0.1	1434.8
24385	1.1077	1.7273	0.1	1660.9
24386	1.2	1.6364	0.1	1549.3
24387	1.1077	1.9091	0.1	1742.5
24388	1.2	1.8182	0.1	1642.1
24389	1.1077	2.0909	0.1	1806.4
24390	1.2	2.	0.1	1716.2
24391	1.1077	2.2727	0.1	1855.5
24392	1.2	2.1818	0.1	1774.1
24393	1.1077	2.4545	0.1	1891.7
24394	1.2	2.3636	0.1	1818.
24395	1.1077	2.6364	0.1	1916.5
24396	1.2	2.5455	0.1	1849.5
24397	1.1077	2.8182	0.1	1931.
24398	1.2	2.7273	0.1	1869.9
24399	1.1077	3.	0.1	1935.8
24400	1.2	2.9091	0.1	1879.9
24401	1.1077	3.1818	0.1	1931.
24402	1.2	3.0909	0.1	1879.9
24403	1.1077	3.3636	0.1	1916.5
24404	1.2	3.2727	0.1	1869.9
24405	1.1077	3.5455	0.1	1891.7
24406	1.2	3.4545	0.1	1849.5
24407	1.1077	3.7273	0.1	1855.5
24408	1.2	3.6364	0.1	1818.
24409	1.1077	3.9091	0.1	1806.4
24410	1.2	3.8182	0.1	1774.1
24411	1.1077	4.0909	0.1	1742.5
24412	1.2	4.	0.1	1716.2
24413	1.1077	4.2727	0.1	1660.9
24414	1.2	4.1818	0.1	1642.1
24415	1.1077	4.4545	0.1	1558.5
24416	1.2	4.3636	0.1	1549.3
24417	1.1077	4.6364	0.1	1431.7
24418	1.2	4.5455	0.1	1434.8
24419	1.1077	4.8182	0.1	1277.
24420	1.2	4.7273	0.1	1295.6
24421	1.1077	5.	0.1	1091.8
24422	1.2	4.9091	0.1	1129.5
24423	1.1077	5.1818	0.1	876.69
24424	1.2	5.0909	0.1	936.01
24425	1.1077	5.3636	0.1	636.75
24426	1.2	5.2727	0.1	718.16
24427	1.1077	5.5455	0.1	382.58
24428	1.2	5.4545	0.1	483.6
24429	1.1077	5.7273	0.1	121.53
24430	1.2	5.6364	0.1	243.48
24431	1.2	5.8182	0.1	19.106
24432	1.1077	5.9091	0.1	-9.2553e-004
24433	1.2923	0.27273	0.1	118.
24434	1.3846	0.18182	0.1	23.205
24435	1.2923	9.0909e-002	0.1	0.1754
24436	1.2923	0.45455	0.1	343.75
24437	1.3846	0.36364	0.1	225.
24438	1.2923	0.63636	0.1	564.75
24439	1.3846	0.54545	0.1	433.95
24440	1.2923	0.81818	0.1	777.58
24441	1.3846	0.72727	0.1	640.25
24442	1.2923	1.	0.1	974.
24443	1.3846	0.90909	0.1	836.07
24444	1.2923	1.1818	0.1	1148.6
24445	1.3846	1.0909	0.1	1014.8
24446	1.2923	1.3636	0.1	1299.1
24447	1.3846	1.2727	0.1	1172.7
24448	1.2923	1.5455	0.1	1426.
24449	1.3846	1.4545	0.1	1308.6
24450	1.2923	1.7273	0.1	1531.
24451	1.3846	1.6364	0.1	1423.2
24452	1.2923	1.9091	0.1	1616.3
24453	1.3846	1.8182	0.1	1518.1
24454	1.2923	2.0909	0.1	1684.2
24455	1.3846	2.	0.1	1595.
24456	1.2923	2.2727	0.1	1736.9
24457	1.3846	2.1818	0.1	1655.9
24458	1.2923	2.4545	0.1	1776.1
24459	1.3846	2.3636	0.1	1702.6
24460	1.2923	2.6364	0.1	1803.2
24461	1.3846	2.5455	0.1	1736.4
24462	1.2923	2.8182	0.1	1819.
24463	1.3846	2.7273	0.1	1758.3
24464	1.2923	3.	0.1	1824.3
24465	1.3846	2.9091	0.1	1769.1
24466	1.2923	3.1818	0.1	1819.
24467	1.3846	3.0909	0.1	1769.1
24468	1.2923	3.3636	0.1	1803.2
24469	1.3846	3.2727	0.1	1758.3
24470	1.2923	3.5455	0.1	1776.1
24471	1.3846	3.4545	0.1	1736.4
24472	1.2923	3.7273	0.1	1736.9
24473	1.3846	3.6364	0.1	1702.6
24474	1.2923	3.9091	0.1	1684.2
24475	1.3846	3.8182	0.1	1655.9
24476	1.2923	4.0909	0.1	1616.3
24477	1.3846	4.	0.1	1595.
24478	1.2923	4.2727	0.1	1531.
24479	1.3846	4.1818	0.1	1518.1
24480	1.2923	4.4545	0.1	1426.
24481	1.3846	4.3636	0.1	1423.2
24482	1.2923	4.6364	0.1	1299.1
24483	1.3846	4.5455	0.1	1308.6
24484	1.2923	4.8182	0.1	1148.6
24485	1.3846	4.7273	0.1	1172.7
24486	1.2923	5.	0.1	974.
24487	1.3846	4.9091	0.1	1014.8
24488	1.2923	5.1818	0.1	777.58
24489	1.3846	5.0909	0.1	836.07
24490	1.2923	5.3636	0.1	564.75
24491	1.3846	5.2727	0.1	640.25
24492	1.2923	5.5455	0.1	343.75
24493	1.3846	5.4545	0.1	433.95
24494	1.2923	5.7273	0.1	118.
24495	1.3846	5.6364	0.1	225.
24496	1.3846	5.8182	0.1	23.205
24497	1.2923	5.9091	0.1	0.1754
24498	1.4769	0.27273	0.1	116.13
24499	1.5692	0.18182	0.1	28.448
24500	1.4769	9.0909e-002	0.1	0.9938
24501	1.4769	0.45455	0.1	314.54
24502	1.5692	0.36364	0.1	210.87
24503	1.4769	0.63636	0.1	509.12
24504	1.5692	0.54545	0.1	395.27
24505	1.4769	0.81818	0.1	698.67
24506	1.5692	0.72727	0.1	578.26
24507	1.4769	1.	0.1	876.98
24508	1.5692	0.90909	0.1	754.31
24509	1.4769	1.1818	0.1	1039.2
24510	1.5692	1.0909	0.1	918.05
24511	1.4769	1.3636	0.1	1182.5
24512	1.5692	1.2727	0.1	1065.9
24513	1.4769	1.5455	0.1	1306.2
24514	1.5692	1.4545	0.1	1196.
24515	1.4769	1.7273	0.1	1410.7
24516	1.5692	1.6364	0.1	1307.9
24517	1.4769	1.9091	0.1	1497.2
24518	1.5692	1.8182	0.1	1402.2
24519	1.4769	2.0909	0.1	1567.1
24520	1.5692	2.	0.1	1479.9
24521	1.4769	2.2727	0.1	1621.9
24522	1.5692	2.1818	0.1	1542.2
24523	1.4769	2.4545	0.1	1663.1
24524	1.5692	2.3636	0.1	1590.4
24525	1.4769	2.6364	0.1	1691.8
24526	1.5692	2.5455	0.1	1625.6
24527	1.4769	2.8182	0.1	1708.6
24528	1.5692	2.7273	0.1	1648.6
24529	1.4769	3.	0.1	1714.2
24530	1.5692	2.9091	0.1	1659.9
24531	1.4769	3.1818	0.1	1708.6
24532	1.5692	3.0909	0.1	1659.9
24533	1.4769	3.3636	0.1	1691.8
24534	1.5692	3.2727	0.1	1648.6
24535	1.4769	3.5455	0.1	1663.1
24536	1.5692	3.4545	0.1	1625.6
24537	1.4769	3.7273	0.1	1621.9
24538	1.5692	3.6364	0.1	1590.4
24539	1.4769	3.9091	0.1	1567.1
24540	1.5692	3.8182	0.1	1542.2
24541	1.4769	4.0909	0.1	1497.2
24542	1.5692	4.	0.1	1479.9
24543	1.4769	4.2727	0.1	1410.7
24544	1.5692	4.1818	0.1	1402.2
24545	1.4769	4.4545	0.1	1306.2
24546	1.5692	4.3636	0.1	1307.9
24547	1.4769	4.6364	0.1	1182.5
24548	1.5692	4.5455	0.1	1196.
24549	1.4769	4.8182	0.1	1039.2
24550	1.5692	4.7273	0.1	1065.9
24551	1.4769	5.	0.1	876.98
24552	1.5692	4.9091	0.1	918.05
24553	1.4769	5.1818	0.1	698.67
24554	1.5692	5.0909	0.1	754.31
24555	1.4769	5.3636	0.1	509.12
24556	1.5692	5.2727	0.1	578.26
24557	1.4769	5.5455	0.1	314.54
24558	1.5692	5.4545	0.1	395.27
24559	1.4769	5.7273	0.1	116.13
24560	1.5692	5.6364	0.1	210.87
24561	1.5692	5.8182	0.1	28.448
24562	1.4769	5.9091	0.1	0.9938
24563	1.6615	0.27273	0.1	114.63
24564	1.7538	0.18182	0.1	33.893
24565	1.6615	9.0909e-002	0.1	3.3967
24566	1.6615	0.45455	0.1	291.03
24567	1.7538	0.36364	0.1	199.17
24568	1.6615	0.63636	0.1	464.07
24569	1.7538	0.54545	0.1	363.65
24570	1.6615	0.81818	0.1	633.75
24571	1.7538	0.72727	0.1	527.2
24572	1.6615	1.	0.1	795.4
24573	1.7538	0.90909	0.1	685.88
24574	1.6615	1.1818	0.1	944.92
24575	1.7538	1.0909	0.1	835.4
24576	1.6615	1.3636	0.1	1079.6
24577	1.7538	1.2727	0.1	972.55
24578	1.6615	1.5455	0.1	1197.9
24579	1.7538	1.4545	0.1	1095.3
24580	1.6615	1.7273	0.1	1299.7
24581	1.7538	1.6364	0.1	1202.7
24582	1.6615	1.9091	0.1	1385.2
24583	1.7538	1.8182	0.1	1294.5
24584	1.6615	2.0909	0.1	1455.3
24585	1.7538	2.	0.1	1371.3
24586	1.6615	2.2727	0.1	1511.
24587	1.7538	2.1818	0.1	1433.6
24588	1.6615	2.4545	0.1	1553.2
24589	1.7538	2.3636	0.1	1482.2
24590	1.6615	2.6364	0.1	1582.7
24591	1.7538	2.5455	0.1	1518.
24592	1.6615	2.8182	0.1	1600.1
24593	1.7538	2.7273	0.1	1541.5
24594	1.6615	3.	0.1	1605.9
24595	1.7538	2.9091	0.1	1553.1
24596	1.6615	3.1818	0.1	1600.1
24597	1.7538	3.0909	0.1	1553.1
24598	1.6615	3.3636	0.1	1582.7
24599	1.7538	3.2727	0.1	1541.5
24600	1.6615	3.5455	0.1	1553.2
24601	1.7538	3.4545	0.1	1518.
24602	1.6615	3.7273	0.1	1511.
24603	1.7538	3.6364	0.1	1482.2
24604	1.6615	3.9091	0.1	1455.3
24605	1.7538	3.8182	0.1	1433.6
24606	1.6615	4.0909	0.1	1385.2
24607	1.7538	4.	0.1	1371.3
24608	1.6615	4.2727	0.1	1299.7
24609	1.7538	4.1818	0.1	1294.5
24610	1.6615	4.4545	0.1	1197.9
24611	1.7538	4.3636	0.1	1202.7
24612	1.6615	4.6364	0.1	1079.6
24613	1.7538	4.5455	0.1	1095.3
24614	1.6615	4.8182	0.1	944.92
24615	1.7538	4.7273	0.1	972.55
24616	1.6615	5.	0.1	795.4
24617	1.7538	4.9091	0.1	835.4
24618	1.6615	5.1818	0.1	633.75
24619	1.7538	5.0909	0.1	685.88
24620	1.6615	5.3636	0.1	464.07
24621	1.7538	5.2727	0.1	527.2
24622	1.6615	5.5455	0.1	291.03
24623	1.7538	5.4545	0.1	363.65
24624	1.6615	5.7273	0.1	114.63
24625	1.7538	5.6364	0.1	199.17
24626	1.7538	5.8182	0.1	33.893
24627	1.6615	5.9091	0.1	3.3967
24628	1.8462	0.27273	0.1	113.08
24629	1.9385	0.18182	0.1	38.88
24630	1.8462	9.0909e-002	0.1	8.1895
24631	1.8462	0.45455	0.1	271.31
24632	1.9385	0.36364	0.1	188.96
24633	1.8462	0.63636	0.1	426.47
24634	1.9385	0.54545	0.1	336.88
24635	1.8462	0.81818	0.1	579.14
24636	1.9385	0.72727	0.1	484.01
24637	1.8462	1.	0.1	725.81
24638	1.9385	0.90909	0.1	627.49
24639	1.8462	1.1818	0.1	863.09
24640	1.9385	1.0909	0.1	763.89
24641	1.8462	1.3636	0.1	988.44
24642	1.9385	1.2727	0.1	890.47
24643	1.8462	1.5455	0.1	1100.3
24644	1.9385	1.4545	0.1	1005.2
24645	1.8462	1.7273	0.1	1197.8
24646	1.9385	1.6364	0.1	1106.9
24647	1.8462	1.9091	0.1	1280.9
24648	1.9385	1.8182	0.1	1195.1
24649	1.8462	2.0909	0.1	1349.8
24650	1.9385	2.	0.1	1269.6
24651	1.8462	2.2727	0.1	1405.1
24652	1.9385	2.1818	0.1	1330.7
24653	1.8462	2.4545	0.1	1447.4
24654	1.9385	2.3636	0.1	1378.8
24655	1.8462	2.6364	0.1	1477.1
24656	1.9385	2.5455	0.1	1414.4
24657	1.8462	2.8182	0.1	1494.7
24658	1.9385	2.7273	0.1	1437.9
24659	1.8462	3.	0.1	1500.6
24660	1.9385	2.9091	0.1	1449.6
24661	1.8462	3.1818	0.1	1494.7
24662	1.9385	3.0909	0.1	1449.6
24663	1.8462	3.3636	0.1	1477.1
24664	1.9385	3.2727	0.1	1437.9
24665	1.8462	3.5455	0.1	1447.4
24666	1.9385	3.4545	0.1	1414.4
24667	1.8462	3.7273	0.1	1405.1
24668	1.9385	3.6364	0.1	1378.8
24669	1.8462	3.9091	0.1	1349.8
24670	1.9385	3.8182	0.1	1330.7
24671	1.8462	4.0909	0.1	1280.9
24672	1.9385	4.	0.1	1269.6
24673	1.8462	4.2727	0.1	1197.8
24674	1.9385	4.1818	0.1	1195.1
24675	1.8462	4.4545	0.1	1100.3
24676	1.9385	4.3636	0.1	1106.9
24677	1.8462	4.6364	0.1	988.44
24678	1.9385	4.5455	0.1	1005.2
24679	1.8462	4.8182	0.1	863.09
24680	1.9385	4.7273	0.1	890.47
24681	1.8462	5.	0.1	725.81
24682	1.9385	4.9091	0.1	763.89
24683	1.8462	5.1818	0.1	579.14
24684	1.9385	5.0909	0.1	627.49
24685	1.8462	5.3636	0.1	426.47
24686	1.9385	5.2727	0.1	484.01
24687	1.8462	5.5455	0.1	271.31
24688	1.9385	5.4545	0.1	336.88
24689	1.8462	5.7273	0.1	113.08
24690	1.9385	5.6364	0.1	188.96
24691	1.9385	5.8182	0.1	38.88
24692	1.8462	5.9091	0.1	8.1895
24693	2.0308	0.27273	0.1	111.25
24694	2.1231	0.18182	0.1	43.042
24695	2.0308	9.0909e-002	0.1	12.953
24696	2.0308	0.45455	0.1	254.13
24697	2.1231	0.36364	0.1	179.66
24698	2.0308	0.63636	0.1	394.14
24699	2.1231	0.54545	0.1	313.53
24700	2.0308	0.81818	0.1	532.16
24701	2.1231	0.72727	0.1	446.59
24702	2.0308	1.	0.1	665.46
24703	2.1231	0.90909	0.1	576.73
24704	2.0308	1.1818	0.1	791.26
24705	2.1231	1.0909	0.1	701.2
24706	2.0308	1.3636	0.1	907.33
24707	2.1231	1.2727	0.1	817.66
24708	2.0308	1.5455	0.1	1012.
24709	2.1231	1.4545	0.1	924.28
24710	2.0308	1.7273	0.1	1104.4
24711	2.1231	1.6364	0.1	1019.8
24712	2.0308	1.9091	0.1	1184.
24713	2.1231	1.8182	0.1	1103.4
24714	2.0308	2.0909	0.1	1250.7
24715	2.1231	2.	0.1	1174.7
24716	2.0308	2.2727	0.1	1304.7
24717	2.1231	2.1818	0.1	1233.8
24718	2.0308	2.4545	0.1	1346.2
24719	2.1231	2.3636	0.1	1280.6
24720	2.0308	2.6364	0.1	1375.6
24721	2.1231	2.5455	0.1	1315.4
24722	2.0308	2.8182	0.1	1393.1
24723	2.1231	2.7273	0.1	1338.5
24724	2.0308	3.	0.1	1398.9
24725	2.1231	2.9091	0.1	1350.
24726	2.0308	3.1818	0.1	1393.1
24727	2.1231	3.0909	0.1	1350.
24728	2.0308	3.3636	0.1	1375.6
24729	2.1231	3.2727	0.1	1338.5
24730	2.0308	3.5455	0.1	1346.2
24731	2.1231	3.4545	0.1	1315.4
24732	2.0308	3.7273	0.1	1304.7
24733	2.1231	3.6364	0.1	1280.6
24734	2.0308	3.9091	0.1	1250.7
24735	2.1231	3.8182	0.1	1233.8
24736	2.0308	4.0909	0.1	1184.
24737	2.1231	4.	0.1	1174.7
24738	2.0308	4.2727	0.1	1104.4
24739	2.1231	4.1818	0.1	1103.4
24740	2.0308	4.4545	0.1	1012.
24741	2.1231	4.3636	0.1	1019.8
24742	2.0308	4.6364	0.1	907.33
24743	2.1231	4.5455	0.1	924.28
24744	2.0308	4.8182	0.1	791.26
24745	2.1231	4.7273	0.1	817.66
24746	2.0308	5.	0.1	665.46
24747	2.1231	4.9091	0.1	701.2
24748	2.0308	5.1818	0.1	532.16
24749	2.1231	5.0909	0.1	576.73
24750	2.0308	5.3636	0.1	394.14
24751	2.1231	5.2727	0.1	446.59
24752	2.0308	5.5455	0.1	254.13
24753	2.1231	5.4545	0.1	313.53
24754	2.0308	5.7273	0.1	111.25
24755	2.1231	5.6364	0.1	179.66
24756	2.1231	5.8182	0.1	43.042
24757	2.0308	5.9091	0.1	12.953
24758	2.2154	0.27273	0.1	109.04
24759	2.3077	0.18182	0.1	46.267
24760	2.2154	9.0909e-002	0.1	16.845
24761	2.2154	0.45455	0.1	238.71
24762	2.3077	0.36364	0.1	170.92
24763	2.2154	0.63636	0.1	365.71
24764	2.3077	0.54545	0.1	292.66
24765	2.2154	0.81818	0.1	490.96
24766	2.3077	0.72727	0.1	413.52
24767	2.2154	1.	0.1	612.34
24768	2.3077	0.90909	0.1	531.89
24769	2.2154	1.1818	0.1	727.55
24770	2.3077	1.0909	0.1	645.56
24771	2.2154	1.3636	0.1	834.65
24772	2.3077	1.2727	0.1	752.55
24773	2.2154	1.5455	0.1	932.11
24774	2.3077	1.4545	0.1	851.2
24775	2.2154	1.7273	0.1	1018.9
24776	2.3077	1.6364	0.1	940.27
24777	2.2154	1.9091	0.1	1094.3
24778	2.3077	1.8182	0.1	1018.9
24779	2.2154	2.0909	0.1	1158.
24780	2.3077	2.	0.1	1086.5
24781	2.2154	2.2727	0.1	1209.9
24782	2.3077	2.1818	0.1	1142.8
24783	2.2154	2.4545	0.1	1250.1
24784	2.3077	2.3636	0.1	1187.8
24785	2.2154	2.6364	0.1	1278.7
24786	2.3077	2.5455	0.1	1221.4
24787	2.2154	2.8182	0.1	1295.8
24788	2.3077	2.7273	0.1	1243.8
24789	2.2154	3.	0.1	1301.5
24790	2.3077	2.9091	0.1	1254.9
24791	2.2154	3.1818	0.1	1295.8
24792	2.3077	3.0909	0.1	1254.9
24793	2.2154	3.3636	0.1	1278.7
24794	2.3077	3.2727	0.1	1243.8
24795	2.2154	3.5455	0.1	1250.1
24796	2.3077	3.4545	0.1	1221.4
24797	2.2154	3.7273	0.1	1209.9
24798	2.3077	3.6364	0.1	1187.8
24799	2.2154	3.9091	0.1	1158.
24800	2.3077	3.8182	0.1	1142.8
24801	2.2154	4.0909	0.1	1094.3
24802	2.3077	4.	0.1	1086.5
24803	2.2154	4.2727	0.1	1018.9
24804	2.3077	4.1818	0.1	1018.9
24805	2.2154	4.4545	0.1	932.11
24806	2.3077	4.3636	0.1	940.27
24807	2.2154	4.6364	0.1	834.65
24808	2.3077	4.5455	0.1	851.2
24809	2.2154	4.8182	0.1	727.55
24810	2.3077	4.7273	0.1	752.55
24811	2.2154	5.	0.1	612.34
24812	2.3077	4.9091	0.1	645.56
24813	2.2154	5.1818	0.1	490.96
24814	2.3077	5.0909	0.1	531.89
24815	2.2154	5.3636	0.1	365.71
24816	2.3077	5.2727	0.1	413.52
24817	2.2154	5.5455	0.1	238.71
24818	2.3077	5.4545	0.1	292.66
24819	2.2154	5.7273	0.1	109.04
24820	2.3077	5.6364	0.1	170.92
24821	2.3077	5.8182	0.1	46.267
24822	2.2154	5.9091	0.1	16.845
24823	2.4	0.27273	0.1	106.43
24824	2.4923	0.18182	0.1	48.572
24825	2.4	9.0909e-002	0.1	19.846
24826	2.4	0.45455	0.1	224.57
24827	2.4923	0.36364	0.1	162.55
24828	2.4	0.63636	0.1	340.23
24829	2.4923	0.54545	0.1	273.66
24830	2.4	0.81818	0.1	454.26
24831	2.4923	0.72727	0.1	383.81
24832	2.4	1.	0.1	564.98
24833	2.4923	0.90909	0.1	491.75
24834	2.4	1.1818	0.1	670.48
24835	2.4923	1.0909	0.1	595.65
24836	2.4	1.3636	0.1	769.09
24837	2.4923	1.2727	0.1	693.85
24838	2.4	1.5455	0.1	859.41
24839	2.4923	1.4545	0.1	784.88
24840	2.4	1.7273	0.1	940.38
24841	2.4923	1.6364	0.1	867.55
24842	2.4	1.9091	0.1	1011.2
24843	2.4923	1.8182	0.1	940.98
24844	2.4	2.0909	0.1	1071.5
24845	2.4923	2.	0.1	1004.5
24846	2.4	2.2727	0.1	1120.9
24847	2.4923	2.1818	0.1	1057.8
24848	2.4	2.4545	0.1	1159.4
24849	2.4923	2.3636	0.1	1100.5
24850	2.4	2.6364	0.1	1186.8
24851	2.4923	2.5455	0.1	1132.6
24852	2.4	2.8182	0.1	1203.2
24853	2.4923	2.7273	0.1	1154.
24854	2.4	3.	0.1	1208.7
24855	2.4923	2.9091	0.1	1164.7
24856	2.4	3.1818	0.1	1203.2
24857	2.4923	3.0909	0.1	1164.7
24858	2.4	3.3636	0.1	1186.8
24859	2.4923	3.2727	0.1	1154.
24860	2.4	3.5455	0.1	1159.4
24861	2.4923	3.4545	0.1	1132.6
24862	2.4	3.7273	0.1	1120.9
24863	2.4923	3.6364	0.1	1100.5
24864	2.4	3.9091	0.1	1071.5
24865	2.4923	3.8182	0.1	1057.8
24866	2.4	4.0909	0.1	1011.2
24867	2.4923	4.	0.1	1004.5
24868	2.4	4.2727	0.1	940.38
24869	2.4923	4.1818	0.1	940.98
24870	2.4	4.4545	0.1	859.41
24871	2.4923	4.3636	0.1	867.55
24872	2.4	4.6364	0.1	769.09
24873	2.4923	4.5455	0.1	784.88
24874	2.4	4.8182	0.1	670.48
24875	2.4923	4.7273	0.1	693.85
24876	2.4	5.	0.1	564.98
24877	2.4923	4.9091	0.1	595.65
24878	2.4	5.1818	0.1	454.26
24879	2.4923	5.0909	0.1	491.75
24880	2.4	5.3636	0.1	340.23
24881	2.4923	5.2727	0.1	383.81
24882	2.4	5.5455	0.1	224.57
24883	2.4923	5.4545	0.1	273.66
24884	2.4	5.7273	0.1	106.43
24885	2.4923	5.6364	0.1	162.55
24886	2.4923	5.8182	0.1	48.572
24887	2.4	5.9091	0.1	19.846
24888	2.5846	0.27273	0.1	103.42
24889	2.6769	0.18182	0.1	50.029
24890	2.5846	9.0909e-002	0.1	22.061
24891	2.5846	0.45455	0.1	211.39
24892	2.6769	0.36364	0.1	154.43
24893	2.5846	0.63636	0.1	317.04
24894	2.6769	0.54545	0.1	256.14
24895	2.5846	0.81818	0.1	421.13
24896	2.6769	0.72727	0.1	356.79
24897	2.5846	1.	0.1	522.29
24898	2.6769	0.90909	0.1	455.41
24899	2.5846	1.1818	0.1	618.93
24900	2.6769	1.0909	0.1	550.48
24901	2.5846	1.3636	0.1	709.6
24902	2.6769	1.2727	0.1	640.57
24903	2.5846	1.5455	0.1	793.04
24904	2.6769	1.4545	0.1	724.4
24905	2.5846	1.7273	0.1	868.24
24906	2.6769	1.6364	0.1	800.88
24907	2.5846	1.9091	0.1	934.4
24908	2.6769	1.8182	0.1	869.13
24909	2.5846	2.0909	0.1	990.97
24910	2.6769	2.	0.1	928.48
24911	2.5846	2.2727	0.1	1037.6
24912	2.6769	2.1818	0.1	978.44
24913	2.5846	2.4545	0.1	1074.
24914	2.6769	2.3636	0.1	1018.7
24915	2.5846	2.6364	0.1	1100.
24916	2.6769	2.5455	0.1	1049.
24917	2.5846	2.8182	0.1	1115.7
24918	2.6769	2.7273	0.1	1069.3
24919	2.5846	3.	0.1	1120.9
24920	2.6769	2.9091	0.1	1079.4
24921	2.5846	3.1818	0.1	1115.7
24922	2.6769	3.0909	0.1	1079.4
24923	2.5846	3.3636	0.1	1100.
24924	2.6769	3.2727	0.1	1069.3
24925	2.5846	3.5455	0.1	1074.
24926	2.6769	3.4545	0.1	1049.
24927	2.5846	3.7273	0.1	1037.6
24928	2.6769	3.6364	0.1	1018.7
24929	2.5846	3.9091	0.1	990.97
24930	2.6769	3.8182	0.1	978.44
24931	2.5846	4.0909	0.1	934.4
24932	2.6769	4.	0.1	928.48
24933	2.5846	4.2727	0.1	868.24
24934	2.6769	4.1818	0.1	869.13
24935	2.5846	4.4545	0.1	793.04
24936	2.6769	4.3636	0.1	800.88
24937	2.5846	4.6364	0.1	709.6
24938	2.6769	4.5455	0.1	724.4
24939	2.5846	4.8182	0.1	618.93
24940	2.6769	4.7273	0.1	640.57
24941	2.5846	5.	0.1	522.29
24942	2.6769	4.9091	0.1	550.48
24943	2.5846	5.1818	0.1	421.13
24944	2.6769	5.0909	0.1	455.41
24945	2.5846	5.3636	0.1	317.04
24946	2.6769	5.2727	0.1	356.79
24947	2.5846	5.5455	0.1	211.39
24948	2.6769	5.4545	0.1	256.14
24949	2.5846	5.7273	0.1	103.42
24950	2.6769	5.6364	0.1	154.43
24951	2.6769	5.8182	0.1	50.029
24952	2.5846	5.9091	0.1	22.061
24953	2.7692	0.27273	0.1	100.07
24954	2.8615	0.18182	0.1	50.735
24955	2.7692	9.0909e-002	0.1	23.603
24956	2.7692	0.45455	0.1	198.96
24957	2.8615	0.36364	0.1	146.51
24958	2.7692	0.63636	0.1	295.71
24959	2.8615	0.54545	0.1	239.8
24960	2.7692	0.81818	0.1	390.92
24961	2.8615	0.72727	0.1	331.98
24962	2.7692	1.	0.1	483.47
24963	2.8615	0.90909	0.1	422.23
24964	2.7692	1.1818	0.1	572.03
24965	2.8615	1.0909	0.1	509.28
24966	2.7692	1.3636	0.1	655.32
24967	2.8615	1.2727	0.1	591.92
24968	2.7692	1.5455	0.1	732.24
24969	2.8615	1.4545	0.1	669.03
24970	2.7692	1.7273	0.1	801.83
24971	2.8615	1.6364	0.1	739.59
24972	2.7692	1.9091	0.1	863.3
24973	2.8615	1.8182	0.1	802.79
24974	2.7692	2.0909	0.1	916.08
24975	2.8615	2.	0.1	857.95
24976	2.7692	2.2727	0.1	959.72
24977	2.8615	2.1818	0.1	904.54
24978	2.7692	2.4545	0.1	993.92
24979	2.8615	2.3636	0.1	942.2
24980	2.7692	2.6364	0.1	1018.5
24981	2.8615	2.5455	0.1	970.63
24982	2.7692	2.8182	0.1	1033.2
24983	2.8615	2.7273	0.1	989.68
24984	2.7692	3.	0.1	1038.2
24985	2.8615	2.9091	0.1	999.23
24986	2.7692	3.1818	0.1	1033.2
24987	2.8615	3.0909	0.1	999.23
24988	2.7692	3.3636	0.1	1018.5
24989	2.8615	3.2727	0.1	989.68
24990	2.7692	3.5455	0.1	993.92
24991	2.8615	3.4545	0.1	970.63
24992	2.7692	3.7273	0.1	959.72
24993	2.8615	3.6364	0.1	942.2
24994	2.7692	3.9091	0.1	916.08
24995	2.8615	3.8182	0.1	904.54
24996	2.7692	4.0909	0.1	863.3
24997	2.8615	4.	0.1	857.95
24998	2.7692	4.2727	0.1	801.83
24999	2.8615	4.1818	0.1	802.79
25000	2.7692	4.4545	0.1	732.24
25001	2.8615	4.3636	0.1	739.59
25002	2.7692	4.6364	0.1	655.32
25003	2.8615	4.5455	0.1	669.03
25004	2.7692	4.8182	0.1	572.03
25005	2.8615	4.7273	0.1	591.92
25006	2.7692	5.	0.1	483.47
25007	2.8615	4.9091	0.1	509.28
25008	2.7692	5.1818	0.1	390.92
25009	2.8615	5.0909	0.1	422.23
25010	2.7692	5.3636	0.1	295.71
25011	2.8615	5.2727	0.1	331.98
25012	2.7692	5.5455	0.1	198.96
25013	2.8615	5.4545	0.1	239.8
25014	2.7692	5.7273	0.1	100.07
25015	2.8615	5.6364	0.1	146.51
25016	2.8615	5.8182	0.1	50.735
25017	2.7692	5.9091	0.1	23.603
25018	2.9538	0.27273	0.1	96.422
25019	3.0462	0.18182	0.1	50.791
25020	2.9538	9.0909e-002	0.1	24.575
25021	2.9538	0.45455	0.1	187.16
25022	3.0462	0.36364	0.1	138.76
25023	2.9538	0.63636	0.1	275.91
25024	3.0462	0.54545	0.1	224.47
25025	2.9538	0.81818	0.1	363.14
25026	3.0462	0.72727	0.1	309.01
25027	2.9538	1.	0.1	447.92
25028	3.0462	0.90909	0.1	391.71
25029	2.9538	1.1818	0.1	529.09
25030	3.0462	1.0909	0.1	471.49
25031	2.9538	1.3636	0.1	605.58
25032	3.0462	1.2727	0.1	547.3
25033	2.9538	1.5455	0.1	676.37
25034	3.0462	1.4545	0.1	618.15
25035	2.9538	1.7273	0.1	740.59
25036	3.0462	1.6364	0.1	683.14
25037	2.9538	1.9091	0.1	797.51
25038	3.0462	1.8182	0.1	741.5
25039	2.9538	2.0909	0.1	846.52
25040	3.0462	2.	0.1	792.56
25041	2.9538	2.2727	0.1	887.16
25042	3.0462	2.1818	0.1	835.81
25043	2.9538	2.4545	0.1	919.08
25044	3.0462	2.3636	0.1	870.85
25045	2.9538	2.6364	0.1	942.04
25046	3.0462	2.5455	0.1	897.37
25047	2.9538	2.8182	0.1	955.87
25048	3.0462	2.7273	0.1	915.15
25049	2.9538	3.	0.1	960.49
25050	3.0462	2.9091	0.1	924.08
25051	2.9538	3.1818	0.1	955.87
25052	3.0462	3.0909	0.1	924.08
25053	2.9538	3.3636	0.1	942.04
25054	3.0462	3.2727	0.1	915.15
25055	2.9538	3.5455	0.1	919.08
25056	3.0462	3.4545	0.1	897.37
25057	2.9538	3.7273	0.1	887.16
25058	3.0462	3.6364	0.1	870.85
25059	2.9538	3.9091	0.1	846.52
25060	3.0462	3.8182	0.1	835.81
25061	2.9538	4.0909	0.1	797.51
25062	3.0462	4.	0.1	792.56
25063	2.9538	4.2727	0.1	740.59
25064	3.0462	4.1818	0.1	741.5
25065	2.9538	4.4545	0.1	676.37
25066	3.0462	4.3636	0.1	683.14
25067	2.9538	4.6364	0.1	605.58
25068	3.0462	4.5455	0.1	618.15
25069	2.9538	4.8182	0.1	529.09
25070	3.0462	4.7273	0.1	547.3
25071	2.9538	5.	0.1	447.92
25072	3.0462	4.9091	0.1	471.49
25073	2.9538	5.1818	0.1	363.14
25074	3.0462	5.0909	0.1	391.71
25075	2.9538	5.3636	0.1	275.91
25076	3.0462	5.2727	0.1	309.01
25077	2.9538	5.5455	0.1	187.16
25078	3.0462	5.4545	0.1	224.47
25079	2.9538	5.7273	0.1	96.422
25080	3.0462	5.6364	0.1	138.76
25081	3.0462	5.8182	0.1	50.791
25082	2.9538	5.9091	0.1	24.575
25083	3.1385	0.27273	0.1	92.528
25084	3.2308	0.18182	0.1	50.294
25085	3.1385	9.0909e-002	0.1	25.071
25086	3.1385	0.45455	0.1	175.9
25087	3.2308	0.36364	0.1	131.16
25088	3.1385	0.63636	0.1	257.43
25089	3.2308	0.54545	0.1	210.01
25090	3.1385	0.81818	0.1	337.45
25091	3.2308	0.72727	0.1	287.64
25092	3.1385	1.	0.1	415.18
25093	3.2308	0.90909	0.1	363.51
25094	3.1385	1.1818	0.1	489.62
25095	3.2308	1.0909	0.1	436.67
25096	3.1385	1.3636	0.1	559.82
25097	3.2308	1.2727	0.1	506.22
25098	3.1385	1.5455	0.1	624.91
25099	3.2308	1.4545	0.1	571.28
25100	3.1385	1.7273	0.1	684.06
25101	3.2308	1.6364	0.1	631.05
25102	3.1385	1.9091	0.1	736.6
25103	3.2308	1.8182	0.1	684.81
25104	3.1385	2.0909	0.1	781.94
25105	3.2308	2.	0.1	731.96
25106	3.1385	2.2727	0.1	819.62
25107	3.2308	2.1818	0.1	771.96
25108	3.1385	2.4545	0.1	849.27
25109	3.2308	2.3636	0.1	804.43
25110	3.1385	2.6364	0.1	870.63
25111	3.2308	2.5455	0.1	829.03
25112	3.1385	2.8182	0.1	883.52
25113	3.2308	2.7273	0.1	845.56
25114	3.1385	3.	0.1	887.83
25115	3.2308	2.9091	0.1	853.85
25116	3.1385	3.1818	0.1	883.52
25117	3.2308	3.0909	0.1	853.85
25118	3.1385	3.3636	0.1	870.63
25119	3.2308	3.2727	0.1	845.56
25120	3.1385	3.5455	0.1	849.27
25121	3.2308	3.4545	0.1	829.03
25122	3.1385	3.7273	0.1	819.62
25123	3.2308	3.6364	0.1	804.43
25124	3.1385	3.9091	0.1	781.94
25125	3.2308	3.8182	0.1	771.96
25126	3.1385	4.0909	0.1	736.6
25127	3.2308	4.	0.1	731.96
25128	3.1385	4.2727	0.1	684.06
25129	3.2308	4.1818	0.1	684.81
25130	3.1385	4.4545	0.1	624.91
25131	3.2308	4.3636	0.1	631.05
25132	3.1385	4.6364	0.1	559.82
25133	3.2308	4.5455	0.1	571.28
25134	3.1385	4.8182	0.1	489.62
25135	3.2308	4.7273	0.1	506.22
25136	3.1385	5.	0.1	415.18
25137	3.2308	4.9091	0.1	436.67
25138	3.1385	5.1818	0.1	337.45
25139	3.2308	5.0909	0.1	363.51
25140	3.1385	5.3636	0.1	257.43
25141	3.2308	5.2727	0.1	287.64
25142	3.1385	5.5455	0.1	175.9
25143	3.2308	5.4545	0.1	210.01
25144	3.1385	5.7273	0.1	92.528
25145	3.2308	5.6364	0.1	131.16
25146	3.2308	5.8182	0.1	50.294
25147	3.1385	5.9091	0.1	25.071
25148	3.3231	0.27273	0.1	88.447
25149	3.4154	0.18182	0.1	49.335
25150	3.3231	9.0909e-002	0.1	25.17
25151	3.3231	0.45455	0.1	165.13
25152	3.4154	0.36364	0.1	123.74
25153	3.3231	0.63636	0.1	240.1
25154	3.4154	0.54545	0.1	196.33
25155	3.3231	0.81818	0.1	313.58
25156	3.4154	0.72727	0.1	267.69
25157	3.3231	1.	0.1	384.9
25158	3.4154	0.90909	0.1	337.34
25159	3.3231	1.1818	0.1	453.19
25160	3.4154	1.0909	0.1	404.46
25161	3.3231	1.3636	0.1	517.62
25162	3.4154	1.2727	0.1	468.28
25163	3.3231	1.5455	0.1	577.4
25164	3.4154	1.4545	0.1	528.
25165	3.3231	1.7273	0.1	631.81
25166	3.4154	1.6364	0.1	582.92
25167	3.3231	1.9091	0.1	680.21
25168	3.4154	1.8182	0.1	632.37
25169	3.3231	2.0909	0.1	722.04
25170	3.4154	2.	0.1	675.79
25171	3.3231	2.2727	0.1	756.86
25172	3.4154	2.1818	0.1	712.69
25173	3.3231	2.4545	0.1	784.3
25174	3.4154	2.3636	0.1	742.68
25175	3.3231	2.6364	0.1	804.08
25176	3.4154	2.5455	0.1	765.43
25177	3.3231	2.8182	0.1	816.03
25178	3.4154	2.7273	0.1	780.72
25179	3.3231	3.	0.1	820.02
25180	3.4154	2.9091	0.1	788.4
25181	3.3231	3.1818	0.1	816.03
25182	3.4154	3.0909	0.1	788.4
25183	3.3231	3.3636	0.1	804.08
25184	3.4154	3.2727	0.1	780.72
25185	3.3231	3.5455	0.1	784.3
25186	3.4154	3.4545	0.1	765.43
25187	3.3231	3.7273	0.1	756.86
25188	3.4154	3.6364	0.1	742.68
25189	3.3231	3.9091	0.1	722.04
25190	3.4154	3.8182	0.1	712.69
25191	3.3231	4.0909	0.1	680.21
25192	3.4154	4.	0.1	675.79
25193	3.3231	4.2727	0.1	631.81
25194	3.4154	4.1818	0.1	632.37
25195	3.3231	4.4545	0.1	577.4
25196	3.4154	4.3636	0.1	582.92
25197	3.3231	4.6364	0.1	517.62
25198	3.4154	4.5455	0.1	528.
25199	3.3231	4.8182	0.1	453.19
25200	3.4154	4.7273	0.1	468.28
25201	3.3231	5.	0.1	384.9
25202	3.4154	4.9091	0.1	404.46
25203	3.3231	5.1818	0.1	313.58
25204	3.4154	5.0909	0.1	337.34
25205	3.3231	5.3636	0.1	240.1
25206	3.4154	5.2727	0.1	267.69
25207	3.3231	5.5455	0.1	165.13
25208	3.4154	5.4545	0.1	196.33
25209	3.3231	5.7273	0.1	88.447
25210	3.4154	5.6364	0.1	123.74
25211	3.4154	5.8182	0.1	49.335
25212	3.3231	5.9091	0.1	25.17
25213	3.5077	0.27273	0.1	84.231
25214	3.6	0.18182	0.1	47.998
25215	3.5077	9.0909e-002	0.1	24.942
25216	3.5077	0.45455	0.1	154.81
25217	3.6	0.36364	0.1	116.49
25218	3.5077	0.63636	0.1	223.81
25219	3.6	0.54545	0.1	183.36
25220	3.5077	0.81818	0.1	291.34
25221	3.6	0.72727	0.1	249.
25222	3.5077	1.	0.1	356.81
25223	3.6	0.90909	0.1	312.99
25224	3.5077	1.1818	0.1	419.48
25225	3.6	1.0909	0.1	374.61
25226	3.5077	1.3636	0.1	478.61
25227	3.6	1.2727	0.1	433.16
25228	3.5077	1.5455	0.1	533.49
25229	3.6	1.4545	0.1	487.97
25230	3.5077	1.7273	0.1	583.48
25231	3.6	1.6364	0.1	538.39
25232	3.5077	1.9091	0.1	627.99
25233	3.6	1.8182	0.1	583.83
25234	3.5077	2.0909	0.1	666.5
25235	3.6	2.	0.1	623.76
25236	3.5077	2.2727	0.1	698.59
25237	3.6	2.1818	0.1	657.73
25238	3.5077	2.4545	0.1	723.9
25239	3.6	2.3636	0.1	685.35
25240	3.5077	2.6364	0.1	742.17
25241	3.6	2.5455	0.1	706.32
25242	3.5077	2.8182	0.1	753.21
25243	3.6	2.7273	0.1	720.43
25244	3.5077	3.	0.1	756.9
25245	3.6	2.9091	0.1	727.52
25246	3.5077	3.1818	0.1	753.21
25247	3.6	3.0909	0.1	727.52
25248	3.5077	3.3636	0.1	742.17
25249	3.6	3.2727	0.1	720.43
25250	3.5077	3.5455	0.1	723.9
25251	3.6	3.4545	0.1	706.32
25252	3.5077	3.7273	0.1	698.59
25253	3.6	3.6364	0.1	685.35
25254	3.5077	3.9091	0.1	666.5
25255	3.6	3.8182	0.1	657.73
25256	3.5077	4.0909	0.1	627.99
25257	3.6	4.	0.1	623.76
25258	3.5077	4.2727	0.1	583.48
25259	3.6	4.1818	0.1	583.83
25260	3.5077	4.4545	0.1	533.49
25261	3.6	4.3636	0.1	538.39
25262	3.5077	4.6364	0.1	478.61
25263	3.6	4.5455	0.1	487.97
25264	3.5077	4.8182	0.1	419.48
25265	3.6	4.7273	0.1	433.16
25266	3.5077	5.	0.1	356.81
25267	3.6	4.9091	0.1	374.61
25268	3.5077	5.1818	0.1	291.34
25269	3.6	5.0909	0.1	312.99
25270	3.5077	5.3636	0.1	223.81
25271	3.6	5.2727	0.1	249.
25272	3.5077	5.5455	0.1	154.81
25273	3.6	5.4545	0.1	183.36
25274	3.5077	5.7273	0.1	84.231
25275	3.6	5.6364	0.1	116.49
25276	3.6	5.8182	0.1	47.998
25277	3.5077	5.9091	0.1	24.942
25278	3.6923	0.27273	0.1	79.931
25279	3.7846	0.18182	0.1	46.357
25280	3.6923	9.0909e-002	0.1	24.448
25281	3.6923	0.45455	0.1	144.93
25282	3.7846	0.36364	0.1	109.44
25283	3.6923	0.63636	0.1	208.47
25284	3.7846	0.54545	0.1	171.07
25285	3.6923	0.81818	0.1	270.56
25286	3.7846	0.72727	0.1	231.48
25287	3.6923	1.	0.1	330.7
25288	3.7846	0.90909	0.1	290.29
25289	3.6923	1.1818	0.1	388.22
25290	3.7846	1.0909	0.1	346.87
25291	3.6923	1.3636	0.1	442.48
25292	3.7846	1.2727	0.1	400.61
25293	3.6923	1.5455	0.1	492.85
25294	3.7846	1.4545	0.1	450.91
25295	3.6923	1.7273	0.1	538.74
25296	3.7846	1.6364	0.1	497.18
25297	3.6923	1.9091	0.1	579.62
25298	3.7846	1.8182	0.1	538.89
25299	3.6923	2.0909	0.1	615.03
25300	3.7846	2.	0.1	575.56
25301	3.6923	2.2727	0.1	644.54
25302	3.7846	2.1818	0.1	606.77
25303	3.6923	2.4545	0.1	667.84
25304	3.7846	2.3636	0.1	632.17
25305	3.6923	2.6364	0.1	684.66
25306	3.7846	2.5455	0.1	651.47
25307	3.6923	2.8182	0.1	694.83
25308	3.7846	2.7273	0.1	664.45
25309	3.6923	3.	0.1	698.23
25310	3.7846	2.9091	0.1	670.97
25311	3.6923	3.1818	0.1	694.83
25312	3.7846	3.0909	0.1	670.97
25313	3.6923	3.3636	0.1	684.66
25314	3.7846	3.2727	0.1	664.45
25315	3.6923	3.5455	0.1	667.84
25316	3.7846	3.4545	0.1	651.47
25317	3.6923	3.7273	0.1	644.54
25318	3.7846	3.6364	0.1	632.17
25319	3.6923	3.9091	0.1	615.03
25320	3.7846	3.8182	0.1	606.77
25321	3.6923	4.0909	0.1	579.62
25322	3.7846	4.	0.1	575.56
25323	3.6923	4.2727	0.1	538.74
25324	3.7846	4.1818	0.1	538.89
25325	3.6923	4.4545	0.1	492.85
25326	3.7846	4.3636	0.1	497.18
25327	3.6923	4.6364	0.1	442.48
25328	3.7846	4.5455	0.1	450.91
25329	3.6923	4.8182	0.1	388.22
25330	3.7846	4.7273	0.1	400.61
25331	3.6923	5.	0.1	330.7
25332	3.7846	4.9091	0.1	346.87
25333	3.6923	5.1818	0.1	270.56
25334	3.7846	5.0909	0.1	290.29
25335	3.6923	5.3636	0.1	208.47
25336	3.7846	5.2727	0.1	231.48
25337	3.6923	5.5455	0.1	144.93
25338	3.7846	5.4545	0.1	171.07
25339	3.6923	5.7273	0.1	79.931
25340	3.7846	5.6364	0.1	109.44
25341	3.7846	5.8182	0.1	46.357
25342	3.6923	5.9091	0.1	24.448
25343	3.8769	0.27273	0.1	75.592
25344	3.9692	0.18182	0.1	44.477
25345	3.8769	9.0909e-002	0.1	23.74
25346	3.8769	0.45455	0.1	135.48
25347	3.9692	0.36364	0.1	102.6
25348	3.8769	0.63636	0.1	194.01
25349	3.9692	0.54545	0.1	159.42
25350	3.8769	0.81818	0.1	251.13
25351	3.9692	0.72727	0.1	215.04
25352	3.8769	1.	0.1	306.39
25353	3.9692	0.90909	0.1	269.11
25354	3.8769	1.1818	0.1	359.2
25355	3.9692	1.0909	0.1	321.08
25356	3.8769	1.3636	0.1	408.99
25357	3.9692	1.2727	0.1	370.41
25358	3.8769	1.5455	0.1	455.21
25359	3.9692	1.4545	0.1	416.56
25360	3.8769	1.7273	0.1	497.32
25361	3.9692	1.6364	0.1	459.
25362	3.8769	1.9091	0.1	534.84
25363	3.9692	1.8182	0.1	497.27
25364	3.8769	2.0909	0.1	567.34
25365	3.9692	2.	0.1	530.92
25366	3.8769	2.2727	0.1	594.45
25367	3.9692	2.1818	0.1	559.57
25368	3.8769	2.4545	0.1	615.86
25369	3.9692	2.3636	0.1	582.89
25370	3.8769	2.6364	0.1	631.32
25371	3.9692	2.5455	0.1	600.61
25372	3.8769	2.8182	0.1	640.67
25373	3.9692	2.7273	0.1	612.54
25374	3.8769	3.	0.1	643.8
25375	3.9692	2.9091	0.1	618.54
25376	3.8769	3.1818	0.1	640.67
25377	3.9692	3.0909	0.1	618.54
25378	3.8769	3.3636	0.1	631.32
25379	3.9692	3.2727	0.1	612.54
25380	3.8769	3.5455	0.1	615.86
25381	3.9692	3.4545	0.1	600.61
25382	3.8769	3.7273	0.1	594.45
25383	3.9692	3.6364	0.1	582.89
25384	3.8769	3.9091	0.1	567.34
25385	3.9692	3.8182	0.1	559.57
25386	3.8769	4.0909	0.1	534.84
25387	3.9692	4.	0.1	530.92
25388	3.8769	4.2727	0.1	497.32
25389	3.9692	4.1818	0.1	497.27
25390	3.8769	4.4545	0.1	455.21
25391	3.9692	4.3636	0.1	459.
25392	3.8769	4.6364	0.1	408.99
25393	3.9692	4.5455	0.1	416.56
25394	3.8769	4.8182	0.1	359.2
25395	3.9692	4.7273	0.1	370.41
25396	3.8769	5.	0.1	306.39
25397	3.9692	4.9091	0.1	321.08
25398	3.8769	5.1818	0.1	251.13
25399	3.9692	5.0909	0.1	269.11
25400	3.8769	5.3636	0.1	194.01
25401	3.9692	5.2727	0.1	215.04
25402	3.8769	5.5455	0.1	135.48
25403	3.9692	5.4545	0.1	159.42
25404	3.8769	5.7273	0.1	75.592
25405	3.9692	5.6364	0.1	102.6
25406	3.9692	5.8182	0.1	44.477
25407	3.8769	5.9091	0.1	23.74
25408	4.0615	0.27273	0.1	71.254
25409	4.1538	0.18182	0.1	42.416
25410	4.0615	9.0909e-002	0.1	22.862
25411	4.0615	0.45455	0.1	126.45
25412	4.1538	0.36364	0.1	95.983
25413	4.0615	0.63636	0.1	180.38
25414	4.1538	0.54545	0.1	148.38
25415	4.0615	0.81818	0.1	232.94
25416	4.1538	0.72727	0.1	199.59
25417	4.0615	1.	0.1	283.73
25418	4.1538	0.90909	0.1	249.32
25419	4.0615	1.1818	0.1	332.23
25420	4.1538	1.0909	0.1	297.07
25421	4.0615	1.3636	0.1	377.93
25422	4.1538	1.2727	0.1	342.36
25423	4.0615	1.5455	0.1	420.32
25424	4.1538	1.4545	0.1	384.7
25425	4.0615	1.7273	0.1	458.95
25426	4.1538	1.6364	0.1	423.64
25427	4.0615	1.9091	0.1	493.36
25428	4.1538	1.8182	0.1	458.73
25429	4.0615	2.0909	0.1	523.18
25430	4.1538	2.	0.1	489.59
25431	4.0615	2.2727	0.1	548.05
25432	4.1538	2.1818	0.1	515.87
25433	4.0615	2.4545	0.1	567.69
25434	4.1538	2.3636	0.1	537.25
25435	4.0615	2.6364	0.1	581.89
25436	4.1538	2.5455	0.1	553.51
25437	4.0615	2.8182	0.1	590.47
25438	4.1538	2.7273	0.1	564.46
25439	4.0615	3.	0.1	593.34
25440	4.1538	2.9091	0.1	569.96
25441	4.0615	3.1818	0.1	590.47
25442	4.1538	3.0909	0.1	569.96
25443	4.0615	3.3636	0.1	581.89
25444	4.1538	3.2727	0.1	564.46
25445	4.0615	3.5455	0.1	567.69
25446	4.1538	3.4545	0.1	553.51
25447	4.0615	3.7273	0.1	548.05
25448	4.1538	3.6364	0.1	537.25
25449	4.0615	3.9091	0.1	523.18
25450	4.1538	3.8182	0.1	515.87
25451	4.0615	4.0909	0.1	493.36
25452	4.1538	4.	0.1	489.59
25453	4.0615	4.2727	0.1	458.95
25454	4.1538	4.1818	0.1	458.73
25455	4.0615	4.4545	0.1	420.32
25456	4.1538	4.3636	0.1	423.64
25457	4.0615	4.6364	0.1	377.93
25458	4.1538	4.5455	0.1	384.7
25459	4.0615	4.8182	0.1	332.23
25460	4.1538	4.7273	0.1	342.36
25461	4.0615	5.	0.1	283.73
25462	4.1538	4.9091	0.1	297.07
25463	4.0615	5.1818	0.1	232.94
25464	4.1538	5.0909	0.1	249.32
25465	4.0615	5.3636	0.1	180.38
25466	4.1538	5.2727	0.1	199.59
25467	4.0615	5.5455	0.1	126.45
25468	4.1538	5.4545	0.1	148.38
25469	4.0615	5.7273	0.1	71.254
25470	4.1538	5.6364	0.1	95.983
25471	4.1538	5.8182	0.1	42.416
25472	4.0615	5.9091	0.1	22.862
25473	4.2462	0.27273	0.1	66.951
25474	4.3385	0.18182	0.1	40.223
25475	4.2462	9.0909e-002	0.1	21.855
25476	4.2462	0.45455	0.1	117.84
25477	4.3385	0.36364	0.1	89.606
25478	4.2462	0.63636	0.1	167.53
25479	4.3385	0.54545	0.1	137.92
25480	4.2462	0.81818	0.1	215.91
25481	4.3385	0.72727	0.1	185.09
25482	4.2462	1.	0.1	262.61
25483	4.3385	0.90909	0.1	230.84
25484	4.2462	1.1818	0.1	307.15
25485	4.3385	1.0909	0.1	274.72
25486	4.2462	1.3636	0.1	349.09
25487	4.3385	1.2727	0.1	316.3
25488	4.2462	1.5455	0.1	387.99
25489	4.3385	1.4545	0.1	355.15
25490	4.2462	1.7273	0.1	423.41
25491	4.3385	1.6364	0.1	390.86
25492	4.2462	1.9091	0.1	454.96
25493	4.3385	1.8182	0.1	423.04
25494	4.2462	2.0909	0.1	482.29
25495	4.3385	2.	0.1	451.33
25496	4.2462	2.2727	0.1	505.1
25497	4.3385	2.1818	0.1	475.41
25498	4.2462	2.4545	0.1	523.11
25499	4.3385	2.3636	0.1	495.01
25500	4.2462	2.6364	0.1	536.12
25501	4.3385	2.5455	0.1	509.92
25502	4.2462	2.8182	0.1	543.99
25503	4.3385	2.7273	0.1	519.95
25504	4.2462	3.	0.1	546.62
25505	4.3385	2.9091	0.1	524.99
25506	4.2462	3.1818	0.1	543.99
25507	4.3385	3.0909	0.1	524.99
25508	4.2462	3.3636	0.1	536.12
25509	4.3385	3.2727	0.1	519.95
25510	4.2462	3.5455	0.1	523.11
25511	4.3385	3.4545	0.1	509.92
25512	4.2462	3.7273	0.1	505.1
25513	4.3385	3.6364	0.1	495.01
25514	4.2462	3.9091	0.1	482.29
25515	4.3385	3.8182	0.1	475.41
25516	4.2462	4.0909	0.1	454.96
25517	4.3385	4.	0.1	451.33
25518	4.2462	4.2727	0.1	423.41
25519	4.3385	4.1818	0.1	423.04
25520	4.2462	4.4545	0.1	387.99
25521	4.3385	4.3636	0.1	390.86
25522	4.2462	4.6364	0.1	349.09
25523	4.3385	4.5455	0.1	355.15
25524	4.2462	4.8182	0.1	307.15
25525	4.3385	4.7273	0.1	316.3
25526	4.2462	5.	0.1	262.61
25527	4.3385	4.9091	0.1	274.72
25528	4.2462	5.1818	0.1	215.91
25529	4.3385	5.0909	0.1	230.84
25530	4.2462	5.3636	0.1	167.53
25531	4.3385	5.2727	0.1	185.09
25532	4.2462	5.5455	0.1	117.84
25533	4.3385	5.4545	0.1	137.92
25534	4.2462	5.7273	0.1	66.951
25535	4.3385	5.6364	0.1	89.606
25536	4.3385	5.8182	0.1	40.223
25537	4.2462	5.9091	0.1	21.855
25538	4.4308	0.27273	0.1	62.713
25539	4.5231	0.18182	0.1	37.942
25540	4.4308	9.0909e-002	0.1	20.75
25541	4.4308	0.45455	0.1	109.63
25542	4.5231	0.36364	0.1	83.476
25543	4.4308	0.63636	0.1	155.43
25544	4.5231	0.54545	0.1	128.04
25545	4.4308	0.81818	0.1	199.97
25546	4.5231	0.72727	0.1	171.48
25547	4.4308	1.	0.1	242.9
25548	4.5231	0.90909	0.1	213.57
25549	4.4308	1.1818	0.1	283.82
25550	4.5231	1.0909	0.1	253.9
25551	4.4308	1.3636	0.1	322.32
25552	4.5231	1.2727	0.1	292.08
25553	4.4308	1.5455	0.1	358.
25554	4.5231	1.4545	0.1	327.73
25555	4.4308	1.7273	0.1	390.48
25556	4.5231	1.6364	0.1	360.48
25557	4.4308	1.9091	0.1	419.4
25558	4.5231	1.8182	0.1	389.98
25559	4.4308	2.0909	0.1	444.45
25560	4.5231	2.	0.1	415.91
25561	4.4308	2.2727	0.1	465.35
25562	4.5231	2.1818	0.1	437.98
25563	4.4308	2.4545	0.1	481.85
25564	4.5231	2.3636	0.1	455.94
25565	4.4308	2.6364	0.1	493.78
25566	4.5231	2.5455	0.1	469.59
25567	4.4308	2.8182	0.1	500.99
25568	4.5231	2.7273	0.1	478.78
25569	4.4308	3.	0.1	503.4
25570	4.5231	2.9091	0.1	483.4
25571	4.4308	3.1818	0.1	500.99
25572	4.5231	3.0909	0.1	483.4
25573	4.4308	3.3636	0.1	493.78
25574	4.5231	3.2727	0.1	478.78
25575	4.4308	3.5455	0.1	481.85
25576	4.5231	3.4545	0.1	469.59
25577	4.4308	3.7273	0.1	465.35
25578	4.5231	3.6364	0.1	455.94
25579	4.4308	3.9091	0.1	444.45
25580	4.5231	3.8182	0.1	437.98
25581	4.4308	4.0909	0.1	419.4
25582	4.5231	4.	0.1	415.91
25583	4.4308	4.2727	0.1	390.48
25584	4.5231	4.1818	0.1	389.98
25585	4.4308	4.4545	0.1	358.
25586	4.5231	4.3636	0.1	360.48
25587	4.4308	4.6364	0.1	322.32
25588	4.5231	4.5455	0.1	327.73
25589	4.4308	4.8182	0.1	283.82
25590	4.5231	4.7273	0.1	292.08
25591	4.4308	5.	0.1	242.9
25592	4.5231	4.9091	0.1	253.9
25593	4.4308	5.1818	0.1	199.97
25594	4.5231	5.0909	0.1	213.57
25595	4.4308	5.3636	0.1	155.43
25596	4.5231	5.2727	0.1	171.48
25597	4.4308	5.5455	0.1	109.63
25598	4.5231	5.4545	0.1	128.04
25599	4.4308	5.7273	0.1	62.713
25600	4.5231	5.6364	0.1	83.476
25601	4.5231	5.8182	0.1	37.942
25602	4.4308	5.9091	0.1	20.75
25603	4.6154	0.27273	0.1	58.565
25604	4.7077	0.18182	0.1	35.609
25605	4.6154	9.0909e-002	0.1	19.575
25606	4.6154	0.45455	0.1	101.83
25607	4.7077	0.36364	0.1	77.601
25608	4.6154	0.63636	0.1	144.04
25609	4.7077	0.54545	0.1	118.69
25610	4.6154	0.81818	0.1	185.04
25611	4.7077	0.72727	0.1	158.72
25612	4.6154	1.	0.1	224.53
25613	4.7077	0.90909	0.1	197.44
25614	4.6154	1.1818	0.1	262.12
25615	4.7077	1.0909	0.1	234.51
25616	4.6154	1.3636	0.1	297.46
25617	4.7077	1.2727	0.1	269.58
25618	4.6154	1.5455	0.1	330.2
25619	4.7077	1.4545	0.1	302.3
25620	4.6154	1.7273	0.1	359.97
25621	4.7077	1.6364	0.1	332.33
25622	4.6154	1.9091	0.1	386.49
25623	4.7077	1.8182	0.1	359.37
25624	4.6154	2.0909	0.1	409.44
25625	4.7077	2.	0.1	383.13
25626	4.6154	2.2727	0.1	428.58
25627	4.7077	2.1818	0.1	403.35
25628	4.6154	2.4545	0.1	443.7
25629	4.7077	2.3636	0.1	419.8
25630	4.6154	2.6364	0.1	454.62
25631	4.7077	2.5455	0.1	432.3
25632	4.6154	2.8182	0.1	461.22
25633	4.7077	2.7273	0.1	440.72
25634	4.6154	3.	0.1	463.43
25635	4.7077	2.9091	0.1	444.95
25636	4.6154	3.1818	0.1	461.22
25637	4.7077	3.0909	0.1	444.95
25638	4.6154	3.3636	0.1	454.62
25639	4.7077	3.2727	0.1	440.72
25640	4.6154	3.5455	0.1	443.7
25641	4.7077	3.4545	0.1	432.3
25642	4.6154	3.7273	0.1	428.58
25643	4.7077	3.6364	0.1	419.8
25644	4.6154	3.9091	0.1	409.44
25645	4.7077	3.8182	0.1	403.35
25646	4.6154	4.0909	0.1	386.49
25647	4.7077	4.	0.1	383.13
25648	4.6154	4.2727	0.1	359.97
25649	4.7077	4.1818	0.1	359.37
25650	4.6154	4.4545	0.1	330.2
25651	4.7077	4.3636	0.1	332.33
25652	4.6154	4.6364	0.1	297.46
25653	4.7077	4.5455	0.1	302.3
25654	4.6154	4.8182	0.1	262.12
25655	4.7077	4.7273	0.1	269.58
25656	4.6154	5.	0.1	224.53
25657	4.7077	4.9091	0.1	234.51
25658	4.6154	5.1818	0.1	185.04
25659	4.7077	5.0909	0.1	197.44
25660	4.6154	5.3636	0.1	144.04
25661	4.7077	5.2727	0.1	158.72
25662	4.6154	5.5455	0.1	101.83
25663	4.7077	5.4545	0.1	118.69
25664	4.6154	5.7273	0.1	58.565
25665	4.7077	5.6364	0.1	77.601
25666	4.7077	5.8182	0.1	35.609
25667	4.6154	5.9091	0.1	19.575
25668	4.8	0.27273	0.1	54.526
25669	4.8923	0.18182	0.1	33.254
25670	4.8	9.0909e-002	0.1	18.355
25671	4.8	0.45455	0.1	94.423
25672	4.8923	0.36364	0.1	71.987
25673	4.8	0.63636	0.1	133.33
25674	4.8923	0.54545	0.1	109.88
25675	4.8	0.81818	0.1	171.08
25676	4.8923	0.72727	0.1	146.74
25677	4.8	1.	0.1	207.39
25678	4.8923	0.90909	0.1	182.38
25679	4.8	1.1818	0.1	241.94
25680	4.8923	1.0909	0.1	216.46
25681	4.8	1.3636	0.1	274.38
25682	4.8923	1.2727	0.1	248.67
25683	4.8	1.5455	0.1	304.41
25684	4.8923	1.4545	0.1	278.69
25685	4.8	1.7273	0.1	331.72
25686	4.8923	1.6364	0.1	306.24
25687	4.8	1.9091	0.1	356.02
25688	4.8923	1.8182	0.1	331.03
25689	4.8	2.0909	0.1	377.04
25690	4.8923	2.	0.1	352.8
25691	4.8	2.2727	0.1	394.58
25692	4.8923	2.1818	0.1	371.32
25693	4.8	2.4545	0.1	408.42
25694	4.8923	2.3636	0.1	386.39
25695	4.8	2.6364	0.1	418.42
25696	4.8923	2.5455	0.1	397.83
25697	4.8	2.8182	0.1	424.46
25698	4.8923	2.7273	0.1	405.54
25699	4.8	3.	0.1	426.49
25700	4.8923	2.9091	0.1	409.41
25701	4.8	3.1818	0.1	424.46
25702	4.8923	3.0909	0.1	409.41
25703	4.8	3.3636	0.1	418.42
25704	4.8923	3.2727	0.1	405.54
25705	4.8	3.5455	0.1	408.42
25706	4.8923	3.4545	0.1	397.83
25707	4.8	3.7273	0.1	394.58
25708	4.8923	3.6364	0.1	386.39
25709	4.8	3.9091	0.1	377.04
25710	4.8923	3.8182	0.1	371.32
25711	4.8	4.0909	0.1	356.02
25712	4.8923	4.	0.1	352.8
25713	4.8	4.2727	0.1	331.72
25714	4.8923	4.1818	0.1	331.03
25715	4.8	4.4545	0.1	304.41
25716	4.8923	4.3636	0.1	306.24
25717	4.8	4.6364	0.1	274.38
25718	4.8923	4.5455	0.1	278.69
25719	4.8	4.8182	0.1	241.94
25720	4.8923	4.7273	0.1	248.67
25721	4.8	5.	0.1	207.39
25722	4.8923	4.9091	0.1	216.46
25723	4.8	5.1818	0.1	171.08
25724	4.8923	5.0909	0.1	182.38
25725	4.8	5.3636	0.1	133.33
25726	4.8923	5.2727	0.1	146.74
25727	4.8	5.5455	0.1	94.423
25728	4.8923	5.4545	0.1	109.88
25729	4.8	5.7273	0.1	54.526
25730	4.8923	5.6364	0.1	71.987
25731	4.8923	5.8182	0.1	33.254
25732	4.8	5.9091	0.1	18.355
25733	4.9846	0.27273	0.1	50.614
25734	5.0769	0.18182	0.1	30.903
25735	4.9846	9.0909e-002	0.1	17.108
25736	4.9846	0.45455	0.1	87.407
25737	5.0769	0.36364	0.1	66.635
25738	4.9846	0.63636	0.1	123.26
25739	5.0769	0.54545	0.1	101.57
25740	4.9846	0.81818	0.1	158.01
25741	5.0769	0.72727	0.1	135.53
25742	4.9846	1.	0.1	191.41
25743	5.0769	0.90909	0.1	168.32
25744	4.9846	1.1818	0.1	223.16
25745	5.0769	1.0909	0.1	199.65
25746	4.9846	1.3636	0.1	252.95
25747	5.0769	1.2727	0.1	229.24
25748	4.9846	1.5455	0.1	280.51
25749	5.0769	1.4545	0.1	256.8
25750	4.9846	1.7273	0.1	305.55
25751	5.0769	1.6364	0.1	282.07
25752	4.9846	1.9091	0.1	327.82
25753	5.0769	1.8182	0.1	304.8
25754	4.9846	2.0909	0.1	347.08
25755	5.0769	2.	0.1	324.75
25756	4.9846	2.2727	0.1	363.14
25757	5.0769	2.1818	0.1	341.71
25758	4.9846	2.4545	0.1	375.81
25759	5.0769	2.3636	0.1	355.5
25760	4.9846	2.6364	0.1	384.97
25761	5.0769	2.5455	0.1	365.98
25762	4.9846	2.8182	0.1	390.5
25763	5.0769	2.7273	0.1	373.04
25764	4.9846	3.	0.1	392.35
25765	5.0769	2.9091	0.1	376.58
25766	4.9846	3.1818	0.1	390.5
25767	5.0769	3.0909	0.1	376.58
25768	4.9846	3.3636	0.1	384.97
25769	5.0769	3.2727	0.1	373.04
25770	4.9846	3.5455	0.1	375.81
25771	5.0769	3.4545	0.1	365.98
25772	4.9846	3.7273	0.1	363.14
25773	5.0769	3.6364	0.1	355.5
25774	4.9846	3.9091	0.1	347.08
25775	5.0769	3.8182	0.1	341.71
25776	4.9846	4.0909	0.1	327.82
25777	5.0769	4.	0.1	324.75
25778	4.9846	4.2727	0.1	305.55
25779	5.0769	4.1818	0.1	304.8
25780	4.9846	4.4545	0.1	280.51
25781	5.0769	4.3636	0.1	282.07
25782	4.9846	4.6364	0.1	252.95
25783	5.0769	4.5455	0.1	256.8
25784	4.9846	4.8182	0.1	223.16
25785	5.0769	4.7273	0.1	229.24
25786	4.9846	5.	0.1	191.41
25787	5.0769	4.9091	0.1	199.65
25788	4.9846	5.1818	0.1	158.01
25789	5.0769	5.0909	0.1	168.32
25790	4.9846	5.3636	0.1	123.26
25791	5.0769	5.2727	0.1	135.53
25792	4.9846	5.5455	0.1	87.407
25793	5.0769	5.4545	0.1	101.57
25794	4.9846	5.7273	0.1	50.614
25795	5.0769	5.6364	0.1	66.635
25796	5.0769	5.8182	0.1	30.903
25797	4.9846	5.9091	0.1	17.108
25798	5.1692	0.27273	0.1	46.839
25799	5.2615	0.18182	0.1	28.577
25800	5.1692	9.0909e-002	0.1	15.852
25801	5.1692	0.45455	0.1	80.77
25802	5.2615	0.36364	0.1	61.545
25803	5.1692	0.63636	0.1	113.81
25804	5.2615	0.54545	0.1	93.755
25805	5.1692	0.81818	0.1	145.81
25806	5.2615	0.72727	0.1	125.03
25807	5.1692	1.	0.1	176.53
25808	5.2615	0.90909	0.1	155.2
25809	5.1692	1.1818	0.1	205.7
25810	5.2615	1.0909	0.1	184.01
25811	5.1692	1.3636	0.1	233.06
25812	5.2615	1.2727	0.1	211.19
25813	5.1692	1.5455	0.1	258.34
25814	5.2615	1.4545	0.1	236.49
25815	5.1692	1.7273	0.1	281.31
25816	5.2615	1.6364	0.1	259.67
25817	5.1692	1.9091	0.1	301.72
25818	5.2615	1.8182	0.1	280.51
25819	5.1692	2.0909	0.1	319.37
25820	5.2615	2.	0.1	298.79
25821	5.1692	2.2727	0.1	334.08
25822	5.2615	2.1818	0.1	314.33
25823	5.1692	2.4545	0.1	345.68
25824	5.2615	2.3636	0.1	326.96
25825	5.1692	2.6364	0.1	354.06
25826	5.2615	2.5455	0.1	336.56
25827	5.1692	2.8182	0.1	359.13
25828	5.2615	2.7273	0.1	343.01
25829	5.1692	3.	0.1	360.82
25830	5.2615	2.9091	0.1	346.26
25831	5.1692	3.1818	0.1	359.13
25832	5.2615	3.0909	0.1	346.26
25833	5.1692	3.3636	0.1	354.06
25834	5.2615	3.2727	0.1	343.01
25835	5.1692	3.5455	0.1	345.68
25836	5.2615	3.4545	0.1	336.56
25837	5.1692	3.7273	0.1	334.08
25838	5.2615	3.6364	0.1	326.96
25839	5.1692	3.9091	0.1	319.37
25840	5.2615	3.8182	0.1	314.33
25841	5.1692	4.0909	0.1	301.72
25842	5.2615	4.	0.1	298.79
25843	5.1692	4.2727	0.1	281.31
25844	5.2615	4.1818	0.1	280.51
25845	5.1692	4.4545	0.1	258.34
25846	5.2615	4.3636	0.1	259.67
25847	5.1692	4.6364	0.1	233.06
25848	5.2615	4.5455	0.1	236.49
25849	5.1692	4.8182	0.1	205.7
25850	5.2615	4.7273	0.1	211.19
25851	5.1692	5.	0.1	176.53
25852	5.2615	4.9091	0.1	184.01
25853	5.1692	5.1818	0.1	145.81
25854	5.2615	5.0909	0.1	155.2
25855	5.1692	5.3636	0.1	113.81
25856	5.2615	5.2727	0.1	125.03
25857	5.1692	5.5455	0.1	80.77
25858	5.2615	5.4545	0.1	93.755
25859	5.1692	5.7273	0.1	46.839
25860	5.2615	5.6364	0.1	61.545
25861	5.2615	5.8182	0.1	28.577
25862	5.1692	5.9091	0.1	15.852
25863	5.3538	0.27273	0.1	43.211
25864	5.4462	0.18182	0.1	26.292
25865	5.3538	9.0909e-002	0.1	14.6
25866	5.3538	0.45455	0.1	74.504
25867	5.4462	0.36364	0.1	56.715
25868	5.3538	0.63636	0.1	104.95
25869	5.4462	0.54545	0.1	86.405
25870	5.3538	0.81818	0.1	134.4
25871	5.4462	0.72727	0.1	115.21
25872	5.3538	1.	0.1	162.66
25873	5.4462	0.90909	0.1	142.97
25874	5.3538	1.1818	0.1	189.47
25875	5.4462	1.0909	0.1	169.45
25876	5.3538	1.3636	0.1	214.59
25877	5.4462	1.2727	0.1	194.42
25878	5.3538	1.5455	0.1	237.8
25879	5.4462	1.4545	0.1	217.65
25880	5.3538	1.7273	0.1	258.86
25881	5.4462	1.6364	0.1	238.92
25882	5.3538	1.9091	0.1	277.57
25883	5.4462	1.8182	0.1	258.02
25884	5.3538	2.0909	0.1	293.74
25885	5.4462	2.	0.1	274.78
25886	5.3538	2.2727	0.1	307.21
25887	5.4462	2.1818	0.1	289.02
25888	5.3538	2.4545	0.1	317.84
25889	5.4462	2.3636	0.1	300.59
25890	5.3538	2.6364	0.1	325.51
25891	5.4462	2.5455	0.1	309.37
25892	5.3538	2.8182	0.1	330.15
25893	5.4462	2.7273	0.1	315.28
25894	5.3538	3.	0.1	331.7
25895	5.4462	2.9091	0.1	318.25
25896	5.3538	3.1818	0.1	330.15
25897	5.4462	3.0909	0.1	318.25
25898	5.3538	3.3636	0.1	325.51
25899	5.4462	3.2727	0.1	315.28
25900	5.3538	3.5455	0.1	317.84
25901	5.4462	3.4545	0.1	309.37
25902	5.3538	3.7273	0.1	307.21
25903	5.4462	3.6364	0.1	300.59
25904	5.3538	3.9091	0.1	293.74
25905	5.4462	3.8182	0.1	289.02
25906	5.3538	4.0909	0.1	277.57
25907	5.4462	4.	0.1	274.78
25908	5.3538	4.2727	0.1	258.86
25909	5.4462	4.1818	0.1	258.02
25910	5.3538	4.4545	0.1	237.8
25911	5.4462	4.3636	0.1	238.92
25912	5.3538	4.6364	0.1	214.59
25913	5.4462	4.5455	0.1	217.65
25914	5.3538	4.8182	0.1	189.47
25915	5.4462	4.7273	0.1	194.42
25916	5.3538	5.	0.1	162.66
25917	5.4462	4.9091	0.1	169.45
25918	5.3538	5.1818	0.1	134.4
25919	5.4462	5.0909	0.1	142.97
25920	5.3538	5.3636	0.1	104.95
25921	5.4462	5.2727	0.1	115.21
25922	5.3538	5.5455	0.1	74.504
25923	5.4462	5.4545	0.1	86.405
25924	5.3538	5.7273	0.1	43.211
25925	5.4462	5.6364	0.1	56.715
25926	5.4462	5.8182	0.1	26.292
25927	5.3538	5.9091	0.1	14.6
25928	5.5385	0.27273	0.1	39.735
25929	5.6308	0.18182	0.1	24.061
25930	5.5385	9.0909e-002	0.1	13.362
25931	5.5385	0.45455	0.1	68.595
25932	5.6308	0.36364	0.1	52.14
25933	5.5385	0.63636	0.1	96.644
25934	5.6308	0.54545	0.1	79.502
25935	5.5385	0.81818	0.1	123.76
25936	5.6308	0.72727	0.1	106.02
25937	5.5385	1.	0.1	149.74
25938	5.6308	0.90909	0.1	131.57
25939	5.5385	1.1818	0.1	174.39
25940	5.6308	1.0909	0.1	155.92
25941	5.5385	1.3636	0.1	197.46
25942	5.6308	1.2727	0.1	178.85
25943	5.5385	1.5455	0.1	218.75
25944	5.6308	1.4545	0.1	200.18
25945	5.5385	1.7273	0.1	238.07
25946	5.6308	1.6364	0.1	219.69
25947	5.5385	1.9091	0.1	255.23
25948	5.6308	1.8182	0.1	237.22
25949	5.5385	2.0909	0.1	270.05
25950	5.6308	2.	0.1	252.57
25951	5.5385	2.2727	0.1	282.39
25952	5.6308	2.1818	0.1	265.62
25953	5.5385	2.4545	0.1	292.12
25954	5.6308	2.3636	0.1	276.21
25955	5.5385	2.6364	0.1	299.14
25956	5.6308	2.5455	0.1	284.26
25957	5.5385	2.8182	0.1	303.39
25958	5.6308	2.7273	0.1	289.67
25959	5.5385	3.	0.1	304.81
25960	5.6308	2.9091	0.1	292.39
25961	5.5385	3.1818	0.1	303.39
25962	5.6308	3.0909	0.1	292.39
25963	5.5385	3.3636	0.1	299.14
25964	5.6308	3.2727	0.1	289.67
25965	5.5385	3.5455	0.1	292.12
25966	5.6308	3.4545	0.1	284.26
25967	5.5385	3.7273	0.1	282.39
25968	5.6308	3.6364	0.1	276.21
25969	5.5385	3.9091	0.1	270.05
25970	5.6308	3.8182	0.1	265.62
25971	5.5385	4.0909	0.1	255.23
25972	5.6308	4.	0.1	252.57
25973	5.5385	4.2727	0.1	238.07
25974	5.6308	4.1818	0.1	237.22
25975	5.5385	4.4545	0.1	218.75
25976	5.6308	4.3636	0.1	219.69
25977	5.5385	4.6364	0.1	197.46
25978	5.6308	4.5455	0.1	200.18
25979	5.5385	4.8182	0.1	174.39
25980	5.6308	4.7273	0.1	178.85
25981	5.5385	5.	0.1	149.74
25982	5.6308	4.9091	0.1	155.92
25983	5.5385	5.1818	0.1	123.76
25984	5.6308	5.0909	0.1	131.57
25985	5.5385	5.3636	0.1	96.644
25986	5.6308	5.2727	0.1	106.02
25987	5.5385	5.5455	0.1	68.595
25988	5.6308	5.4545	0.1	79.502
25989	5.5385	5.7273	0.1	39.735
25990	5.6308	5.6364	0.1	52.14
25991	5.6308	5.8182	0.1	24.061
25992	5.5385	5.9091	0.1	13.362
25993	5.7231	0.27273	0.1	36.416
25994	5.8154	0.18182	0.1	21.896
25995	5.7231	9.0909e-002	0.1	12.148
25996	5.7231	0.45455	0.1	63.031
25997	5.8154	0.36364	0.1	47.815
25998	5.7231	0.63636	0.1	88.868
25999	5.8154	0.54545	0.1	73.027
26000	5.7231	0.81818	0.1	113.82
26001	5.8154	0.72727	0.1	97.445
26002	5.7231	1.	0.1	137.72
26003	5.8154	0.90909	0.1	120.95
26004	5.7231	1.1818	0.1	160.37
26005	5.8154	1.0909	0.1	143.33
26006	5.7231	1.3636	0.1	181.56
26007	5.8154	1.2727	0.1	164.4
26008	5.7231	1.5455	0.1	201.11
26009	5.8154	1.4545	0.1	183.98
26010	5.7231	1.7273	0.1	218.83
26011	5.8154	1.6364	0.1	201.89
26012	5.7231	1.9091	0.1	234.55
26013	5.8154	1.8182	0.1	217.96
26014	5.7231	2.0909	0.1	248.14
26015	5.8154	2.	0.1	232.03
26016	5.7231	2.2727	0.1	259.44
26017	5.8154	2.1818	0.1	243.99
26018	5.7231	2.4545	0.1	268.36
26019	5.8154	2.3636	0.1	253.69
26020	5.7231	2.6364	0.1	274.79
26021	5.8154	2.5455	0.1	261.06
26022	5.7231	2.8182	0.1	278.67
26023	5.8154	2.7273	0.1	266.02
26024	5.7231	3.	0.1	279.97
26025	5.8154	2.9091	0.1	268.51
26026	5.7231	3.1818	0.1	278.67
26027	5.8154	3.0909	0.1	268.51
26028	5.7231	3.3636	0.1	274.79
26029	5.8154	3.2727	0.1	266.02
26030	5.7231	3.5455	0.1	268.36
26031	5.8154	3.4545	0.1	261.06
26032	5.7231	3.7273	0.1	259.44
26033	5.8154	3.6364	0.1	253.69
26034	5.7231	3.9091	0.1	248.14
26035	5.8154	3.8182	0.1	243.99
26036	5.7231	4.0909	0.1	234.55
26037	5.8154	4.	0.1	232.03
26038	5.7231	4.2727	0.1	218.83
26039	5.8154	4.1818	0.1	217.96
26040	5.7231	4.4545	0.1	201.11
26041	5.8154	4.3636	0.1	201.89
26042	5.7231	4.6364	0.1	181.56
26043	5.8154	4.5455	0.1	183.98
26044	5.7231	4.8182	0.1	160.37
26045	5.8154	4.7273	0.1	164.4
26046	5.7231	5.	0.1	137.72
26047	5.8154	4.9091	0.1	143.33
26048	5.7231	5.1818	0.1	113.82
26049	5.8154	5.0909	0.1	120.95
26050	5.7231	5.3636	0.1	88.868
26051	5.8154	5.2727	0.1	97.445
26052	5.7231	5.5455	0.1	63.031
26053	5.8154	5.4545	0.1	73.027
26054	5.7231	5.7273	0.1	36.416
26055	5.8154	5.6364	0.1	47.815
26056	5.8154	5.8182	0.1	21.896
26057	5.7231	5.9091	0.1	12.148
26058	5.9077	0.27273	0.1	33.254
26059	6.	0.18182	0.1	19.803
26060	5.9077	9.0909e-002	0.1	10.964
26061	5.9077	0.45455	0.1	57.798
26062	6.	0.36364	0.1	43.732
26063	5.9077	0.63636	0.1	81.593
26064	6.	0.54545	0.1	66.958
26065	5.9077	0.81818	0.1	104.56
26066	6.	0.72727	0.1	89.435
26067	5.9077	1.	0.1	126.54
26068	6.	0.90909	0.1	111.05
26069	5.9077	1.1818	0.1	147.35
26070	6.	1.0909	0.1	131.63
26071	5.9077	1.3636	0.1	166.81
26072	6.	1.2727	0.1	150.99
26073	5.9077	1.5455	0.1	184.75
26074	6.	1.4545	0.1	168.96
26075	5.9077	1.7273	0.1	201.01
26076	6.	1.6364	0.1	185.39
26077	5.9077	1.9091	0.1	215.43
26078	6.	1.8182	0.1	200.13
26079	5.9077	2.0909	0.1	227.88
26080	6.	2.	0.1	213.04
26081	5.9077	2.2727	0.1	238.24
26082	6.	2.1818	0.1	223.99
26083	5.9077	2.4545	0.1	246.4
26084	6.	2.3636	0.1	232.88
26085	5.9077	2.6364	0.1	252.29
26086	6.	2.5455	0.1	239.63
26087	5.9077	2.8182	0.1	255.85
26088	6.	2.7273	0.1	244.17
26089	5.9077	3.	0.1	257.04
26090	6.	2.9091	0.1	246.45
26091	5.9077	3.1818	0.1	255.85
26092	6.	3.0909	0.1	246.45
26093	5.9077	3.3636	0.1	252.29
26094	6.	3.2727	0.1	244.17
26095	5.9077	3.5455	0.1	246.4
26096	6.	3.4545	0.1	239.63
26097	5.9077	3.7273	0.1	238.24
26098	6.	3.6364	0.1	232.88
26099	5.9077	3.9091	0.1	227.88
26100	6.	3.8182	0.1	223.99
26101	5.9077	4.0909	0.1	215.43
26102	6.	4.	0.1	213.04
26103	5.9077	4.2727	0.1	201.01
26104	6.	4.1818	0.1	200.13
26105	5.9077	4.4545	0.1	184.75
26106	6.	4.3636	0.1	185.39
26107	5.9077	4.6364	0.1	166.81
26108	6.	4.5455	0.1	168.96
26109	5.9077	4.8182	0.1	147.35
26110	6.	4.7273	0.1	150.99
26111	5.9077	5.	0.1	126.54
26112	6.	4.9091	0.1	131.63
26113	5.9077	5.1818	0.1	104.56
26114	6.	5.0909	0.1	111.05
26115	5.9077	5.3636	0.1	81.593
26116	6.	5.2727	0.1	89.435
26117	5.9077	5.5455	0.1	57.798
26118	6.	5.4545	0.1	66.958
26119	5.9077	5.7273	0.1	33.254
26120	6.	5.6364	0.1	43.732
26121	6.	5.8182	0.1	19.803
26122	5.9077	5.9091	0.1	10.964
26123	6.0923	0.27273	0.1	30.248
26124	6.1846	0.18182	0.1	17.789
26125	6.0923	9.0909e-002	0.1	9.816
26126	6.0923	0.45455	0.1	52.882
26127	6.1846	0.36364	0.1	39.884
26128	6.0923	0.63636	0.1	74.792
26129	6.1846	0.54545	0.1	61.275
26130	6.0923	0.81818	0.1	95.921
26131	6.1846	0.72727	0.1	81.961
26132	6.0923	1.	0.1	116.13
26133	6.1846	0.90909	0.1	101.84
26134	6.0923	1.1818	0.1	135.26
26135	6.1846	1.0909	0.1	120.75
26136	6.0923	1.3636	0.1	153.13
26137	6.1846	1.2727	0.1	138.54
26138	6.0923	1.5455	0.1	169.6
26139	6.1846	1.4545	0.1	155.04
26140	6.0923	1.7273	0.1	184.51
26141	6.1846	1.6364	0.1	170.12
26142	6.0923	1.9091	0.1	197.73
26143	6.1846	1.8182	0.1	183.63
26144	6.0923	2.0909	0.1	209.15
26145	6.1846	2.	0.1	195.47
26146	6.0923	2.2727	0.1	218.64
26147	6.1846	2.1818	0.1	205.5
26148	6.0923	2.4545	0.1	226.12
26149	6.1846	2.3636	0.1	213.65
26150	6.0923	2.6364	0.1	231.51
26151	6.1846	2.5455	0.1	219.84
26152	6.0923	2.8182	0.1	234.77
26153	6.1846	2.7273	0.1	223.99
26154	6.0923	3.	0.1	235.86
26155	6.1846	2.9091	0.1	226.08
26156	6.0923	3.1818	0.1	234.77
26157	6.1846	3.0909	0.1	226.08
26158	6.0923	3.3636	0.1	231.51
26159	6.1846	3.2727	0.1	223.99
26160	6.0923	3.5455	0.1	226.12
26161	6.1846	3.4545	0.1	219.84
26162	6.0923	3.7273	0.1	218.64
26163	6.1846	3.6364	0.1	213.65
26164	6.0923	3.9091	0.1	209.15
26165	6.1846	3.8182	0.1	205.5
26166	6.0923	4.0909	0.1	197.73
26167	6.1846	4.	0.1	195.47
26168	6.0923	4.2727	0.1	184.51
26169	6.1846	4.1818	0.1	183.63
26170	6.0923	4.4545	0.1	169.6
26171	6.1846	4.3636	0.1	170.12
26172	6.0923	4.6364	0.1	153.13
26173	6.1846	4.5455	0.1	155.04
26174	6.0923	4.8182	0.1	135.26
26175	6.1846	4.7273	0.1	138.54
26176	6.0923	5.	0.1	116.13
26177	6.1846	4.9091	0.1	120.75
26178	6.0923	5.1818	0.1	95.921
26179	6.1846	5.0909	0.1	101.84
26180	6.0923	5.3636	0.1	74.792
26181	6.1846	5.2727	0.1	81.961
26182	6.0923	5.5455	0.1	52.882
26183	6.1846	5.4545	0.1	61.275
26184	6.0923	5.7273	0.1	30.248
26185	6.1846	5.6364	0.1	39.884
26186	6.1846	5.8182	0.1	17.789
26187	6.0923	5.9091	0.1	9.816
26188	6.2769	0.27273	0.1	27.398
26189	6.3692	0.18182	0.1	15.857
26190	6.2769	9.0909e-002	0.1	8.7072
26191	6.2769	0.45455	0.1	48.27
26192	6.3692	0.36364	0.1	36.261
26193	6.2769	0.63636	0.1	68.438
26194	6.3692	0.54545	0.1	55.957
26195	6.2769	0.81818	0.1	87.875
26196	6.3692	0.72727	0.1	74.989
26197	6.2769	1.	0.1	106.46
26198	6.3692	0.90909	0.1	93.271
26199	6.2769	1.1818	0.1	124.03
26200	6.3692	1.0909	0.1	110.65
26201	6.2769	1.3636	0.1	140.44
26202	6.3692	1.2727	0.1	126.98
26203	6.2769	1.5455	0.1	155.55
26204	6.3692	1.4545	0.1	142.13
26205	6.2769	1.7273	0.1	169.24
26206	6.3692	1.6364	0.1	155.97
26207	6.2769	1.9091	0.1	181.36
26208	6.3692	1.8182	0.1	168.37
26209	6.2769	2.0909	0.1	191.82
26210	6.3692	2.	0.1	179.21
26211	6.2769	2.2727	0.1	200.52
26212	6.3692	2.1818	0.1	188.41
26213	6.2769	2.4545	0.1	207.37
26214	6.3692	2.3636	0.1	195.88
26215	6.2769	2.6364	0.1	212.31
26216	6.3692	2.5455	0.1	201.54
26217	6.2769	2.8182	0.1	215.3
26218	6.3692	2.7273	0.1	205.35
26219	6.2769	3.	0.1	216.3
26220	6.3692	2.9091	0.1	207.26
26221	6.2769	3.1818	0.1	215.3
26222	6.3692	3.0909	0.1	207.26
26223	6.2769	3.3636	0.1	212.31
26224	6.3692	3.2727	0.1	205.35
26225	6.2769	3.5455	0.1	207.37
26226	6.3692	3.4545	0.1	201.54
26227	6.2769	3.7273	0.1	200.52
26228	6.3692	3.6364	0.1	195.88
26229	6.2769	3.9091	0.1	191.82
26230	6.3692	3.8182	0.1	188.41
26231	6.2769	4.0909	0.1	181.36
26232	6.3692	4.	0.1	179.21
26233	6.2769	4.2727	0.1	169.24
26234	6.3692	4.1818	0.1	168.37
26235	6.2769	4.4545	0.1	155.55
26236	6.3692	4.3636	0.1	155.97
26237	6.2769	4.6364	0.1	140.44
26238	6.3692	4.5455	0.1	142.13
26239	6.2769	4.8182	0.1	124.03
26240	6.3692	4.7273	0.1	126.98
26241	6.2769	5.	0.1	106.46
26242	6.3692	4.9091	0.1	110.65
26243	6.2769	5.1818	0.1	87.875
26244	6.3692	5.0909	0.1	93.271
26245	6.2769	5.3636	0.1	68.438
26246	6.3692	5.2727	0.1	74.989
26247	6.2769	5.5455	0.1	48.27
26248	6.3692	5.4545	0.1	55.957
26249	6.2769	5.7273	0.1	27.398
26250	6.3692	5.6364	0.1	36.261
26251	6.3692	5.8182	0.1	15.857
26252	6.2769	5.9091	0.1	8.7072
26253	6.4615	0.27273	0.1	24.7
26254	6.5538	0.18182	0.1	14.009
26255	6.4615	9.0909e-002	0.1	7.6408
26256	6.4615	0.45455	0.1	43.945
26257	6.5538	0.36364	0.1	32.855
26258	6.4615	0.63636	0.1	62.505
26259	6.5538	0.54545	0.1	50.984
26260	6.4615	0.81818	0.1	80.381
26261	6.5538	0.72727	0.1	68.49
26262	6.4615	1.	0.1	97.46
26263	6.5538	0.90909	0.1	85.296
26264	6.4615	1.1818	0.1	113.6
26265	6.5538	1.0909	0.1	101.26
26266	6.4615	1.3636	0.1	128.67
26267	6.5538	1.2727	0.1	116.26
26268	6.4615	1.5455	0.1	142.54
26269	6.5538	1.4545	0.1	130.17
26270	6.4615	1.7273	0.1	155.09
26271	6.5538	1.6364	0.1	142.86
26272	6.4615	1.9091	0.1	166.21
26273	6.5538	1.8182	0.1	154.23
26274	6.4615	2.0909	0.1	175.8
26275	6.5538	2.	0.1	164.18
26276	6.4615	2.2727	0.1	183.77
26277	6.5538	2.1818	0.1	172.61
26278	6.4615	2.4545	0.1	190.05
26279	6.5538	2.3636	0.1	179.45
26280	6.4615	2.6364	0.1	194.57
26281	6.5538	2.5455	0.1	184.64
26282	6.4615	2.8182	0.1	197.31
26283	6.5538	2.7273	0.1	188.12
26284	6.4615	3.	0.1	198.22
26285	6.5538	2.9091	0.1	189.87
26286	6.4615	3.1818	0.1	197.31
26287	6.5538	3.0909	0.1	189.87
26288	6.4615	3.3636	0.1	194.57
26289	6.5538	3.2727	0.1	188.12
26290	6.4615	3.5455	0.1	190.05
26291	6.5538	3.4545	0.1	184.64
26292	6.4615	3.7273	0.1	183.77
26293	6.5538	3.6364	0.1	179.45
26294	6.4615	3.9091	0.1	175.8
26295	6.5538	3.8182	0.1	172.61
26296	6.4615	4.0909	0.1	166.21
26297	6.5538	4.	0.1	164.18
26298	6.4615	4.2727	0.1	155.09
26299	6.5538	4.1818	0.1	154.23
26300	6.4615	4.4545	0.1	142.54
26301	6.5538	4.3636	0.1	142.86
26302	6.4615	4.6364	0.1	128.67
26303	6.5538	4.5455	0.1	130.17
26304	6.4615	4.8182	0.1	113.6
26305	6.5538	4.7273	0.1	116.26
26306	6.4615	5.	0.1	97.46
26307	6.5538	4.9091	0.1	101.26
26308	6.4615	5.1818	0.1	80.381
26309	6.5538	5.0909	0.1	85.296
26310	6.4615	5.3636	0.1	62.505
26311	6.5538	5.2727	0.1	68.49
26312	6.4615	5.5455	0.1	43.945
26313	6.5538	5.4545	0.1	50.984
26314	6.4615	5.7273	0.1	24.7
26315	6.5538	5.6364	0.1	32.855
26316	6.5538	5.8182	0.1	14.009
26317	6.4615	5.9091	0.1	7.6408
26318	6.6462	0.27273	0.1	22.149
26319	6.7385	0.18182	0.1	12.247
26320	6.6462	9.0909e-002	0.1	6.6188
26321	6.6462	0.45455	0.1	39.893
26322	6.7385	0.36364	0.1	29.656
26323	6.6462	0.63636	0.1	56.968
26324	6.7385	0.54545	0.1	46.336
26325	6.6462	0.81818	0.1	73.403
26326	6.7385	0.72727	0.1	62.433
26327	6.6462	1.	0.1	89.097
26328	6.7385	0.90909	0.1	77.877
26329	6.6462	1.1818	0.1	103.92
26330	6.7385	1.0909	0.1	92.545
26331	6.6462	1.3636	0.1	117.76
26332	6.7385	1.2727	0.1	106.32
26333	6.6462	1.5455	0.1	130.49
26334	6.7385	1.4545	0.1	119.08
26335	6.6462	1.7273	0.1	142.
26336	6.7385	1.6364	0.1	130.72
26337	6.6462	1.9091	0.1	152.19
26338	6.7385	1.8182	0.1	141.15
26339	6.6462	2.0909	0.1	160.98
26340	6.7385	2.	0.1	150.26
26341	6.6462	2.2727	0.1	168.28
26342	6.7385	2.1818	0.1	157.99
26343	6.6462	2.4545	0.1	174.04
26344	6.7385	2.3636	0.1	164.26
26345	6.6462	2.6364	0.1	178.18
26346	6.7385	2.5455	0.1	169.01
26347	6.6462	2.8182	0.1	180.68
26348	6.7385	2.7273	0.1	172.2
26349	6.6462	3.	0.1	181.52
26350	6.7385	2.9091	0.1	173.8
26351	6.6462	3.1818	0.1	180.68
26352	6.7385	3.0909	0.1	173.8
26353	6.6462	3.3636	0.1	178.18
26354	6.7385	3.2727	0.1	172.2
26355	6.6462	3.5455	0.1	174.04
26356	6.7385	3.4545	0.1	169.01
26357	6.6462	3.7273	0.1	168.28
26358	6.7385	3.6364	0.1	164.26
26359	6.6462	3.9091	0.1	160.98
26360	6.7385	3.8182	0.1	157.99
26361	6.6462	4.0909	0.1	152.19
26362	6.7385	4.	0.1	150.26
26363	6.6462	4.2727	0.1	142.
26364	6.7385	4.1818	0.1	141.15
26365	6.6462	4.4545	0.1	130.49
26366	6.7385	4.3636	0.1	130.72
26367	6.6462	4.6364	0.1	117.76
26368	6.7385	4.5455	0.1	119.08
26369	6.6462	4.8182	0.1	103.92
26370	6.7385	4.7273	0.1	106.32
26371	6.6462	5.	0.1	89.097
26372	6.7385	4.9091	0.1	92.545
26373	6.6462	5.1818	0.1	73.403
26374	6.7385	5.0909	0.1	77.877
26375	6.6462	5.3636	0.1	56.968
26376	6.7385	5.2727	0.1	62.433
26377	6.6462	5.5455	0.1	39.893
26378	6.7385	5.4545	0.1	46.336
26379	6.6462	5.7273	0.1	22.149
26380	6.7385	5.6364	0.1	29.656
26381	6.7385	5.8182	0.1	12.247
26382	6.6462	5.9091	0.1	6.6188
26383	6.8308	0.27273	0.1	19.742
26384	6.9231	0.18182	0.1	10.57
26385	6.8308	9.0909e-002	0.1	5.6423
26386	6.8308	0.45455	0.1	36.1
26387	6.9231	0.36364	0.1	26.652
26388	6.8308	0.63636	0.1	51.802
26389	6.9231	0.54545	0.1	41.994
26390	6.8308	0.81818	0.1	66.907
26391	6.9231	0.72727	0.1	56.789
26392	6.8308	1.	0.1	81.324
26393	6.9231	0.90909	0.1	70.977
26394	6.8308	1.1818	0.1	94.937
26395	6.9231	1.0909	0.1	84.446
26396	6.8308	1.3636	0.1	107.63
26397	6.9231	1.2727	0.1	97.086
26398	6.8308	1.5455	0.1	119.31
26399	6.9231	1.4545	0.1	108.79
26400	6.8308	1.7273	0.1	129.87
26401	6.9231	1.6364	0.1	119.47
26402	6.8308	1.9091	0.1	139.22
26403	6.9231	1.8182	0.1	129.03
26404	6.8308	2.0909	0.1	147.27
26405	6.9231	2.	0.1	137.39
26406	6.8308	2.2727	0.1	153.96
26407	6.9231	2.1818	0.1	144.47
26408	6.8308	2.4545	0.1	159.23
26409	6.9231	2.3636	0.1	150.21
26410	6.8308	2.6364	0.1	163.03
26411	6.9231	2.5455	0.1	154.56
26412	6.8308	2.8182	0.1	165.32
26413	6.9231	2.7273	0.1	157.48
26414	6.8308	3.	0.1	166.09
26415	6.9231	2.9091	0.1	158.95
26416	6.8308	3.1818	0.1	165.32
26417	6.9231	3.0909	0.1	158.95
26418	6.8308	3.3636	0.1	163.03
26419	6.9231	3.2727	0.1	157.48
26420	6.8308	3.5455	0.1	159.23
26421	6.9231	3.4545	0.1	154.56
26422	6.8308	3.7273	0.1	153.96
26423	6.9231	3.6364	0.1	150.21
26424	6.8308	3.9091	0.1	147.27
26425	6.9231	3.8182	0.1	144.47
26426	6.8308	4.0909	0.1	139.22
26427	6.9231	4.	0.1	137.39
26428	6.8308	4.2727	0.1	129.87
26429	6.9231	4.1818	0.1	129.03
26430	6.8308	4.4545	0.1	119.31
26431	6.9231	4.3636	0.1	119.47
26432	6.8308	4.6364	0.1	107.63
26433	6.9231	4.5455	0.1	108.79
26434	6.8308	4.8182	0.1	94.937
26435	6.9231	4.7273	0.1	97.086
26436	6.8308	5.	0.1	81.324
26437	6.9231	4.9091	0.1	84.446
26438	6.8308	5.1818	0.1	66.907
26439	6.9231	5.0909	0.1	70.977
26440	6.8308	5.3636	0.1	51.802
26441	6.9231	5.2727	0.1	56.789
26442	6.8308	5.5455	0.1	36.1
26443	6.9231	5.4545	0.1	41.994
26444	6.8308	5.7273	0.1	19.742
26445	6.9231	5.6364	0.1	26.652
26446	6.9231	5.8182	0.1	10.57
26447	6.8308	5.9091	0.1	5.6423
26448	7.0154	0.27273	0.1	17.472
26449	7.1077	0.18182	0.1	8.9785
26450	7.0154	9.0909e-002	0.1	4.7123
26451	7.0154	0.45455	0.1	32.55
26452	7.1077	0.36364	0.1	23.835
26453	7.0154	0.63636	0.1	46.984
26454	7.1077	0.54545	0.1	37.94
26455	7.0154	0.81818	0.1	60.86
26456	7.1077	0.72727	0.1	51.53
26457	7.0154	1.	0.1	74.099
26458	7.1077	0.90909	0.1	64.559
26459	7.0154	1.1818	0.1	86.595
26460	7.1077	1.0909	0.1	76.922
26461	7.0154	1.3636	0.1	98.245
26462	7.1077	1.2727	0.1	88.519
26463	7.0154	1.5455	0.1	108.95
26464	7.1077	1.4545	0.1	99.258
26465	7.0154	1.7273	0.1	118.63
26466	7.1077	1.6364	0.1	109.05
26467	7.0154	1.9091	0.1	127.2
26468	7.1077	1.8182	0.1	117.81
26469	7.0154	2.0909	0.1	134.58
26470	7.1077	2.	0.1	125.46
26471	7.0154	2.2727	0.1	140.71
26472	7.1077	2.1818	0.1	131.95
26473	7.0154	2.4545	0.1	145.54
26474	7.1077	2.3636	0.1	137.21
26475	7.0154	2.6364	0.1	149.01
26476	7.1077	2.5455	0.1	141.19
26477	7.0154	2.8182	0.1	151.11
26478	7.1077	2.7273	0.1	143.87
26479	7.0154	3.	0.1	151.81
26480	7.1077	2.9091	0.1	145.21
26481	7.0154	3.1818	0.1	151.11
26482	7.1077	3.0909	0.1	145.21
26483	7.0154	3.3636	0.1	149.01
26484	7.1077	3.2727	0.1	143.87
26485	7.0154	3.5455	0.1	145.54
26486	7.1077	3.4545	0.1	141.19
26487	7.0154	3.7273	0.1	140.71
26488	7.1077	3.6364	0.1	137.21
26489	7.0154	3.9091	0.1	134.58
26490	7.1077	3.8182	0.1	131.95
26491	7.0154	4.0909	0.1	127.2
26492	7.1077	4.	0.1	125.46
26493	7.0154	4.2727	0.1	118.63
26494	7.1077	4.1818	0.1	117.81
26495	7.0154	4.4545	0.1	108.95
26496	7.1077	4.3636	0.1	109.05
26497	7.0154	4.6364	0.1	98.245
26498	7.1077	4.5455	0.1	99.258
26499	7.0154	4.8182	0.1	86.595
26500	7.1077	4.7273	0.1	88.519
26501	7.0154	5.	0.1	74.099
26502	7.1077	4.9091	0.1	76.922
26503	7.0154	5.1818	0.1	60.86
26504	7.1077	5.0909	0.1	64.559
26505	7.0154	5.3636	0.1	46.984
26506	7.1077	5.2727	0.1	51.53
26507	7.0154	5.5455	0.1	32.55
26508	7.1077	5.4545	0.1	37.94
26509	7.0154	5.7273	0.1	17.472
26510	7.1077	5.6364	0.1	23.835
26511	7.1077	5.8182	0.1	8.9785
26512	7.0154	5.9091	0.1	4.7123
26513	7.2	0.27273	0.1	15.334
26514	7.2923	0.18182	0.1	7.4702
26515	7.2	9.0909e-002	0.1	3.8293
26516	7.2	0.45455	0.1	29.23
26517	7.2923	0.36364	0.1	21.194
26518	7.2	0.63636	0.1	42.491
26519	7.2923	0.54545	0.1	34.154
26520	7.2	0.81818	0.1	55.233
26521	7.2923	0.72727	0.1	46.632
26522	7.2	1.	0.1	67.384
26523	7.2923	0.90909	0.1	58.59
26524	7.2	1.1818	0.1	78.848
26525	7.2923	1.0909	0.1	69.931
26526	7.2	1.3636	0.1	89.533
26527	7.2923	1.2727	0.1	80.568
26528	7.2	1.5455	0.1	99.352
26529	7.2923	1.4545	0.1	90.412
26530	7.2	1.7273	0.1	108.22
26531	7.2923	1.6364	0.1	99.385
26532	7.2	1.9091	0.1	116.07
26533	7.2923	1.8182	0.1	107.41
26534	7.2	2.0909	0.1	122.83
26535	7.2923	2.	0.1	114.42
26536	7.2	2.2727	0.1	128.45
26537	7.2923	2.1818	0.1	120.36
26538	7.2	2.4545	0.1	132.87
26539	7.2923	2.3636	0.1	125.18
26540	7.2	2.6364	0.1	136.05
26541	7.2923	2.5455	0.1	128.83
26542	7.2	2.8182	0.1	137.97
26543	7.2923	2.7273	0.1	131.28
26544	7.2	3.	0.1	138.62
26545	7.2923	2.9091	0.1	132.51
26546	7.2	3.1818	0.1	137.97
26547	7.2923	3.0909	0.1	132.51
26548	7.2	3.3636	0.1	136.05
26549	7.2923	3.2727	0.1	131.28
26550	7.2	3.5455	0.1	132.87
26551	7.2923	3.4545	0.1	128.83
26552	7.2	3.7273	0.1	128.45
26553	7.2923	3.6364	0.1	125.18
26554	7.2	3.9091	0.1	122.83
26555	7.2923	3.8182	0.1	120.36
26556	7.2	4.0909	0.1	116.07
26557	7.2923	4.	0.1	114.42
26558	7.2	4.2727	0.1	108.22
26559	7.2923	4.1818	0.1	107.41
26560	7.2	4.4545	0.1	99.352
26561	7.2923	4.3636	0.1	99.385
26562	7.2	4.6364	0.1	89.533
26563	7.2923	4.5455	0.1	90.412
26564	7.2	4.8182	0.1	78.848
26565	7.2923	4.7273	0.1	80.568
26566	7.2	5.	0.1	67.384
26567	7.2923	4.9091	0.1	69.931
26568	7.2	5.1818	0.1	55.233
26569	7.2923	5.0909	0.1	58.59
26570	7.2	5.3636	0.1	42.491
26571	7.2923	5.2727	0.1	46.632
26572	7.2	5.5455	0.1	29.23
26573	7.2923	5.4545	0.1	34.154
26574	7.2	5.7273	0.1	15.334
26575	7.2923	5.6364	0.1	21.194
26576	7.2923	5.8182	0.1	7.4702
26577	7.2	5.9091	0.1	3.8293
26578	7.3846	0.27273	0.1	13.322
26579	7.4769	0.18182	0.1	6.0443
26580	7.3846	9.0909e-002	0.1	2.9944
26581	7.3846	0.45455	0.1	26.125
26582	7.4769	0.36364	0.1	18.719
26583	7.3846	0.63636	0.1	38.301
26584	7.4769	0.54545	0.1	30.619
26585	7.3846	0.81818	0.1	49.994
26586	7.4769	0.72727	0.1	42.069
26587	7.3846	1.	0.1	61.141
26588	7.4769	0.90909	0.1	53.036
26589	7.3846	1.1818	0.1	71.654
26590	7.4769	1.0909	0.1	63.435
26591	7.3846	1.3636	0.1	81.449
26592	7.4769	1.2727	0.1	73.184
26593	7.3846	1.5455	0.1	90.447
26594	7.4769	1.4545	0.1	82.205
26595	7.3846	1.7273	0.1	98.575
26596	7.4769	1.6364	0.1	90.424
26597	7.3846	1.9091	0.1	105.76
26598	7.4769	1.8182	0.1	97.775
26599	7.3846	2.0909	0.1	111.96
26600	7.4769	2.	0.1	104.2
26601	7.3846	2.2727	0.1	117.1
26602	7.4769	2.1818	0.1	109.63
26603	7.3846	2.4545	0.1	121.14
26604	7.4769	2.3636	0.1	114.04
26605	7.3846	2.6364	0.1	124.05
26606	7.4769	2.5455	0.1	117.38
26607	7.3846	2.8182	0.1	125.81
26608	7.4769	2.7273	0.1	119.62
26609	7.3846	3.	0.1	126.4
26610	7.4769	2.9091	0.1	120.75
26611	7.3846	3.1818	0.1	125.81
26612	7.4769	3.0909	0.1	120.75
26613	7.3846	3.3636	0.1	124.05
26614	7.4769	3.2727	0.1	119.62
26615	7.3846	3.5455	0.1	121.14
26616	7.4769	3.4545	0.1	117.38
26617	7.3846	3.7273	0.1	117.1
26618	7.4769	3.6364	0.1	114.04
26619	7.3846	3.9091	0.1	111.96
26620	7.4769	3.8182	0.1	109.63
26621	7.3846	4.0909	0.1	105.76
26622	7.4769	4.	0.1	104.2
26623	7.3846	4.2727	0.1	98.575
26624	7.4769	4.1818	0.1	97.775
26625	7.3846	4.4545	0.1	90.447
26626	7.4769	4.3636	0.1	90.424
26627	7.3846	4.6364	0.1	81.449
26628	7.4769	4.5455	0.1	82.205
26629	7.3846	4.8182	0.1	71.654
26630	7.4769	4.7273	0.1	73.184
26631	7.3846	5.	0.1	61.141
26632	7.4769	4.9091	0.1	63.435
26633	7.3846	5.1818	0.1	49.994
26634	7.4769	5.0909	0.1	53.036
26635	7.3846	5.3636	0.1	38.301
26636	7.4769	5.2727	0.1	42.069
26637	7.3846	5.5455	0.1	26.125
26638	7.4769	5.4545	0.1	30.619
26639	7.3846	5.7273	0.1	13.322
26640	7.4769	5.6364	0.1	18.719
26641	7.4769	5.8182	0.1	6.0443
26642	7.3846	5.9091	0.1	2.9944
26643	7.5692	0.27273	0.1	11.43
26644	7.6615	0.18182	0.1	4.6999
26645	7.5692	9.0909e-002	0.1	2.2102
26646	7.5692	0.45455	0.1	23.222
26647	7.6615	0.36364	0.1	16.401
26648	7.5692	0.63636	0.1	34.394
26649	7.6615	0.54545	0.1	27.319
26650	7.5692	0.81818	0.1	45.117
26651	7.6615	0.72727	0.1	37.817
26652	7.5692	1.	0.1	55.336
26653	7.6615	0.90909	0.1	47.868
26654	7.5692	1.1818	0.1	64.97
26655	7.6615	1.0909	0.1	57.396
26656	7.5692	1.3636	0.1	73.944
26657	7.6615	1.2727	0.1	66.326
26658	7.5692	1.5455	0.1	82.185
26659	7.6615	1.4545	0.1	74.586
26660	7.5692	1.7273	0.1	89.627
26661	7.6615	1.6364	0.1	82.11
26662	7.5692	1.9091	0.1	96.209
26663	7.6615	1.8182	0.1	88.838
26664	7.5692	2.0909	0.1	101.88
26665	7.6615	2.	0.1	94.714
26666	7.5692	2.2727	0.1	106.58
26667	7.6615	2.1818	0.1	99.688
26668	7.5692	2.4545	0.1	110.28
26669	7.6615	2.3636	0.1	103.72
26670	7.5692	2.6364	0.1	112.95
26671	7.6615	2.5455	0.1	106.77
26672	7.5692	2.8182	0.1	114.56
26673	7.6615	2.7273	0.1	108.82
26674	7.5692	3.	0.1	115.09
26675	7.6615	2.9091	0.1	109.85
26676	7.5692	3.1818	0.1	114.56
26677	7.6615	3.0909	0.1	109.85
26678	7.5692	3.3636	0.1	112.95
26679	7.6615	3.2727	0.1	108.82
26680	7.5692	3.5455	0.1	110.28
26681	7.6615	3.4545	0.1	106.77
26682	7.5692	3.7273	0.1	106.58
26683	7.6615	3.6364	0.1	103.72
26684	7.5692	3.9091	0.1	101.88
26685	7.6615	3.8182	0.1	99.688
26686	7.5692	4.0909	0.1	96.209
26687	7.6615	4.	0.1	94.714
26688	7.5692	4.2727	0.1	89.627
26689	7.6615	4.1818	0.1	88.838
26690	7.5692	4.4545	0.1	82.185
26691	7.6615	4.3636	0.1	82.11
26692	7.5692	4.6364	0.1	73.944
26693	7.6615	4.5455	0.1	74.586
26694	7.5692	4.8182	0.1	64.97
26695	7.6615	4.7273	0.1	66.326
26696	7.5692	5.	0.1	55.336
26697	7.6615	4.9091	0.1	57.396
26698	7.5692	5.1818	0.1	45.117
26699	7.6615	5.0909	0.1	47.868
26700	7.5692	5.3636	0.1	34.394
26701	7.6615	5.2727	0.1	37.817
26702	7.5692	5.5455	0.1	23.222
26703	7.6615	5.4545	0.1	27.319
26704	7.5692	5.7273	0.1	11.43
26705	7.6615	5.6364	0.1	16.401
26706	7.6615	5.8182	0.1	4.6999
26707	7.5692	5.9091	0.1	2.2102
26708	7.7538	0.27273	0.1	9.652
26709	7.8462	0.18182	0.1	3.4383
26710	7.7538	9.0909e-002	0.1	1.4845
26711	7.7538	0.45455	0.1	20.508
26712	7.8462	0.36364	0.1	14.229
26713	7.7538	0.63636	0.1	30.75
26714	7.8462	0.54545	0.1	24.238
26715	7.7538	0.81818	0.1	40.575
26716	7.8462	0.72727	0.1	33.853
26717	7.7538	1.	0.1	49.935
26718	7.8462	0.90909	0.1	43.058
26719	7.7538	1.1818	0.1	58.757
26720	7.8462	1.0909	0.1	51.779
26721	7.7538	1.3636	0.1	66.973
26722	7.8462	1.2727	0.1	59.951
26723	7.7538	1.5455	0.1	74.516
26724	7.8462	1.4545	0.1	67.509
26725	7.7538	1.7273	0.1	81.325
26726	7.8462	1.6364	0.1	74.393
26727	7.7538	1.9091	0.1	87.347
26728	7.8462	1.8182	0.1	80.546
26729	7.7538	2.0909	0.1	92.53
26730	7.8462	2.	0.1	85.919
26731	7.7538	2.2727	0.1	96.832
26732	7.8462	2.1818	0.1	90.467
26733	7.7538	2.4545	0.1	100.22
26734	7.8462	2.3636	0.1	94.152
26735	7.7538	2.6364	0.1	102.65
26736	7.8462	2.5455	0.1	96.944
26737	7.7538	2.8182	0.1	104.13
26738	7.8462	2.7273	0.1	98.818
26739	7.7538	3.	0.1	104.62
26740	7.8462	2.9091	0.1	99.76
26741	7.7538	3.1818	0.1	104.13
26742	7.8462	3.0909	0.1	99.76
26743	7.7538	3.3636	0.1	102.65
26744	7.8462	3.2727	0.1	98.818
26745	7.7538	3.5455	0.1	100.22
26746	7.8462	3.4545	0.1	96.944
26747	7.7538	3.7273	0.1	96.832
26748	7.8462	3.6364	0.1	94.152
26749	7.7538	3.9091	0.1	92.53
26750	7.8462	3.8182	0.1	90.467
26751	7.7538	4.0909	0.1	87.347
26752	7.8462	4.	0.1	85.919
26753	7.7538	4.2727	0.1	81.325
26754	7.8462	4.1818	0.1	80.546
26755	7.7538	4.4545	0.1	74.516
26756	7.8462	4.3636	0.1	74.393
26757	7.7538	4.6364	0.1	66.973
26758	7.8462	4.5455	0.1	67.509
26759	7.7538	4.8182	0.1	58.757
26760	7.8462	4.7273	0.1	59.951
26761	7.7538	5.	0.1	49.935
26762	7.8462	4.9091	0.1	51.779
26763	7.7538	5.1818	0.1	40.575
26764	7.8462	5.0909	0.1	43.058
26765	7.7538	5.3636	0.1	30.75
26766	7.8462	5.2727	0.1	33.853
26767	7.7538	5.5455	0.1	20.508
26768	7.8462	5.4545	0.1	24.238
26769	7.7538	5.7273	0.1	9.652
26770	7.8462	5.6364	0.1	14.229
26771	7.8462	5.8182	0.1	3.4383
26772	7.7538	5.9091	0.1	1.4845
26773	7.9385	0.27273	0.1	7.9811
26774	8.0308	0.18182	0.1	2.2675
26775	7.9385	9.0909e-002	0.1	0.84398
26776	7.9385	0.45455	0.1	17.969
26777	8.0308	0.36364	0.1	12.194
26778	7.9385	0.63636	0.1	27.35
26779	8.0308	0.54545	0.1	21.359
26780	7.9385	0.81818	0.1	36.344
26781	8.0308	0.72727	0.1	30.157
26782	7.9385	1.	0.1	44.909
26783	8.0308	0.90909	0.1	38.576
26784	7.9385	1.1818	0.1	52.98
26785	8.0308	1.0909	0.1	46.552
26786	7.9385	1.3636	0.1	60.494
26787	8.0308	1.2727	0.1	54.024
26788	7.9385	1.5455	0.1	67.392
26789	8.0308	1.4545	0.1	60.932
26790	7.9385	1.7273	0.1	73.618
26791	8.0308	1.6364	0.1	67.223
26792	7.9385	1.9091	0.1	79.123
26793	8.0308	1.8182	0.1	72.846
26794	7.9385	2.0909	0.1	83.86
26795	8.0308	2.	0.1	77.755
26796	7.9385	2.2727	0.1	87.792
26797	8.0308	2.1818	0.1	81.91
26798	7.9385	2.4545	0.1	90.884
26799	8.0308	2.3636	0.1	85.277
26800	7.9385	2.6364	0.1	93.112
26801	8.0308	2.5455	0.1	87.827
26802	7.9385	2.8182	0.1	94.457
26803	8.0308	2.7273	0.1	89.539
26804	7.9385	3.	0.1	94.906
26805	8.0308	2.9091	0.1	90.399
26806	7.9385	3.1818	0.1	94.457
26807	8.0308	3.0909	0.1	90.399
26808	7.9385	3.3636	0.1	93.112
26809	8.0308	3.2727	0.1	89.539
26810	7.9385	3.5455	0.1	90.884
26811	8.0308	3.4545	0.1	87.827
26812	7.9385	3.7273	0.1	87.792
26813	8.0308	3.6364	0.1	85.277
26814	7.9385	3.9091	0.1	83.86
26815	8.0308	3.8182	0.1	81.91
26816	7.9385	4.0909	0.1	79.123
26817	8.0308	4.	0.1	77.755
26818	7.9385	4.2727	0.1	73.618
26819	8.0308	4.1818	0.1	72.846
26820	7.9385	4.4545	0.1	67.392
26821	8.0308	4.3636	0.1	67.223
26822	7.9385	4.6364	0.1	60.494
26823	8.0308	4.5455	0.1	60.932
26824	7.9385	4.8182	0.1	52.98
26825	8.0308	4.7273	0.1	54.024
26826	7.9385	5.	0.1	44.909
26827	8.0308	4.9091	0.1	46.552
26828	7.9385	5.1818	0.1	36.344
26829	8.0308	5.0909	0.1	38.576
26830	7.9385	5.3636	0.1	27.35
26831	8.0308	5.2727	0.1	30.157
26832	7.9385	5.5455	0.1	17.969
26833	8.0308	5.4545	0.1	21.359
26834	7.9385	5.7273	0.1	7.9811
26835	8.0308	5.6364	0.1	12.194
26836	8.0308	5.8182	0.1	2.2675
26837	7.9385	5.9091	0.1	0.84398
26838	8.1231	0.27273	0.1	6.4117
26839	8.2154	0.18182	0.1	1.2242
26840	8.1231	9.0909e-002	0.1	0.37477
26841	8.1231	0.45455	0.1	15.595
26842	8.2154	0.36364	0.1	10.287
26843	8.1231	0.63636	0.1	24.177
26844	8.2154	0.54545	0.1	18.669
26845	8.1231	0.81818	0.1	32.399
26846	8.2154	0.72727	0.1	26.709
26847	8.1231	1.	0.1	40.228
26848	8.2154	0.90909	0.1	34.399
26849	8.1231	1.1818	0.1	47.604
26850	8.2154	1.0909	0.1	41.684
26851	8.1231	1.3636	0.1	54.469
26852	8.2154	1.2727	0.1	48.507
26853	8.1231	1.5455	0.1	60.77
26854	8.2154	1.4545	0.1	54.814
26855	8.1231	1.7273	0.1	66.457
26856	8.2154	1.6364	0.1	60.558
26857	8.1231	1.9091	0.1	71.484
26858	8.2154	1.8182	0.1	65.69
26859	8.1231	2.0909	0.1	75.811
26860	8.2154	2.	0.1	70.171
26861	8.1231	2.2727	0.1	79.401
26862	8.2154	2.1818	0.1	73.963
26863	8.1231	2.4545	0.1	82.224
26864	8.2154	2.3636	0.1	77.036
26865	8.1231	2.6364	0.1	84.258
26866	8.2154	2.5455	0.1	79.363
26867	8.1231	2.8182	0.1	85.486
26868	8.2154	2.7273	0.1	80.925
26869	8.1231	3.	0.1	85.896
26870	8.2154	2.9091	0.1	81.71
26871	8.1231	3.1818	0.1	85.486
26872	8.2154	3.0909	0.1	81.71
26873	8.1231	3.3636	0.1	84.258
26874	8.2154	3.2727	0.1	80.925
26875	8.1231	3.5455	0.1	82.224
26876	8.2154	3.4545	0.1	79.363
26877	8.1231	3.7273	0.1	79.401
26878	8.2154	3.6364	0.1	77.036
26879	8.1231	3.9091	0.1	75.811
26880	8.2154	3.8182	0.1	73.963
26881	8.1231	4.0909	0.1	71.484
26882	8.2154	4.	0.1	70.171
26883	8.1231	4.2727	0.1	66.457
26884	8.2154	4.1818	0.1	65.69
26885	8.1231	4.4545	0.1	60.77
26886	8.2154	4.3636	0.1	60.558
26887	8.1231	4.6364	0.1	54.469
26888	8.2154	4.5455	0.1	54.814
26889	8.1231	4.8182	0.1	47.604
26890	8.2154	4.7273	0.1	48.507
26891	8.1231	5.	0.1	40.228
26892	8.2154	4.9091	0.1	41.684
26893	8.1231	5.1818	0.1	32.399
26894	8.2154	5.0909	0.1	34.399
26895	8.1231	5.3636	0.1	24.177
26896	8.2154	5.2727	0.1	26.709
26897	8.1231	5.5455	0.1	15.595
26898	8.2154	5.4545	0.1	18.669
26899	8.1231	5.7273	0.1	6.4117
26900	8.2154	5.6364	0.1	10.287
26901	8.2154	5.8182	0.1	1.2242
26902	8.1231	5.9091	0.1	0.37478
26903	8.3077	0.27273	0.1	4.9381
26904	8.4	0.18182	0.1	0.47135
26905	8.3077	9.0909e-002	0.1	0.15701
26906	8.3077	0.45455	0.1	13.374
26907	8.4	0.36364	0.1	8.4992
26908	8.3077	0.63636	0.1	21.213
26909	8.4	0.54545	0.1	16.154
26910	8.3077	0.81818	0.1	28.719
26911	8.4	0.72727	0.1	23.488
26912	8.3077	1.	0.1	35.865
26913	8.4	0.90909	0.1	30.503
26914	8.3077	1.1818	0.1	42.596
26915	8.4	1.0909	0.1	37.146
26916	8.3077	1.3636	0.1	48.86
26917	8.4	1.2727	0.1	43.367
26918	8.3077	1.5455	0.1	54.609
26919	8.4	1.4545	0.1	49.118
26920	8.3077	1.7273	0.1	59.798
26921	8.4	1.6364	0.1	54.354
26922	8.3077	1.9091	0.1	64.383
26923	8.4	1.8182	0.1	59.033
26924	8.3077	2.0909	0.1	68.33
26925	8.4	2.	0.1	63.118
26926	8.3077	2.2727	0.1	71.604
26927	8.4	2.1818	0.1	66.575
26928	8.3077	2.4545	0.1	74.18
26929	8.4	2.3636	0.1	69.376
26930	8.3077	2.6364	0.1	76.035
26931	8.4	2.5455	0.1	71.497
26932	8.3077	2.8182	0.1	77.155
26933	8.4	2.7273	0.1	72.921
26934	8.3077	3.	0.1	77.529
26935	8.4	2.9091	0.1	73.637
26936	8.3077	3.1818	0.1	77.155
26937	8.4	3.0909	0.1	73.637
26938	8.3077	3.3636	0.1	76.035
26939	8.4	3.2727	0.1	72.921
26940	8.3077	3.5455	0.1	74.18
26941	8.4	3.4545	0.1	71.497
26942	8.3077	3.7273	0.1	71.604
26943	8.4	3.6364	0.1	69.376
26944	8.3077	3.9091	0.1	68.33
26945	8.4	3.8182	0.1	66.575
26946	8.3077	4.0909	0.1	64.383
26947	8.4	4.	0.1	63.118
26948	8.3077	4.2727	0.1	59.798
26949	8.4	4.1818	0.1	59.033
26950	8.3077	4.4545	0.1	54.609
26951	8.4	4.3636	0.1	54.354
26952	8.3077	4.6364	0.1	48.86
26953	8.4	4.5455	0.1	49.118
26954	8.3077	4.8182	0.1	42.596
26955	8.4	4.7273	0.1	43.367
26956	8.3077	5.	0.1	35.865
26957	8.4	4.9091	0.1	37.146
26958	8.3077	5.1818	0.1	28.719
26959	8.4	5.0909	0.1	30.503
26960	8.3077	5.3636	0.1	21.213
26961	8.4	5.2727	0.1	23.488
26962	8.3077	5.5455	0.1	13.374
26963	8.4	5.4545	0.1	16.154
26964	8.3077	5.7273	0.1	4.9381
26965	8.4	5.6364	0.1	8.4992
26966	8.4	5.8182	0.1	0.47135
26967	8.3077	5.9091	0.1	0.15701
26968	8.4923	0.27273	0.1	3.5552
26969	8.5846	0.18182	0.1	0.17934
26970	8.4923	9.0909e-002	0.1	7.8101e-002
26971	8.4923	0.45455	0.1	11.293
26972	8.5846	0.36364	0.1	6.8222
26973	8.4923	0.63636	0.1	18.441
26974	8.5846	0.54545	0.1	13.799
26975	8.4923	0.81818	0.1	25.283
26976	8.5846	0.72727	0.1	20.477
26977	8.4923	1.	0.1	31.794
26978	8.5846	0.90909	0.1	26.863
26979	8.4923	1.1818	0.1	37.926
26980	8.5846	1.0909	0.1	32.91
26981	8.4923	1.3636	0.1	43.634
26982	8.5846	1.2727	0.1	38.573
26983	8.4923	1.5455	0.1	48.871
26984	8.5846	1.4545	0.1	43.807
26985	8.4923	1.7273	0.1	53.597
26986	8.5846	1.6364	0.1	48.573
26987	8.4923	1.9091	0.1	57.775
26988	8.5846	1.8182	0.1	52.833
26989	8.4923	2.0909	0.1	61.37
26990	8.5846	2.	0.1	56.551
26991	8.4923	2.2727	0.1	64.353
26992	8.5846	2.1818	0.1	59.698
26993	8.4923	2.4545	0.1	66.7
26994	8.5846	2.3636	0.1	62.248
26995	8.4923	2.6364	0.1	68.39
26996	8.5846	2.5455	0.1	64.179
26997	8.4923	2.8182	0.1	69.41
26998	8.5846	2.7273	0.1	65.476
26999	8.4923	3.	0.1	69.751
27000	8.5846	2.9091	0.1	66.127
27001	8.4923	3.1818	0.1	69.41
27002	8.5846	3.0909	0.1	66.127
27003	8.4923	3.3636	0.1	68.39
27004	8.5846	3.2727	0.1	65.476
27005	8.4923	3.5455	0.1	66.7
27006	8.5846	3.4545	0.1	64.179
27007	8.4923	3.7273	0.1	64.353
27008	8.5846	3.6364	0.1	62.248
27009	8.4923	3.9091	0.1	61.37
27010	8.5846	3.8182	0.1	59.698
27011	8.4923	4.0909	0.1	57.775
27012	8.5846	4.	0.1	56.551
27013	8.4923	4.2727	0.1	53.597
27014	8.5846	4.1818	0.1	52.833
27015	8.4923	4.4545	0.1	48.871
27016	8.5846	4.3636	0.1	48.573
27017	8.4923	4.6364	0.1	43.634
27018	8.5846	4.5455	0.1	43.807
27019	8.4923	4.8182	0.1	37.926
27020	8.5846	4.7273	0.1	38.573
27021	8.4923	5.	0.1	31.794
27022	8.5846	4.9091	0.1	32.91
27023	8.4923	5.1818	0.1	25.283
27024	8.5846	5.0909	0.1	26.863
27025	8.4923	5.3636	0.1	18.441
27026	8.5846	5.2727	0.1	20.477
27027	8.4923	5.5455	0.1	11.293
27028	8.5846	5.4545	0.1	13.799
27029	8.4923	5.7273	0.1	3.5552
27030	8.5846	5.6364	0.1	6.8222
27031	8.5846	5.8182	0.1	0.17934
27032	8.4923	5.9091	0.1	7.8103e-002
27033	8.6769	0.27273	0.1	2.2603
27034	8.7692	0.18182	0.1	9.0945e-002
27035	8.6769	9.0909e-002	0.1	4.4357e-002
27036	8.6769	0.45455	0.1	9.3425
27037	8.7692	0.36364	0.1	5.2476
27038	8.6769	0.63636	0.1	15.848
27039	8.7692	0.54545	0.1	11.592
27040	8.6769	0.81818	0.1	22.069
27041	8.7692	0.72727	0.1	17.658
27042	8.6769	1.	0.1	27.99
27043	8.7692	0.90909	0.1	23.458
27044	8.6769	1.1818	0.1	33.567
27045	8.7692	1.0909	0.1	28.951
27046	8.6769	1.3636	0.1	38.757
27047	8.7692	1.2727	0.1	34.095
27048	8.6769	1.5455	0.1	43.519
27049	8.7692	1.4545	0.1	38.85
27050	8.6769	1.7273	0.1	47.818
27051	8.7692	1.6364	0.1	43.18
27052	8.6769	1.9091	0.1	51.617
27053	8.7692	1.8182	0.1	47.05
27054	8.6769	2.0909	0.1	54.887
27055	8.7692	2.	0.1	50.429
27056	8.6769	2.2727	0.1	57.601
27057	8.7692	2.1818	0.1	53.289
27058	8.6769	2.4545	0.1	59.735
27059	8.7692	2.3636	0.1	55.607
27060	8.6769	2.6364	0.1	61.273
27061	8.7692	2.5455	0.1	57.362
27062	8.6769	2.8182	0.1	62.201
27063	8.7692	2.7273	0.1	58.541
27064	8.6769	3.	0.1	62.511
27065	8.7692	2.9091	0.1	59.133
27066	8.6769	3.1818	0.1	62.201
27067	8.7692	3.0909	0.1	59.133
27068	8.6769	3.3636	0.1	61.273
27069	8.7692	3.2727	0.1	58.541
27070	8.6769	3.5455	0.1	59.735
27071	8.7692	3.4545	0.1	57.362
27072	8.6769	3.7273	0.1	57.601
27073	8.7692	3.6364	0.1	55.607
27074	8.6769	3.9091	0.1	54.887
27075	8.7692	3.8182	0.1	53.289
27076	8.6769	4.0909	0.1	51.617
27077	8.7692	4.	0.1	50.429
27078	8.6769	4.2727	0.1	47.818
27079	8.7692	4.1818	0.1	47.05
27080	8.6769	4.4545	0.1	43.519
27081	8.7692	4.3636	0.1	43.18
27082	8.6769	4.6364	0.1	38.757
27083	8.7692	4.5455	0.1	38.85
27084	8.6769	4.8182	0.1	33.567
27085	8.7692	4.7273	0.1	34.094
27086	8.6769	5.	0.1	27.99
27087	8.7692	4.9091	0.1	28.951
27088	8.6769	5.1818	0.1	22.069
27089	8.7692	5.0909	0.1	23.458
27090	8.6769	5.3636	0.1	15.848
27091	8.7692	5.2727	0.1	17.658
27092	8.6769	5.5455	0.1	9.3425
27093	8.7692	5.4545	0.1	11.592
27094	8.6769	5.7273	0.1	2.2603
27095	8.7692	5.6364	0.1	5.2477
27096	8.7692	5.8182	0.1	9.0947e-002
27097	8.6769	5.9091	0.1	4.4358e-002
27098	8.8615	0.27273	0.1	1.0632
27099	8.9538	0.18182	0.1	5.4719e-002
27100	8.8615	9.0909e-002	0.1	2.7102e-002
27101	8.8615	0.45455	0.1	7.5121
27102	8.9538	0.36364	0.1	3.7676
27103	8.8615	0.63636	0.1	13.416
27104	8.9538	0.54545	0.1	9.5202
27105	8.8615	0.81818	0.1	19.061
27106	8.9538	0.72727	0.1	15.015
27107	8.8615	1.	0.1	24.431
27108	8.9538	0.90909	0.1	20.269
27109	8.8615	1.1818	0.1	29.49
27110	8.9538	1.0909	0.1	25.244
27111	8.8615	1.3636	0.1	34.199
27112	8.9538	1.2727	0.1	29.904
27113	8.8615	1.5455	0.1	38.52
27114	8.9538	1.4545	0.1	34.214
27115	8.8615	1.7273	0.1	42.421
27116	8.9538	1.6364	0.1	38.138
27117	8.8615	1.9091	0.1	45.871
27118	8.9538	1.8182	0.1	41.647
27119	8.8615	2.0909	0.1	48.839
27120	8.9538	2.	0.1	44.712
27121	8.8615	2.2727	0.1	51.304
27122	8.9538	2.1818	0.1	47.306
27123	8.8615	2.4545	0.1	53.242
27124	8.9538	2.3636	0.1	49.409
27125	8.8615	2.6364	0.1	54.639
27126	8.9538	2.5455	0.1	51.002
27127	8.8615	2.8182	0.1	55.482
27128	8.9538	2.7273	0.1	52.072
27129	8.8615	3.	0.1	55.763
27130	8.9538	2.9091	0.1	52.609
27131	8.8615	3.1818	0.1	55.482
27132	8.9538	3.0909	0.1	52.609
27133	8.8615	3.3636	0.1	54.639
27134	8.9538	3.2727	0.1	52.072
27135	8.8615	3.5455	0.1	53.242
27136	8.9538	3.4545	0.1	51.002
27137	8.8615	3.7273	0.1	51.303
27138	8.9538	3.6364	0.1	49.409
27139	8.8615	3.9091	0.1	48.839
27140	8.9538	3.8182	0.1	47.306
27141	8.8615	4.0909	0.1	45.871
27142	8.9538	4.	0.1	44.712
27143	8.8615	4.2727	0.1	42.421
27144	8.9538	4.1818	0.1	41.647
27145	8.8615	4.4545	0.1	38.52
27146	8.9538	4.3636	0.1	38.138
27147	8.8615	4.6364	0.1	34.199
27148	8.9538	4.5455	0.1	34.214
27149	8.8615	4.8182	0.1	29.49
27150	8.9538	4.7273	0.1	29.904
27151	8.8615	5.	0.1	24.431
27152	8.9538	4.9091	0.1	25.244
27153	8.8615	5.1818	0.1	19.06
27154	8.9538	5.0909	0.1	20.269
27155	8.8615	5.3636	0.1	13.416
27156	8.9538	5.2727	0.1	15.015
27157	8.8615	5.5455	0.1	7.5121
27158	8.9538	5.4545	0.1	9.5202
27159	8.8615	5.7273	0.1	1.0632
27160	8.9538	5.6364	0.1	3.7676
27161	8.9538	5.8182	0.1	5.472e-002
27162	8.8615	5.9091	0.1	2.7103e-002
27163	9.0462	0.27273	0.1	0.17378
27164	9.1385	0.18182	0.1	3.6039e-002
27165	9.0462	9.0909e-002	0.1	1.724e-002
27166	9.0462	0.45455	0.1	5.7917
27167	9.1385	0.36364	0.1	2.3746
27168	9.0462	0.63636	0.1	11.134
27169	9.1385	0.54545	0.1	7.5725
27170	9.0462	0.81818	0.1	16.238
27171	9.1385	0.72727	0.1	12.533
27172	9.0462	1.	0.1	21.095
27173	9.1385	0.90909	0.1	17.275
27174	9.0462	1.1818	0.1	25.671
27175	9.1385	1.0909	0.1	21.767
27176	9.0462	1.3636	0.1	29.931
27177	9.1385	1.2727	0.1	25.976
27178	9.0462	1.5455	0.1	33.843
27179	9.1385	1.4545	0.1	29.87
27180	9.0462	1.7273	0.1	37.375
27181	9.1385	1.6364	0.1	33.417
27182	9.0462	1.9091	0.1	40.498
27183	9.1385	1.8182	0.1	36.591
27184	9.0462	2.0909	0.1	43.188
27185	9.1385	2.	0.1	39.363
27186	9.0462	2.2727	0.1	45.421
27187	9.1385	2.1818	0.1	41.712
27188	9.0462	2.4545	0.1	47.178
27189	9.1385	2.3636	0.1	43.615
27190	9.0462	2.6364	0.1	48.445
27191	9.1385	2.5455	0.1	45.058
27192	9.0462	2.8182	0.1	49.209
27193	9.1385	2.7273	0.1	46.028
27194	9.0462	3.	0.1	49.465
27195	9.1385	2.9091	0.1	46.514
27196	9.0462	3.1818	0.1	49.209
27197	9.1385	3.0909	0.1	46.514
27198	9.0462	3.3636	0.1	48.445
27199	9.1385	3.2727	0.1	46.028
27200	9.0462	3.5455	0.1	47.178
27201	9.1385	3.4545	0.1	45.058
27202	9.0462	3.7273	0.1	45.421
27203	9.1385	3.6364	0.1	43.615
27204	9.0462	3.9091	0.1	43.188
27205	9.1385	3.8182	0.1	41.712
27206	9.0462	4.0909	0.1	40.498
27207	9.1385	4.	0.1	39.363
27208	9.0462	4.2727	0.1	37.375
27209	9.1385	4.1818	0.1	36.591
27210	9.0462	4.4545	0.1	33.843
27211	9.1385	4.3636	0.1	33.417
27212	9.0462	4.6364	0.1	29.931
27213	9.1385	4.5455	0.1	29.87
27214	9.0462	4.8182	0.1	25.671
27215	9.1385	4.7273	0.1	25.976
27216	9.0462	5.	0.1	21.095
27217	9.1385	4.9091	0.1	21.767
27218	9.0462	5.1818	0.1	16.238
27219	9.1385	5.0909	0.1	17.275
27220	9.0462	5.3636	0.1	11.134
27221	9.1385	5.2727	0.1	12.533
27222	9.0462	5.5455	0.1	5.7917
27223	9.1385	5.4545	0.1	7.5725
27224	9.0462	5.7273	0.1	0.17378
27225	9.1385	5.6364	0.1	2.3746
27226	9.1385	5.8182	0.1	3.604e-002
27227	9.0462	5.9091	0.1	1.7241e-002
27228	9.2308	0.27273	0.1	2.9369e-002
27229	9.3231	0.18182	0.1	2.5018e-002
27230	9.2308	9.0909e-002	0.1	1.1204e-002
27231	9.2308	0.45455	0.1	4.1717
27232	9.3231	0.36364	0.1	1.0618
27233	9.2308	0.63636	0.1	8.9867
27234	9.3231	0.54545	0.1	5.7372
27235	9.2308	0.81818	0.1	13.584
27236	9.3231	0.72727	0.1	10.194
27237	9.2308	1.	0.1	17.961
27238	9.3231	0.90909	0.1	14.457
27239	9.2308	1.1818	0.1	22.085
27240	9.3231	1.0909	0.1	18.497
27241	9.2308	1.3636	0.1	25.927
27242	9.3231	1.2727	0.1	22.284
27243	9.2308	1.5455	0.1	29.456
27244	9.3231	1.4545	0.1	25.79
27245	9.2308	1.7273	0.1	32.645
27246	9.3231	1.6364	0.1	28.987
27247	9.2308	1.9091	0.1	35.466
27248	9.3231	1.8182	0.1	31.848
27249	9.2308	2.0909	0.1	37.897
27250	9.3231	2.	0.1	34.349
27251	9.2308	2.2727	0.1	39.916
27252	9.3231	2.1818	0.1	36.469
27253	9.2308	2.4545	0.1	41.506
27254	9.3231	2.3636	0.1	38.189
27255	9.2308	2.6364	0.1	42.651
27256	9.3231	2.5455	0.1	39.493
27257	9.2308	2.8182	0.1	43.343
27258	9.3231	2.7273	0.1	40.369
27259	9.2308	3.	0.1	43.574
27260	9.3231	2.9091	0.1	40.809
27261	9.2308	3.1818	0.1	43.343
27262	9.3231	3.0909	0.1	40.809
27263	9.2308	3.3636	0.1	42.651
27264	9.3231	3.2727	0.1	40.369
27265	9.2308	3.5455	0.1	41.506
27266	9.3231	3.4545	0.1	39.493
27267	9.2308	3.7273	0.1	39.916
27268	9.3231	3.6364	0.1	38.189
27269	9.2308	3.9091	0.1	37.897
27270	9.3231	3.8182	0.1	36.469
27271	9.2308	4.0909	0.1	35.466
27272	9.3231	4.	0.1	34.349
27273	9.2308	4.2727	0.1	32.645
27274	9.3231	4.1818	0.1	31.848
27275	9.2308	4.4545	0.1	29.456
27276	9.3231	4.3636	0.1	28.987
27277	9.2308	4.6364	0.1	25.927
27278	9.3231	4.5455	0.1	25.79
27279	9.2308	4.8182	0.1	22.085
27280	9.3231	4.7273	0.1	22.284
27281	9.2308	5.	0.1	17.961
27282	9.3231	4.9091	0.1	18.497
27283	9.2308	5.1818	0.1	13.584
27284	9.3231	5.0909	0.1	14.457
27285	9.2308	5.3636	0.1	8.9867
27286	9.3231	5.2727	0.1	10.194
27287	9.2308	5.5455	0.1	4.1717
27288	9.3231	5.4545	0.1	5.7372
27289	9.2308	5.7273	0.1	2.9371e-002
27290	9.3231	5.6364	0.1	1.0618
27291	9.3231	5.8182	0.1	2.5019e-002
27292	9.2308	5.9091	0.1	1.1205e-002
27293	9.4154	0.27273	0.1	9.2586e-003
27294	9.5077	0.18182	0.1	1.7945e-002
27295	9.4154	9.0909e-002	0.1	7.3651e-003
27296	9.4154	0.45455	0.1	2.6427
27297	9.5077	0.36364	0.1	-7.5284e-004
27298	9.4154	0.63636	0.1	6.9614
27299	9.5077	0.54545	0.1	4.003
27300	9.4154	0.81818	0.1	11.083
27301	9.5077	0.72727	0.1	7.9865
27302	9.4154	1.	0.1	15.008
27303	9.5077	0.90909	0.1	11.798
27304	9.4154	1.1818	0.1	18.709
27305	9.5077	1.0909	0.1	15.412
27306	9.4154	1.3636	0.1	22.16
27307	9.5077	1.2727	0.1	18.805
27308	9.4154	1.5455	0.1	25.333
27309	9.5077	1.4545	0.1	21.948
27310	9.4154	1.7273	0.1	28.201
27311	9.5077	1.6364	0.1	24.817
27312	9.4154	1.9091	0.1	30.742
27313	9.5077	1.8182	0.1	27.388
27314	9.4154	2.0909	0.1	32.933
27315	9.5077	2.	0.1	29.637
27316	9.4154	2.2727	0.1	34.753
27317	9.5077	2.1818	0.1	31.546
27318	9.4154	2.4545	0.1	36.187
27319	9.5077	2.3636	0.1	33.095
27320	9.4154	2.6364	0.1	37.222
27321	9.5077	2.5455	0.1	34.271
27322	9.4154	2.8182	0.1	37.846
27323	9.5077	2.7273	0.1	35.061
27324	9.4154	3.	0.1	38.055
27325	9.5077	2.9091	0.1	35.458
27326	9.4154	3.1818	0.1	37.846
27327	9.5077	3.0909	0.1	35.458
27328	9.4154	3.3636	0.1	37.222
27329	9.5077	3.2727	0.1	35.061
27330	9.4154	3.5455	0.1	36.187
27331	9.5077	3.4545	0.1	34.271
27332	9.4154	3.7273	0.1	34.753
27333	9.5077	3.6364	0.1	33.095
27334	9.4154	3.9091	0.1	32.933
27335	9.5077	3.8182	0.1	31.546
27336	9.4154	4.0909	0.1	30.742
27337	9.5077	4.	0.1	29.637
27338	9.4154	4.2727	0.1	28.201
27339	9.5077	4.1818	0.1	27.388
27340	9.4154	4.4545	0.1	25.333
27341	9.5077	4.3636	0.1	24.817
27342	9.4154	4.6364	0.1	22.16
27343	9.5077	4.5455	0.1	21.948
27344	9.4154	4.8182	0.1	18.709
27345	9.5077	4.7273	0.1	18.805
27346	9.4154	5.	0.1	15.008
27347	9.5077	4.9091	0.1	15.412
27348	9.4154	5.1818	0.1	11.083
27349	9.5077	5.0909	0.1	11.798
27350	9.4154	5.3636	0.1	6.9614
27351	9.5077	5.2727	0.1	7.9865
27352	9.4154	5.5455	0.1	2.6427
27353	9.5077	5.4545	0.1	4.003
27354	9.4154	5.7273	0.1	9.2597e-003
27355	9.5077	5.6364	0.1	-7.5015e-004
27356	9.5077	5.8182	0.1	1.7946e-002
27357	9.4154	5.9091	0.1	7.366e-003
27358	9.6	0.27273	0.1	3.0042e-003
27359	9.6923	0.18182	0.1	1.3137e-002
27360	9.6	9.0909e-002	0.1	4.877e-003
27361	9.6	0.45455	0.1	1.1958
27362	9.6923	0.36364	0.1	-1.1119e-002
27363	9.6	0.63636	0.1	5.0453
27364	9.6923	0.54545	0.1	2.3594
27365	9.6	0.81818	0.1	8.7175
27366	9.6923	0.72727	0.1	5.8942
27367	9.6	1.	0.1	12.217
27368	9.6923	0.90909	0.1	9.279
27369	9.6	1.1818	0.1	15.522
27370	9.6923	1.0909	0.1	12.493
27371	9.6	1.3636	0.1	18.606
27372	9.6923	1.2727	0.1	15.514
27373	9.6	1.5455	0.1	21.445
27374	9.6923	1.4545	0.1	18.318
27375	9.6	1.7273	0.1	24.016
27376	9.6923	1.6364	0.1	20.881
27377	9.6	1.9091	0.1	26.295
27378	9.6923	1.8182	0.1	23.181
27379	9.6	2.0909	0.1	28.263
27380	9.6923	2.	0.1	25.197
27381	9.6	2.2727	0.1	29.9
27382	9.6923	2.1818	0.1	26.91
27383	9.6	2.4545	0.1	31.19
27384	9.6923	2.3636	0.1	28.302
27385	9.6	2.6364	0.1	32.122
27386	9.6923	2.5455	0.1	29.359
27387	9.6	2.8182	0.1	32.684
27388	9.6923	2.7273	0.1	30.07
27389	9.6	3.	0.1	32.872
27390	9.6923	2.9091	0.1	30.427
27391	9.6	3.1818	0.1	32.684
27392	9.6923	3.0909	0.1	30.427
27393	9.6	3.3636	0.1	32.121
27394	9.6923	3.2727	0.1	30.07
27395	9.6	3.5455	0.1	31.19
27396	9.6923	3.4545	0.1	29.359
27397	9.6	3.7273	0.1	29.9
27398	9.6923	3.6364	0.1	28.302
27399	9.6	3.9091	0.1	28.263
27400	9.6923	3.8182	0.1	26.91
27401	9.6	4.0909	0.1	26.295
27402	9.6923	4.	0.1	25.197
27403	9.6	4.2727	0.1	24.016
27404	9.6923	4.1818	0.1	23.181
27405	9.6	4.4545	0.1	21.445
27406	9.6923	4.3636	0.1	20.881
27407	9.6	4.6364	0.1	18.606
27408	9.6923	4.5455	0.1	18.318
27409	9.6	4.8182	0.1	15.522
27410	9.6923	4.7273	0.1	15.514
27411	9.6	5.	0.1	12.217
27412	9.6923	4.9091	0.1	12.493
27413	9.6	5.1818	0.1	8.7175
27414	9.6923	5.0909	0.1	9.279
27415	9.6	5.3636	0.1	5.0453
27416	9.6923	5.2727	0.1	5.8942
27417	9.6	5.5455	0.1	1.1959
27418	9.6923	5.4545	0.1	2.3594
27419	9.6	5.7273	0.1	3.0053e-003
27420	9.6923	5.6364	0.1	-1.1118e-002
27421	9.6923	5.8182	0.1	1.3137e-002
27422	9.6	5.9091	0.1	4.8782e-003
27423	9.7846	0.27273	0.1	6.5103e-004
27424	9.8769	0.18182	0.1	9.7244e-003
27425	9.7846	9.0909e-002	0.1	3.2519e-003
27426	9.7846	0.45455	0.1	-5.8793e-003
27427	9.8769	0.36364	0.1	-9.2959e-003
27428	9.7846	0.63636	0.1	3.2262
27429	9.8769	0.54545	0.1	0.7971
27430	9.7846	0.81818	0.1	6.4725
27431	9.8769	0.72727	0.1	3.9037
27432	9.7846	1.	0.1	9.5709
27433	9.8769	0.90909	0.1	6.8841
27434	9.7846	1.1818	0.1	12.501
27435	9.8769	1.0909	0.1	9.7201
27436	9.7846	1.3636	0.1	15.241
27437	9.8769	1.2727	0.1	12.391
27438	9.7846	1.5455	0.1	17.768
27439	9.8769	1.4545	0.1	14.876
27440	9.7846	1.7273	0.1	20.06
27441	9.8769	1.6364	0.1	17.153
27442	9.7846	1.9091	0.1	22.097
27443	9.8769	1.8182	0.1	19.202
27444	9.7846	2.0909	0.1	23.857
27445	9.8769	2.	0.1	21.001
27446	9.7846	2.2727	0.1	25.324
27447	9.8769	2.1818	0.1	22.532
27448	9.7846	2.4545	0.1	26.483
27449	9.8769	2.3636	0.1	23.779
27450	9.7846	2.6364	0.1	27.319
27451	9.8769	2.5455	0.1	24.726
27452	9.7846	2.8182	0.1	27.825
27453	9.8769	2.7273	0.1	25.365
27454	9.7846	3.	0.1	27.994
27455	9.8769	2.9091	0.1	25.686
27456	9.7846	3.1818	0.1	27.825
27457	9.8769	3.0909	0.1	25.686
27458	9.7846	3.3636	0.1	27.319
27459	9.8769	3.2727	0.1	25.365
27460	9.7846	3.5455	0.1	26.483
27461	9.8769	3.4545	0.1	24.726
27462	9.7846	3.7273	0.1	25.324
27463	9.8769	3.6364	0.1	23.779
27464	9.7846	3.9091	0.1	23.857
27465	9.8769	3.8182	0.1	22.532
27466	9.7846	4.0909	0.1	22.097
27467	9.8769	4.	0.1	21.001
27468	9.7846	4.2727	0.1	20.06
27469	9.8769	4.1818	0.1	19.202
27470	9.7846	4.4545	0.1	17.768
27471	9.8769	4.3636	0.1	17.153
27472	9.7846	4.6364	0.1	15.241
27473	9.8769	4.5455	0.1	14.876
27474	9.7846	4.8182	0.1	12.501
27475	9.8769	4.7273	0.1	12.391
27476	9.7846	5.	0.1	9.5709
27477	9.8769	4.9091	0.1	9.7201
27478	9.7846	5.1818	0.1	6.4725
27479	9.8769	5.0909	0.1	6.884
27480	9.7846	5.3636	0.1	3.2262
27481	9.8769	5.2727	0.1	3.9037
27482	9.7846	5.5455	0.1	-5.8786e-003
27483	9.8769	5.4545	0.1	0.7971
27484	9.7846	5.7273	0.1	6.5207e-004
27485	9.8769	5.6364	0.1	-9.2947e-003
27486	9.8769	5.8182	0.1	9.7256e-003
27487	9.7846	5.9091	0.1	3.2526e-003
27488	9.9692	0.27273	0.1	-1.245e-004
27489	10.062	0.18182	0.1	7.2411e-003
27490	9.9692	9.0909e-002	0.1	2.1963e-003
27491	9.9692	0.45455	0.1	-4.8578e-003
27492	10.062	0.36364	0.1	-6.9919e-003
27493	9.9692	0.63636	0.1	1.4928
27494	10.062	0.54545	0.1	2.3834e-003
27495	9.9692	0.81818	0.1	4.3326
27496	10.062	0.72727	0.1	2.002
27497	9.9692	1.	0.1	7.0497
27498	10.062	0.90909	0.1	4.5959
27499	9.9692	1.1818	0.1	9.626
27500	10.062	1.0909	0.1	7.0727
27501	9.9692	1.3636	0.1	12.042
27502	10.062	1.2727	0.1	9.4134
27503	9.9692	1.5455	0.1	14.276
27504	10.062	1.4545	0.1	11.599
27505	9.9692	1.7273	0.1	16.309
27506	10.062	1.6364	0.1	13.608
27507	9.9692	1.9091	0.1	18.119
27508	10.062	1.8182	0.1	15.422
27509	9.9692	2.0909	0.1	19.688
27510	10.062	2.	0.1	17.02
27511	9.9692	2.2727	0.1	20.999
27512	10.062	2.1818	0.1	18.384
27513	9.9692	2.4545	0.1	22.035
27514	10.062	2.3636	0.1	19.497
27515	9.9692	2.6364	0.1	22.784
27516	10.062	2.5455	0.1	20.345
27517	9.9692	2.8182	0.1	23.238
27518	10.062	2.7273	0.1	20.917
27519	9.9692	3.	0.1	23.39
27520	10.062	2.9091	0.1	21.204
27521	9.9692	3.1818	0.1	23.238
27522	10.062	3.0909	0.1	21.204
27523	9.9692	3.3636	0.1	22.784
27524	10.062	3.2727	0.1	20.917
27525	9.9692	3.5455	0.1	22.035
27526	10.062	3.4545	0.1	20.345
27527	9.9692	3.7273	0.1	20.999
27528	10.062	3.6364	0.1	19.497
27529	9.9692	3.9091	0.1	19.688
27530	10.062	3.8182	0.1	18.384
27531	9.9692	4.0909	0.1	18.119
27532	10.062	4.	0.1	17.02
27533	9.9692	4.2727	0.1	16.309
27534	10.062	4.1818	0.1	15.422
27535	9.9692	4.4545	0.1	14.276
27536	10.062	4.3636	0.1	13.608
27537	9.9692	4.6364	0.1	12.042
27538	10.062	4.5455	0.1	11.599
27539	9.9692	4.8182	0.1	9.626
27540	10.062	4.7273	0.1	9.4134
27541	9.9692	5.	0.1	7.0497
27542	10.062	4.9091	0.1	7.0727
27543	9.9692	5.1818	0.1	4.3326
27544	10.062	5.0909	0.1	4.5959
27545	9.9692	5.3636	0.1	1.4928
27546	10.062	5.2727	0.1	2.002
27547	9.9692	5.5455	0.1	-4.8572e-003
27548	10.062	5.4545	0.1	2.3836e-003
27549	9.9692	5.7273	0.1	-1.2303e-004
27550	10.062	5.6364	0.1	-6.9906e-003
27551	10.062	5.8182	0.1	7.2422e-003
27552	9.9692	5.9091	0.1	2.1973e-003
27553	10.154	0.27273	0.1	-9.4276e-005
27554	10.246	0.18182	0.1	5.4142e-003
27555	10.154	9.0909e-002	0.1	1.5587e-003
27556	10.154	0.45455	0.1	-3.3002e-003
27557	10.246	0.36364	0.1	-4.6038e-003
27558	10.154	0.63636	0.1	2.7633e-002
27559	10.246	0.54545	0.1	3.3221e-004
27560	10.154	0.81818	0.1	2.2832
27561	10.246	0.72727	0.1	0.20744
27562	10.154	1.	0.1	4.6359
27563	10.246	0.90909	0.1	2.3987
27564	10.154	1.1818	0.1	6.8763
27565	10.246	1.0909	0.1	4.5321
27566	10.154	1.3636	0.1	8.986
27567	10.246	1.2727	0.1	6.5596
27568	10.154	1.5455	0.1	10.946
27569	10.246	1.4545	0.1	8.4625
27570	10.154	1.7273	0.1	12.736
27571	10.246	1.6364	0.1	10.222
27572	10.154	1.9091	0.1	14.337
27573	10.246	1.8182	0.1	11.817
27574	10.154	2.0909	0.1	15.729
27575	10.246	2.	0.1	13.23
27576	10.154	2.2727	0.1	16.895
27577	10.246	2.1818	0.1	14.44
27578	10.154	2.4545	0.1	17.82
27579	10.246	2.3636	0.1	15.431
27580	10.154	2.6364	0.1	18.49
27581	10.246	2.5455	0.1	16.188
27582	10.154	2.8182	0.1	18.896
27583	10.246	2.7273	0.1	16.699
27584	10.154	3.	0.1	19.032
27585	10.246	2.9091	0.1	16.957
27586	10.154	3.1818	0.1	18.896
27587	10.246	3.0909	0.1	16.957
27588	10.154	3.3636	0.1	18.49
27589	10.246	3.2727	0.1	16.699
27590	10.154	3.5455	0.1	17.82
27591	10.246	3.4545	0.1	16.188
27592	10.154	3.7273	0.1	16.895
27593	10.246	3.6364	0.1	15.431
27594	10.154	3.9091	0.1	15.729
27595	10.246	3.8182	0.1	14.44
27596	10.154	4.0909	0.1	14.337
27597	10.246	4.	0.1	13.23
27598	10.154	4.2727	0.1	12.736
27599	10.246	4.1818	0.1	11.817
27600	10.154	4.4545	0.1	10.946
27601	10.246	4.3636	0.1	10.222
27602	10.154	4.6364	0.1	8.986
27603	10.246	4.5455	0.1	8.4625
27604	10.154	4.8182	0.1	6.8763
27605	10.246	4.7273	0.1	6.5596
27606	10.154	5.	0.1	4.6359
27607	10.246	4.9091	0.1	4.5321
27608	10.154	5.1818	0.1	2.2832
27609	10.246	5.0909	0.1	2.3987
27610	10.154	5.3636	0.1	2.7633e-002
27611	10.246	5.2727	0.1	0.20744
27612	10.154	5.5455	0.1	-3.2992e-003
27613	10.246	5.4545	0.1	3.3266e-004
27614	10.154	5.7273	0.1	-9.3239e-005
27615	10.246	5.6364	0.1	-4.6028e-003
27616	10.246	5.8182	0.1	5.415e-003
27617	10.154	5.9091	0.1	1.5598e-003
27618	10.338	0.27273	0.1	3.8954e-004
27619	10.431	0.18182	0.1	4.0398e-003
27620	10.338	9.0909e-002	0.1	1.2177e-003
27621	10.338	0.45455	0.1	-1.7706e-003
27622	10.431	0.36364	0.1	-2.2312e-003
27623	10.338	0.63636	0.1	2.0473e-003
27624	10.431	0.54545	0.1	4.0149e-004
27625	10.338	0.81818	0.1	0.33116
27626	10.431	0.72727	0.1	3.4015e-003
27627	10.338	1.	0.1	2.3126
27628	10.431	0.90909	0.1	0.30256
27629	10.338	1.1818	0.1	4.2321
27630	10.431	1.0909	0.1	2.0802
27631	10.338	1.3636	0.1	6.0521
27632	10.431	1.2727	0.1	3.8085
27633	10.338	1.5455	0.1	7.7538
27634	10.431	1.4545	0.1	5.445
27635	10.338	1.7273	0.1	9.3179
27636	10.431	1.6364	0.1	6.9698
27637	10.338	1.9091	0.1	10.725
27638	10.431	1.8182	0.1	8.3631
27639	10.338	2.0909	0.1	11.954
27640	10.431	2.	0.1	9.6044
27641	10.338	2.2727	0.1	12.989
27642	10.431	2.1818	0.1	10.674
27643	10.338	2.4545	0.1	13.812
27644	10.431	2.3636	0.1	11.554
27645	10.338	2.6364	0.1	14.41
27646	10.431	2.5455	0.1	12.229
27647	10.338	2.8182	0.1	14.773
27648	10.431	2.7273	0.1	12.687
27649	10.338	3.	0.1	14.895
27650	10.431	2.9091	0.1	12.918
27651	10.338	3.1818	0.1	14.773
27652	10.431	3.0909	0.1	12.918
27653	10.338	3.3636	0.1	14.41
27654	10.431	3.2727	0.1	12.687
27655	10.338	3.5455	0.1	13.812
27656	10.431	3.4545	0.1	12.229
27657	10.338	3.7273	0.1	12.989
27658	10.431	3.6364	0.1	11.554
27659	10.338	3.9091	0.1	11.954
27660	10.431	3.8182	0.1	10.674
27661	10.338	4.0909	0.1	10.725
27662	10.431	4.	0.1	9.6044
27663	10.338	4.2727	0.1	9.3179
27664	10.431	4.1818	0.1	8.3631
27665	10.338	4.4545	0.1	7.7538
27666	10.431	4.3636	0.1	6.9698
27667	10.338	4.6364	0.1	6.0521
27668	10.431	4.5455	0.1	5.445
27669	10.338	4.8182	0.1	4.2321
27670	10.431	4.7273	0.1	3.8085
27671	10.338	5.	0.1	2.3126
27672	10.431	4.9091	0.1	2.0802
27673	10.338	5.1818	0.1	0.33115
27674	10.431	5.0909	0.1	0.30255
27675	10.338	5.3636	0.1	2.0479e-003
27676	10.431	5.2727	0.1	3.4024e-003
27677	10.338	5.5455	0.1	-1.7701e-003
27678	10.431	5.4545	0.1	4.0174e-004
27679	10.338	5.7273	0.1	3.9036e-004
27680	10.431	5.6364	0.1	-2.2303e-003
27681	10.431	5.8182	0.1	4.0408e-003
27682	10.338	5.9091	0.1	1.2189e-003
27683	10.523	0.27273	0.1	1.1151e-003
27684	10.615	0.18182	0.1	3.0198e-003
27685	10.523	9.0909e-002	0.1	1.0451e-003
27686	10.523	0.45455	0.1	-3.2301e-004
27687	10.615	0.36364	0.1	1.3075e-004
27688	10.523	0.63636	0.1	9.5164e-004
27689	10.615	0.54545	0.1	7.2753e-004
27690	10.523	0.81818	0.1	4.0345e-003
27691	10.615	0.72727	0.1	1.1065e-003
27692	10.523	1.	0.1	0.13341
27693	10.615	0.90909	0.1	3.3457e-003
27694	10.523	1.1818	0.1	1.6746
27695	10.615	1.0909	0.1	2.7819e-002
27696	10.523	1.3636	0.1	3.218
27697	10.615	1.2727	0.1	1.1428
27698	10.523	1.5455	0.1	4.6768
27699	10.615	1.4545	0.1	2.524
27700	10.523	1.7273	0.1	6.0303
27701	10.615	1.6364	0.1	3.8293
27702	10.523	1.9091	0.1	7.2579
27703	10.615	1.8182	0.1	5.0355
27704	10.523	2.0909	0.1	8.339
27705	10.615	2.	0.1	6.1207
27706	10.523	2.2727	0.1	9.2542
27707	10.615	2.1818	0.1	7.0637
27708	10.523	2.4545	0.1	9.9862
27709	10.615	2.3636	0.1	7.8449
27710	10.523	2.6364	0.1	10.52
27711	10.615	2.5455	0.1	8.4471
27712	10.523	2.8182	0.1	10.845
27713	10.615	2.7273	0.1	8.8566
27714	10.523	3.	0.1	10.954
27715	10.615	2.9091	0.1	9.0639
27716	10.523	3.1818	0.1	10.845
27717	10.615	3.0909	0.1	9.0639
27718	10.523	3.3636	0.1	10.52
27719	10.615	3.2727	0.1	8.8566
27720	10.523	3.5455	0.1	9.9862
27721	10.615	3.4545	0.1	8.4471
27722	10.523	3.7273	0.1	9.2542
27723	10.615	3.6364	0.1	7.8449
27724	10.523	3.9091	0.1	8.339
27725	10.615	3.8182	0.1	7.0637
27726	10.523	4.0909	0.1	7.2578
27727	10.615	4.	0.1	6.1206
27728	10.523	4.2727	0.1	6.0303
27729	10.615	4.1818	0.1	5.0355
27730	10.523	4.4545	0.1	4.6768
27731	10.615	4.3636	0.1	3.8293
27732	10.523	4.6364	0.1	3.218
27733	10.615	4.5455	0.1	2.524
27734	10.523	4.8182	0.1	1.6746
27735	10.615	4.7273	0.1	1.1428
27736	10.523	5.	0.1	0.13341
27737	10.615	4.9091	0.1	2.7819e-002
27738	10.523	5.1818	0.1	4.0354e-003
27739	10.615	5.0909	0.1	3.3467e-003
27740	10.523	5.3636	0.1	9.5215e-004
27741	10.615	5.2727	0.1	1.1077e-003
27742	10.523	5.5455	0.1	-3.2239e-004
27743	10.615	5.4545	0.1	7.28e-004
27744	10.523	5.7273	0.1	1.1162e-003
27745	10.615	5.6364	0.1	1.3186e-004
27746	10.615	5.8182	0.1	3.0206e-003
27747	10.523	5.9091	0.1	1.0461e-003
27748	10.708	0.27273	0.1	2.074e-003
27749	10.8	0.18182	0.1	2.2816e-003
27750	10.708	9.0909e-002	0.1	1.06e-003
27751	10.708	0.45455	0.1	1.1275e-003
27752	10.8	0.36364	0.1	2.493e-003
27753	10.708	0.63636	0.1	8.5161e-004
27754	10.8	0.54545	0.1	1.1111e-003
27755	10.708	0.81818	0.1	9.6134e-004
27756	10.8	0.72727	0.1	6.2287e-004
27757	10.708	1.	0.1	2.043e-003
27758	10.8	0.90909	0.1	2.6021e-004
27759	10.708	1.1818	0.1	8.1572e-003
27760	10.8	1.0909	0.1	3.9908e-004
27761	10.708	1.3636	0.1	0.47451
27762	10.8	1.2727	0.1	1.8299e-003
27763	10.708	1.5455	0.1	1.6935
27764	10.8	1.4545	0.1	1.5831e-002
27765	10.708	1.7273	0.1	2.8504
27766	10.8	1.6364	0.1	0.78106
27767	10.708	1.9091	0.1	3.9137
27768	10.8	1.8182	0.1	1.8119
27769	10.708	2.0909	0.1	4.8604
27770	10.8	2.	0.1	2.7554
27771	10.708	2.2727	0.1	5.6691
27772	10.8	2.1818	0.1	3.5854
27773	10.708	2.4545	0.1	6.3204
27774	10.8	2.3636	0.1	4.2797
27775	10.708	2.6364	0.1	6.7981
27776	10.8	2.5455	0.1	4.8189
27777	10.708	2.8182	0.1	7.0899
27778	10.8	2.7273	0.1	5.1875
27779	10.708	3.	0.1	7.188
27780	10.8	2.9091	0.1	5.3746
27781	10.708	3.1818	0.1	7.0899
27782	10.8	3.0909	0.1	5.3746
27783	10.708	3.3636	0.1	6.7981
27784	10.8	3.2727	0.1	5.1875
27785	10.708	3.5455	0.1	6.3204
27786	10.8	3.4545	0.1	4.8189
27787	10.708	3.7273	0.1	5.6691
27788	10.8	3.6364	0.1	4.2797
27789	10.708	3.9091	0.1	4.8604
27790	10.8	3.8182	0.1	3.5854
27791	10.708	4.0909	0.1	3.9137
27792	10.8	4.	0.1	2.7554
27793	10.708	4.2727	0.1	2.8504
27794	10.8	4.1818	0.1	1.8119
27795	10.708	4.4545	0.1	1.6935
27796	10.8	4.3636	0.1	0.78106
27797	10.708	4.6364	0.1	0.4745
27798	10.8	4.5455	0.1	1.5832e-002
27799	10.708	4.8182	0.1	8.1577e-003
27800	10.8	4.7273	0.1	1.8303e-003
27801	10.708	5.	0.1	2.0436e-003
27802	10.8	4.9091	0.1	3.9964e-004
27803	10.708	5.1818	0.1	9.625e-004
27804	10.8	5.0909	0.1	2.6149e-004
27805	10.708	5.3636	0.1	8.5275e-004
27806	10.8	5.2727	0.1	6.241e-004
27807	10.708	5.5455	0.1	1.1284e-003
27808	10.8	5.4545	0.1	1.1112e-003
27809	10.708	5.7273	0.1	2.075e-003
27810	10.8	5.6364	0.1	2.4941e-003
27811	10.8	5.8182	0.1	2.2825e-003
27812	10.708	5.9091	0.1	1.0607e-003
27813	10.892	0.27273	0.1	3.1509e-003
27814	10.985	0.18182	0.1	1.7449e-003
27815	10.892	9.0909e-002	0.1	1.1483e-003
27816	10.892	0.45455	0.1	2.5164e-003
27817	10.985	0.36364	0.1	4.8367e-003
27818	10.892	0.63636	0.1	9.3844e-004
27819	10.985	0.54545	0.1	1.4586e-003
27820	10.892	0.81818	0.1	1.3429e-004
27821	10.985	0.72727	0.1	4.832e-004
27822	10.892	1.	0.1	-5.7491e-004
27823	10.985	0.90909	0.1	-7.1866e-004
27824	10.892	1.1818	0.1	-1.0028e-003
27825	10.985	1.0909	0.1	-1.6158e-003
27826	10.892	1.3636	0.1	-1.0352e-003
27827	10.985	1.2727	0.1	-2.3292e-003
27828	10.892	1.5455	0.1	-5.5499e-005
27829	10.985	1.4545	0.1	-2.8213e-003
27830	10.892	1.7273	0.1	1.1205e-002
27831	10.985	1.6364	0.1	-3.0707e-003
27832	10.892	1.9091	0.1	0.67141
27833	10.985	1.8182	0.1	-2.9501e-003
27834	10.892	2.0909	0.1	1.4961
27835	10.985	2.	0.1	-1.4457e-003
27836	10.892	2.2727	0.1	2.2112
27837	10.985	2.1818	0.1	0.22188
27838	10.892	2.4545	0.1	2.7931
27839	10.985	2.3636	0.1	0.83806
27840	10.892	2.6364	0.1	3.2231
27841	10.985	2.5455	0.1	1.3243
27842	10.892	2.8182	0.1	3.4869
27843	10.985	2.7273	0.1	1.6592
27844	10.892	3.	0.1	3.5759
27845	10.985	2.9091	0.1	1.8299
27846	10.892	3.1818	0.1	3.4869
27847	10.985	3.0909	0.1	1.8299
27848	10.892	3.3636	0.1	3.2231
27849	10.985	3.2727	0.1	1.6592
27850	10.892	3.5455	0.1	2.7931
27851	10.985	3.4545	0.1	1.3243
27852	10.892	3.7273	0.1	2.2112
27853	10.985	3.6364	0.1	0.83806
27854	10.892	3.9091	0.1	1.4961
27855	10.985	3.8182	0.1	0.22188
27856	10.892	4.0909	0.1	0.6714
27857	10.985	4.	0.1	-1.4451e-003
27858	10.892	4.2727	0.1	1.1205e-002
27859	10.985	4.1818	0.1	-2.9497e-003
27860	10.892	4.4545	0.1	-5.5074e-005
27861	10.985	4.3636	0.1	-3.0704e-003
27862	10.892	4.6364	0.1	-1.0349e-003
27863	10.985	4.5455	0.1	-2.8204e-003
27864	10.892	4.8182	0.1	-1.0025e-003
27865	10.985	4.7273	0.1	-2.329e-003
27866	10.892	5.	0.1	-5.7365e-004
27867	10.985	4.9091	0.1	-1.615e-003
27868	10.892	5.1818	0.1	1.3564e-004
27869	10.985	5.0909	0.1	-7.1701e-004
27870	10.892	5.3636	0.1	9.3862e-004
27871	10.985	5.2727	0.1	4.841e-004
27872	10.892	5.5455	0.1	2.5166e-003
27873	10.985	5.4545	0.1	1.4584e-003
27874	10.892	5.7273	0.1	3.1519e-003
27875	10.985	5.6364	0.1	4.8374e-003
27876	10.985	5.8182	0.1	1.7462e-003
27877	10.892	5.9091	0.1	1.1489e-003
27878	11.077	0.27273	0.1	4.33e-003
27879	11.169	0.18182	0.1	1.4211e-003
27880	11.077	9.0909e-002	0.1	1.2808e-003
27881	11.077	0.45455	0.1	3.8535e-003
27882	11.169	0.36364	0.1	7.22e-003
27883	11.077	0.63636	0.1	1.0488e-003
27884	11.169	0.54545	0.1	1.7816e-003
27885	11.077	0.81818	0.1	-2.7096e-004
27886	11.169	0.72727	0.1	4.528e-004
27887	11.077	1.	0.1	-1.5566e-003
27888	11.169	0.90909	0.1	-1.2648e-003
27889	11.077	1.1818	0.1	-2.5507e-003
27890	11.169	1.0909	0.1	-2.5006e-003
27891	11.077	1.3636	0.1	-3.3329e-003
27892	11.169	1.2727	0.1	-3.4928e-003
27893	11.077	1.5455	0.1	-3.9096e-003
27894	11.169	1.4545	0.1	-4.22e-003
27895	11.077	1.7273	0.1	-4.3141e-003
27896	11.169	1.6364	0.1	-4.7321e-003
27897	11.077	1.9091	0.1	-4.5775e-003
27898	11.169	1.8182	0.1	-5.0692e-003
27899	11.077	2.0909	0.1	-4.7296e-003
27900	11.169	2.	0.1	-5.272e-003
27901	11.077	2.2727	0.1	-4.7977e-003
27902	11.169	2.1818	0.1	-5.3783e-003
27903	11.077	2.4545	0.1	-4.7957e-003
27904	11.169	2.3636	0.1	-5.4258e-003
27905	11.077	2.6364	0.1	-4.6631e-003
27906	11.169	2.5455	0.1	-5.4425e-003
27907	11.077	2.8182	0.1	1.8877e-002
27908	11.169	2.7273	0.1	-5.4466e-003
27909	11.077	3.	0.1	9.9102e-002
27910	11.169	2.9091	0.1	-5.4482e-003
27911	11.077	3.1818	0.1	1.8875e-002
27912	11.169	3.0909	0.1	-5.4484e-003
27913	11.077	3.3636	0.1	-4.663e-003
27914	11.169	3.2727	0.1	-5.4464e-003
27915	11.077	3.5455	0.1	-4.7954e-003
27916	11.169	3.4545	0.1	-5.4424e-003
27917	11.077	3.7273	0.1	-4.7973e-003
27918	11.169	3.6364	0.1	-5.4252e-003
27919	11.077	3.9091	0.1	-4.7294e-003
27920	11.169	3.8182	0.1	-5.3783e-003
27921	11.077	4.0909	0.1	-4.5771e-003
27922	11.169	4.	0.1	-5.2716e-003
27923	11.077	4.2727	0.1	-4.3137e-003
27924	11.169	4.1818	0.1	-5.0686e-003
27925	11.077	4.4545	0.1	-3.9088e-003
27926	11.169	4.3636	0.1	-4.7315e-003
27927	11.077	4.6364	0.1	-3.332e-003
27928	11.169	4.5455	0.1	-4.2193e-003
27929	11.077	4.8182	0.1	-2.5501e-003
27930	11.169	4.7273	0.1	-3.4923e-003
27931	11.077	5.	0.1	-1.5555e-003
27932	11.169	4.9091	0.1	-2.4998e-003
27933	11.077	5.1818	0.1	-2.6977e-004
27934	11.169	5.0909	0.1	-1.2637e-003
27935	11.077	5.3636	0.1	1.0492e-003
27936	11.169	5.2727	0.1	4.5387e-004
27937	11.077	5.5455	0.1	3.8537e-003
27938	11.169	5.4545	0.1	1.7816e-003
27939	11.077	5.7273	0.1	4.331e-003
27940	11.169	5.6364	0.1	7.2209e-003
27941	11.169	5.8182	0.1	1.4223e-003
27942	11.077	5.9091	0.1	1.2824e-003
27943	11.262	0.27273	0.1	5.6802e-003
27944	11.354	0.18182	0.1	1.3121e-003
27945	11.262	9.0909e-002	0.1	1.5056e-003
27946	11.262	0.45455	0.1	5.2207e-003
27947	11.354	0.36364	0.1	9.6797e-003
27948	11.262	0.63636	0.1	1.1936e-003
27949	11.354	0.54545	0.1	2.0751e-003
27950	11.262	0.81818	0.1	-5.1097e-004
27951	11.354	0.72727	0.1	4.4911e-004
27952	11.262	1.	0.1	-2.1456e-003
27953	11.354	0.90909	0.1	-1.6859e-003
27954	11.262	1.1818	0.1	-3.3434e-003
27955	11.354	1.0909	0.1	-3.1215e-003
27956	11.262	1.3636	0.1	-4.2443e-003
27957	11.354	1.2727	0.1	-4.2252e-003
27958	11.262	1.5455	0.1	-4.8709e-003
27959	11.354	1.4545	0.1	-4.9812e-003
27960	11.262	1.7273	0.1	-5.279e-003
27961	11.354	1.6364	0.1	-5.4691e-003
27962	11.262	1.9091	0.1	-5.5164e-003
27963	11.354	1.8182	0.1	-5.7457e-003
27964	11.262	2.0909	0.1	-5.6286e-003
27965	11.354	2.	0.1	-5.8678e-003
27966	11.262	2.2727	0.1	-5.6578e-003
27967	11.354	2.1818	0.1	-5.8842e-003
27968	11.262	2.4545	0.1	-5.6417e-003
27969	11.354	2.3636	0.1	-5.842e-003
27970	11.262	2.6364	0.1	-5.6082e-003
27971	11.354	2.5455	0.1	-5.778e-003
27972	11.262	2.8182	0.1	-5.5789e-003
27973	11.354	2.7273	0.1	-5.7181e-003
27974	11.262	3.	0.1	-5.5678e-003
27975	11.354	2.9091	0.1	-5.6836e-003
27976	11.262	3.1818	0.1	-5.5789e-003
27977	11.354	3.0909	0.1	-5.6834e-003
27978	11.262	3.3636	0.1	-5.6081e-003
27979	11.354	3.2727	0.1	-5.7181e-003
27980	11.262	3.5455	0.1	-5.6414e-003
27981	11.354	3.4545	0.1	-5.7777e-003
27982	11.262	3.7273	0.1	-5.6576e-003
27983	11.354	3.6364	0.1	-5.8419e-003
27984	11.262	3.9091	0.1	-5.6284e-003
27985	11.354	3.8182	0.1	-5.8841e-003
27986	11.262	4.0909	0.1	-5.5158e-003
27987	11.354	4.	0.1	-5.8675e-003
27988	11.262	4.2727	0.1	-5.2782e-003
27989	11.354	4.1818	0.1	-5.7451e-003
27990	11.262	4.4545	0.1	-4.8703e-003
27991	11.354	4.3636	0.1	-5.4684e-003
27992	11.262	4.6364	0.1	-4.2439e-003
27993	11.354	4.5455	0.1	-4.9804e-003
27994	11.262	4.8182	0.1	-3.3427e-003
27995	11.354	4.7273	0.1	-4.2246e-003
27996	11.262	5.	0.1	-2.1448e-003
27997	11.354	4.9091	0.1	-3.121e-003
27998	11.262	5.1818	0.1	-5.1003e-004
27999	11.354	5.0909	0.1	-1.6849e-003
28000	11.262	5.3636	0.1	1.1942e-003
28001	11.354	5.2727	0.1	4.5025e-004
28002	11.262	5.5455	0.1	5.2213e-003
28003	11.354	5.4545	0.1	2.0748e-003
28004	11.262	5.7273	0.1	5.6813e-003
28005	11.354	5.6364	0.1	9.6808e-003
28006	11.354	5.8182	0.1	1.3136e-003
28007	11.262	5.9091	0.1	1.5066e-003
28008	11.446	0.27273	0.1	7.1617e-003
28009	11.538	0.18182	0.1	1.4137e-003
28010	11.446	9.0909e-002	0.1	1.7525e-003
28011	11.446	0.45455	0.1	6.5768e-003
28012	11.538	0.36364	0.1	1.2233e-002
28013	11.446	0.63636	0.1	1.2897e-003
28014	11.538	0.54545	0.1	2.3124e-003
28015	11.446	0.81818	0.1	-7.4809e-004
28016	11.538	0.72727	0.1	4.1373e-004
28017	11.446	1.	0.1	-2.662e-003
28018	11.538	0.90909	0.1	-2.1045e-003
28019	11.446	1.1818	0.1	-3.9856e-003
28020	11.538	1.0909	0.1	-3.6951e-003
28021	11.446	1.3636	0.1	-4.9324e-003
28022	11.538	1.2727	0.1	-4.8703e-003
28023	11.446	1.5455	0.1	-5.5433e-003
28024	11.538	1.4545	0.1	-5.6256e-003
28025	11.446	1.7273	0.1	-5.8984e-003
28026	11.538	1.6364	0.1	-6.071e-003
28027	11.446	1.9091	0.1	-6.0625e-003
28028	11.538	1.8182	0.1	-6.2815e-003
28029	11.446	2.0909	0.1	-6.095e-003
28030	11.538	2.	0.1	-6.3292e-003
28031	11.446	2.2727	0.1	-6.0482e-003
28032	11.538	2.1818	0.1	-6.2736e-003
28033	11.446	2.4545	0.1	-5.967e-003
28034	11.538	2.3636	0.1	-6.169e-003
28035	11.446	2.6364	0.1	-5.8845e-003
28036	11.538	2.5455	0.1	-6.0564e-003
28037	11.446	2.8182	0.1	-5.8249e-003
28038	11.538	2.7273	0.1	-5.9648e-003
28039	11.446	3.	0.1	-5.8033e-003
28040	11.538	2.9091	0.1	-5.9137e-003
28041	11.446	3.1818	0.1	-5.8248e-003
28042	11.538	3.0909	0.1	-5.9137e-003
28043	11.446	3.3636	0.1	-5.8844e-003
28044	11.538	3.2727	0.1	-5.9647e-003
28045	11.446	3.5455	0.1	-5.9668e-003
28046	11.538	3.4545	0.1	-6.0564e-003
28047	11.446	3.7273	0.1	-6.0481e-003
28048	11.538	3.6364	0.1	-6.1687e-003
28049	11.446	3.9091	0.1	-6.0948e-003
28050	11.538	3.8182	0.1	-6.2735e-003
28051	11.446	4.0909	0.1	-6.0622e-003
28052	11.538	4.	0.1	-6.3288e-003
28053	11.446	4.2727	0.1	-5.8978e-003
28054	11.538	4.1818	0.1	-6.281e-003
28055	11.446	4.4545	0.1	-5.5424e-003
28056	11.538	4.3636	0.1	-6.0706e-003
28057	11.446	4.6364	0.1	-4.9313e-003
28058	11.538	4.5455	0.1	-5.6244e-003
28059	11.446	4.8182	0.1	-3.9852e-003
28060	11.538	4.7273	0.1	-4.8698e-003
28061	11.446	5.	0.1	-2.6612e-003
28062	11.538	4.9091	0.1	-3.6941e-003
28063	11.446	5.1818	0.1	-7.4686e-004
28064	11.538	5.0909	0.1	-2.1032e-003
28065	11.446	5.3636	0.1	1.29e-003
28066	11.538	5.2727	0.1	4.1466e-004
28067	11.446	5.5455	0.1	6.577e-003
28068	11.538	5.4545	0.1	2.312e-003
28069	11.446	5.7273	0.1	7.1631e-003
28070	11.538	5.6364	0.1	1.2234e-002
28071	11.538	5.8182	0.1	1.4152e-003
28072	11.446	5.9091	0.1	1.7536e-003
28073	11.631	0.27273	0.1	8.8196e-003
28074	11.723	0.18182	0.1	1.7508e-003
28075	11.631	9.0909e-002	0.1	2.0341e-003
28076	11.631	0.45455	0.1	7.9566e-003
28077	11.723	0.36364	0.1	1.4914e-002
28078	11.631	0.63636	0.1	1.339e-003
28079	11.723	0.54545	0.1	2.4809e-003
28080	11.631	0.81818	0.1	-1.0105e-003
28081	11.723	0.72727	0.1	3.1851e-004
28082	11.631	1.	0.1	-3.1781e-003
28083	11.723	0.90909	0.1	-2.5738e-003
28084	11.631	1.1818	0.1	-4.6003e-003
28085	11.723	1.0909	0.1	-4.2992e-003
28086	11.631	1.3636	0.1	-5.571e-003
28087	11.723	1.2727	0.1	-5.5292e-003
28088	11.631	1.5455	0.1	-6.153e-003
28089	11.723	1.4545	0.1	-6.27e-003
28090	11.631	1.7273	0.1	-6.45e-003
28091	11.723	1.6364	0.1	-6.6646e-003
28092	11.631	1.9091	0.1	-6.543e-003
28093	11.723	1.8182	0.1	-6.8051e-003
28094	11.631	2.0909	0.1	-6.5033e-003
28095	11.723	2.	0.1	-6.7775e-003
28096	11.631	2.2727	0.1	-6.3914e-003
28097	11.723	2.1818	0.1	-6.6523e-003
28098	11.631	2.4545	0.1	-6.2573e-003
28099	11.723	2.3636	0.1	-6.4883e-003
28100	11.631	2.6364	0.1	-6.1373e-003
28101	11.723	2.5455	0.1	-6.3313e-003
28102	11.631	2.8182	0.1	-6.0553e-003
28103	11.723	2.7273	0.1	-6.2106e-003
28104	11.631	3.	0.1	-6.0263e-003
28105	11.723	2.9091	0.1	-6.1451e-003
28106	11.631	3.1818	0.1	-6.0553e-003
28107	11.723	3.0909	0.1	-6.1454e-003
28108	11.631	3.3636	0.1	-6.1373e-003
28109	11.723	3.2727	0.1	-6.2104e-003
28110	11.631	3.5455	0.1	-6.2573e-003
28111	11.723	3.4545	0.1	-6.3315e-003
28112	11.631	3.7273	0.1	-6.3912e-003
28113	11.723	3.6364	0.1	-6.4881e-003
28114	11.631	3.9091	0.1	-6.503e-003
28115	11.723	3.8182	0.1	-6.652e-003
28116	11.631	4.0909	0.1	-6.5425e-003
28117	11.723	4.	0.1	-6.7771e-003
28118	11.631	4.2727	0.1	-6.4496e-003
28119	11.723	4.1818	0.1	-6.8047e-003
28120	11.631	4.4545	0.1	-6.1523e-003
28121	11.723	4.3636	0.1	-6.6641e-003
28122	11.631	4.6364	0.1	-5.5703e-003
28123	11.723	4.5455	0.1	-6.2691e-003
28124	11.631	4.8182	0.1	-4.5992e-003
28125	11.723	4.7273	0.1	-5.5286e-003
28126	11.631	5.	0.1	-3.1766e-003
28127	11.723	4.9091	0.1	-4.2982e-003
28128	11.631	5.1818	0.1	-1.0096e-003
28129	11.723	5.0909	0.1	-2.5724e-003
28130	11.631	5.3636	0.1	1.3392e-003
28131	11.723	5.2727	0.1	3.1939e-004
28132	11.631	5.5455	0.1	7.9566e-003
28133	11.723	5.4545	0.1	2.481e-003
28134	11.631	5.7273	0.1	8.8203e-003
28135	11.723	5.6364	0.1	1.4914e-002
28136	11.723	5.8182	0.1	1.7516e-003
28137	11.631	5.9091	0.1	2.0347e-003
28138	11.815	0.27273	0.1	1.0659e-002
28139	11.908	0.18182	0.1	2.3622e-003
28140	11.815	9.0909e-002	0.1	2.3147e-003
28141	11.815	0.45455	0.1	9.347e-003
28142	11.908	0.36364	0.1	1.7758e-002
28143	11.815	0.63636	0.1	1.2993e-003
28144	11.908	0.54545	0.1	2.5645e-003
28145	11.815	0.81818	0.1	-1.3557e-003
28146	11.908	0.72727	0.1	1.3851e-004
28147	11.815	1.	0.1	-3.7666e-003
28148	11.908	0.90909	0.1	-3.1317e-003
28149	11.815	1.1818	0.1	-5.2725e-003
28150	11.908	1.0909	0.1	-4.9786e-003
28151	11.815	1.3636	0.1	-6.2544e-003
28152	11.908	1.2727	0.1	-6.2506e-003
28153	11.815	1.5455	0.1	-6.796e-003
28154	11.908	1.4545	0.1	-6.9632e-003
28155	11.815	1.7273	0.1	-7.0267e-003
28156	11.908	1.6364	0.1	-7.2951e-003
28157	11.815	1.9091	0.1	-7.0422e-003
28158	11.908	1.8182	0.1	-7.3551e-003
28159	11.815	2.0909	0.1	-6.9269e-003
28160	11.908	2.	0.1	-7.2447e-003
28161	11.815	2.2727	0.1	-6.7487e-003
28162	11.908	2.1818	0.1	-7.044e-003
28163	11.815	2.4545	0.1	-6.5619e-003
28164	11.908	2.3636	0.1	-6.818e-003
28165	11.815	2.6364	0.1	-6.4048e-003
28166	11.908	2.5455	0.1	-6.6156e-003
28167	11.815	2.8182	0.1	-6.3011e-003
28168	11.908	2.7273	0.1	-6.4651e-003
28169	11.815	3.	0.1	-6.2652e-003
28170	11.908	2.9091	0.1	-6.386e-003
28171	11.815	3.1818	0.1	-6.3012e-003
28172	11.908	3.0909	0.1	-6.3858e-003
28173	11.815	3.3636	0.1	-6.4048e-003
28174	11.908	3.2727	0.1	-6.4651e-003
28175	11.815	3.5455	0.1	-6.5619e-003
28176	11.908	3.4545	0.1	-6.6153e-003
28177	11.815	3.7273	0.1	-6.7485e-003
28178	11.908	3.6364	0.1	-6.818e-003
28179	11.815	3.9091	0.1	-6.9265e-003
28180	11.908	3.8182	0.1	-7.0435e-003
28181	11.815	4.0909	0.1	-7.042e-003
28182	11.908	4.	0.1	-7.2445e-003
28183	11.815	4.2727	0.1	-7.0262e-003
28184	11.908	4.1818	0.1	-7.3549e-003
28185	11.815	4.4545	0.1	-6.7953e-003
28186	11.908	4.3636	0.1	-7.2944e-003
28187	11.815	4.6364	0.1	-6.2535e-003
28188	11.908	4.5455	0.1	-6.9627e-003
28189	11.815	4.8182	0.1	-5.2719e-003
28190	11.908	4.7273	0.1	-6.2498e-003
28191	11.815	5.	0.1	-3.7657e-003
28192	11.908	4.9091	0.1	-4.9783e-003
28193	11.815	5.1818	0.1	-1.3544e-003
28194	11.908	5.0909	0.1	-3.1305e-003
28195	11.815	5.3636	0.1	1.3001e-003
28196	11.908	5.2727	0.1	1.3961e-004
28197	11.815	5.5455	0.1	9.3473e-003
28198	11.908	5.4545	0.1	2.5652e-003
28199	11.815	5.7273	0.1	1.066e-002
28200	11.908	5.6364	0.1	1.7758e-002
28201	11.908	5.8182	0.1	2.3628e-003
28202	11.815	5.9091	0.1	2.3157e-003
28203	12.	0.27273	0.1	1.2737e-002
28204	12.092	0.18182	0.1	3.3316e-003
28205	12.	9.0909e-002	0.1	2.6066e-003
28206	12.	0.45455	0.1	1.0778e-002
28207	12.092	0.36364	0.1	2.0831e-002
28208	12.	0.63636	0.1	1.171e-003
28209	12.092	0.54545	0.1	2.5694e-003
28210	12.	0.81818	0.1	-1.7915e-003
28211	12.092	0.72727	0.1	-1.2383e-004
28212	12.	1.	0.1	-4.4428e-003
28213	12.092	0.90909	0.1	-3.7831e-003
28214	12.	1.1818	0.1	-6.0193e-003
28215	12.092	1.0909	0.1	-5.7406e-003
28216	12.	1.3636	0.1	-6.9977e-003
28217	12.092	1.2727	0.1	-7.0391e-003
28218	12.	1.5455	0.1	-7.4844e-003
28219	12.092	1.4545	0.1	-7.7072e-003
28220	12.	1.7273	0.1	-7.6349e-003
28221	12.092	1.6364	0.1	-7.9589e-003
28222	12.	1.9091	0.1	-7.5621e-003
28223	12.092	1.8182	0.1	-7.9235e-003
28224	12.	2.0909	0.1	-7.3624e-003
28225	12.092	2.	0.1	-7.7182e-003
28226	12.	2.2727	0.1	-7.112e-003
28227	12.092	2.1818	0.1	-7.4334e-003
28228	12.	2.4545	0.1	-6.8701e-003
28229	12.092	2.3636	0.1	-7.1416e-003
28230	12.	2.6364	0.1	-6.6751e-003
28231	12.092	2.5455	0.1	-6.8921e-003
28232	12.	2.8182	0.1	-6.55e-003
28233	12.092	2.7273	0.1	-6.7129e-003
28234	12.	3.	0.1	-6.507e-003
28235	12.092	2.9091	0.1	-6.6202e-003
28236	12.	3.1818	0.1	-6.5497e-003
28237	12.092	3.0909	0.1	-6.6202e-003
28238	12.	3.3636	0.1	-6.6748e-003
28239	12.092	3.2727	0.1	-6.7128e-003
28240	12.	3.5455	0.1	-6.8699e-003
28241	12.092	3.4545	0.1	-6.8918e-003
28242	12.	3.7273	0.1	-7.1118e-003
28243	12.092	3.6364	0.1	-7.1415e-003
28244	12.	3.9091	0.1	-7.3621e-003
28245	12.092	3.8182	0.1	-7.4331e-003
28246	12.	4.0909	0.1	-7.562e-003
28247	12.092	4.	0.1	-7.718e-003
28248	12.	4.2727	0.1	-7.6345e-003
28249	12.092	4.1818	0.1	-7.9233e-003
28250	12.	4.4545	0.1	-7.4839e-003
28251	12.092	4.3636	0.1	-7.9583e-003
28252	12.	4.6364	0.1	-6.9972e-003
28253	12.092	4.5455	0.1	-7.7066e-003
28254	12.	4.8182	0.1	-6.0187e-003
28255	12.092	4.7273	0.1	-7.0386e-003
28256	12.	5.	0.1	-4.4422e-003
28257	12.092	4.9091	0.1	-5.7399e-003
28258	12.	5.1818	0.1	-1.7905e-003
28259	12.092	5.0909	0.1	-3.782e-003
28260	12.	5.3636	0.1	1.172e-003
28261	12.092	5.2727	0.1	-1.2273e-004
28262	12.	5.5455	0.1	1.0779e-002
28263	12.092	5.4545	0.1	2.57e-003
28264	12.	5.7273	0.1	1.2737e-002
28265	12.092	5.6364	0.1	2.0832e-002
28266	12.092	5.8182	0.1	3.3321e-003
28267	12.	5.9091	0.1	2.6078e-003
28268	12.185	0.27273	0.1	1.5125e-002
28269	12.277	0.18182	0.1	4.7472e-003
28270	12.185	9.0909e-002	0.1	2.9257e-003
28271	12.185	0.45455	0.1	1.2287e-002
28272	12.277	0.36364	0.1	2.4184e-002
28273	12.185	0.63636	0.1	9.6061e-004
28274	12.277	0.54545	0.1	2.4775e-003
28275	12.185	0.81818	0.1	-2.3145e-003
28276	12.277	0.72727	0.1	-4.8592e-004
28277	12.185	1.	0.1	-5.2063e-003
28278	12.277	0.90909	0.1	-4.5489e-003
28279	12.185	1.1818	0.1	-6.8385e-003
28280	12.277	1.0909	0.1	-6.6036e-003
28281	12.185	1.3636	0.1	-7.7957e-003
28282	12.277	1.2727	0.1	-7.9104e-003
28283	12.185	1.5455	0.1	-8.2082e-003
28284	12.277	1.4545	0.1	-8.5116e-003
28285	12.185	1.7273	0.1	-8.2602e-003
28286	12.277	1.6364	0.1	-8.6611e-003
28287	12.185	1.9091	0.1	-8.0834e-003
28288	12.277	1.8182	0.1	-8.5111e-003
28289	12.185	2.0909	0.1	-7.788e-003
28290	12.277	2.	0.1	-8.1963e-003
28291	12.185	2.2727	0.1	-7.4596e-003
28292	12.277	2.1818	0.1	-7.8193e-003
28293	12.185	2.4545	0.1	-7.1604e-003
28294	12.277	2.3636	0.1	-7.4581e-003
28295	12.185	2.6364	0.1	-6.9282e-003
28296	12.277	2.5455	0.1	-7.1629e-003
28297	12.185	2.8182	0.1	-6.7829e-003
28298	12.277	2.7273	0.1	-6.9582e-003
28299	12.185	3.	0.1	-6.7338e-003
28300	12.277	2.9091	0.1	-6.8544e-003
28301	12.185	3.1818	0.1	-6.7831e-003
28302	12.277	3.0909	0.1	-6.8545e-003
28303	12.185	3.3636	0.1	-6.9281e-003
28304	12.277	3.2727	0.1	-6.9585e-003
28305	12.185	3.5455	0.1	-7.1602e-003
28306	12.277	3.4545	0.1	-7.1631e-003
28307	12.185	3.7273	0.1	-7.4594e-003
28308	12.277	3.6364	0.1	-7.4578e-003
28309	12.185	3.9091	0.1	-7.7877e-003
28310	12.277	3.8182	0.1	-7.819e-003
28311	12.185	4.0909	0.1	-8.0831e-003
28312	12.277	4.	0.1	-8.1959e-003
28313	12.185	4.2727	0.1	-8.2598e-003
28314	12.277	4.1818	0.1	-8.5109e-003
28315	12.185	4.4545	0.1	-8.2076e-003
28316	12.277	4.3636	0.1	-8.6607e-003
28317	12.185	4.6364	0.1	-7.7952e-003
28318	12.277	4.5455	0.1	-8.5111e-003
28319	12.185	4.8182	0.1	-6.8379e-003
28320	12.277	4.7273	0.1	-7.9098e-003
28321	12.185	5.	0.1	-5.2051e-003
28322	12.277	4.9091	0.1	-6.6027e-003
28323	12.185	5.1818	0.1	-2.3133e-003
28324	12.277	5.0909	0.1	-4.5476e-003
28325	12.185	5.3636	0.1	9.6139e-004
28326	12.277	5.2727	0.1	-4.848e-004
28327	12.185	5.5455	0.1	1.2288e-002
28328	12.277	5.4545	0.1	2.4782e-003
28329	12.185	5.7273	0.1	1.5126e-002
28330	12.277	5.6364	0.1	2.4185e-002
28331	12.277	5.8182	0.1	4.7477e-003
28332	12.185	5.9091	0.1	2.9257e-003
28333	12.369	0.27273	0.1	1.7859e-002
28334	12.462	0.18182	0.1	6.7081e-003
28335	12.369	9.0909e-002	0.1	3.2508e-003
28336	12.369	0.45455	0.1	1.3865e-002
28337	12.462	0.36364	0.1	2.7854e-002
28338	12.369	0.63636	0.1	6.2449e-004
28339	12.462	0.54545	0.1	2.25e-003
28340	12.369	0.81818	0.1	-2.9678e-003
28341	12.462	0.72727	0.1	-9.8384e-004
28342	12.369	1.	0.1	-6.0982e-003
28343	12.462	0.90909	0.1	-5.4621e-003
28344	12.369	1.1818	0.1	-7.7682e-003
28345	12.462	1.0909	0.1	-7.5994e-003
28346	12.369	1.3636	0.1	-8.6681e-003
28347	12.462	1.2727	0.1	-8.8911e-003
28348	12.369	1.5455	0.1	-8.9937e-003
28349	12.462	1.4545	0.1	-9.3965e-003
28350	12.369	1.7273	0.1	-8.9242e-003
28351	12.462	1.6364	0.1	-9.4169e-003
28352	12.369	1.9091	0.1	-8.6252e-003
28353	12.462	1.8182	0.1	-9.1289e-003
28354	12.369	2.0909	0.1	-8.2229e-003
28355	12.462	2.	0.1	-8.6886e-003
28356	12.369	2.2727	0.1	-7.8113e-003
28357	12.462	2.1818	0.1	-8.2117e-003
28358	12.369	2.4545	0.1	-7.4555e-003
28359	12.462	2.3636	0.1	-7.7821e-003
28360	12.369	2.6364	0.1	-7.1907e-003
28361	12.462	2.5455	0.1	-7.4481e-003
28362	12.369	2.8182	0.1	-7.0304e-003
28363	12.462	2.7273	0.1	-7.2258e-003
28364	12.369	3.	0.1	-6.9771e-003
28365	12.462	2.9091	0.1	-7.1168e-003
28366	12.369	3.1818	0.1	-7.0307e-003
28367	12.462	3.0909	0.1	-7.1166e-003
28368	12.369	3.3636	0.1	-7.1913e-003
28369	12.462	3.2727	0.1	-7.2261e-003
28370	12.369	3.5455	0.1	-7.4555e-003
28371	12.462	3.4545	0.1	-7.4481e-003
28372	12.369	3.7273	0.1	-7.8109e-003
28373	12.462	3.6364	0.1	-7.782e-003
28374	12.369	3.9091	0.1	-8.2224e-003
28375	12.462	3.8182	0.1	-8.2115e-003
28376	12.369	4.0909	0.1	-8.625e-003
28377	12.462	4.	0.1	-8.688e-003
28378	12.369	4.2727	0.1	-8.9239e-003
28379	12.462	4.1818	0.1	-9.1284e-003
28380	12.369	4.4545	0.1	-8.9934e-003
28381	12.462	4.3636	0.1	-9.4165e-003
28382	12.369	4.6364	0.1	-8.6681e-003
28383	12.462	4.5455	0.1	-9.3961e-003
28384	12.369	4.8182	0.1	-7.7675e-003
28385	12.462	4.7273	0.1	-8.8905e-003
28386	12.369	5.	0.1	-6.0973e-003
28387	12.462	4.9091	0.1	-7.5991e-003
28388	12.369	5.1818	0.1	-2.9666e-003
28389	12.462	5.0909	0.1	-5.4621e-003
28390	12.369	5.3636	0.1	6.2549e-004
28391	12.462	5.2727	0.1	-9.826e-004
28392	12.369	5.5455	0.1	1.3866e-002
28393	12.462	5.4545	0.1	2.2506e-003
28394	12.369	5.7273	0.1	1.786e-002
28395	12.462	5.6364	0.1	2.7854e-002
28396	12.462	5.8182	0.1	6.7089e-003
28397	12.369	5.9091	0.1	3.2508e-003
28398	12.554	0.27273	0.1	2.0991e-002
28399	12.646	0.18182	0.1	9.3693e-003
28400	12.554	9.0909e-002	0.1	3.5675e-003
28401	12.554	0.45455	0.1	1.5511e-002
28402	12.646	0.36364	0.1	3.1905e-002
28403	12.554	0.63636	0.1	1.2888e-004
28404	12.646	0.54545	0.1	1.8678e-003
28405	12.554	0.81818	0.1	-3.7827e-003
28406	12.646	0.72727	0.1	-1.6293e-003
28407	12.554	1.	0.1	-7.1475e-003
28408	12.646	0.90909	0.1	-6.5457e-003
28409	12.554	1.1818	0.1	-8.8298e-003
28410	12.646	1.0909	0.1	-8.7317e-003
28411	12.554	1.3636	0.1	-9.668e-003
28412	12.646	1.2727	0.1	-9.9762e-003
28413	12.554	1.5455	0.1	-9.8502e-003
28414	12.646	1.4545	0.1	-1.035e-002
28415	12.554	1.7273	0.1	-9.6315e-003
28416	12.646	1.6364	0.1	-1.0207e-002
28417	12.554	1.9091	0.1	-9.1641e-003
28418	12.646	1.8182	0.1	-9.7533e-003
28419	12.554	2.0909	0.1	-8.6678e-003
28420	12.646	2.	0.1	-9.1706e-003
28421	12.554	2.2727	0.1	-8.1719e-003
28422	12.646	2.1818	0.1	-8.5899e-003
28423	12.554	2.4545	0.1	-7.7675e-003
28424	12.646	2.3636	0.1	-8.0998e-003
28425	12.554	2.6364	0.1	-7.4816e-003
28426	12.646	2.5455	0.1	-7.7418e-003
28427	12.554	2.8182	0.1	-7.3158e-003
28428	12.646	2.7273	0.1	-7.5193e-003
28429	12.554	3.	0.1	-7.2621e-003
28430	12.646	2.9091	0.1	-7.4152e-003
28431	12.554	3.1818	0.1	-7.3156e-003
28432	12.646	3.0909	0.1	-7.415e-003
28433	12.554	3.3636	0.1	-7.4814e-003
28434	12.646	3.2727	0.1	-7.5191e-003
28435	12.554	3.5455	0.1	-7.7674e-003
28436	12.646	3.4545	0.1	-7.742e-003
28437	12.554	3.7273	0.1	-8.172e-003
28438	12.646	3.6364	0.1	-8.0994e-003
28439	12.554	3.9091	0.1	-8.6675e-003
28440	12.646	3.8182	0.1	-8.5896e-003
28441	12.554	4.0909	0.1	-9.1641e-003
28442	12.646	4.	0.1	-9.1703e-003
28443	12.554	4.2727	0.1	-9.6309e-003
28444	12.646	4.1818	0.1	-9.7528e-003
28445	12.554	4.4545	0.1	-9.8498e-003
28446	12.646	4.3636	0.1	-1.0206e-002
28447	12.554	4.6364	0.1	-9.6676e-003
28448	12.646	4.5455	0.1	-1.0349e-002
28449	12.554	4.8182	0.1	-8.8297e-003
28450	12.646	4.7273	0.1	-9.976e-003
28451	12.554	5.	0.1	-7.147e-003
28452	12.646	4.9091	0.1	-8.7319e-003
28453	12.554	5.1818	0.1	-3.7816e-003
28454	12.646	5.0909	0.1	-6.5448e-003
28455	12.554	5.3636	0.1	1.2973e-004
28456	12.646	5.2727	0.1	-1.6277e-003
28457	12.554	5.5455	0.1	1.5511e-002
28458	12.646	5.4545	0.1	1.8683e-003
28459	12.554	5.7273	0.1	2.0992e-002
28460	12.646	5.6364	0.1	3.1905e-002
28461	12.646	5.8182	0.1	9.37e-003
28462	12.554	5.9091	0.1	3.5683e-003
28463	12.738	0.27273	0.1	2.4619e-002
28464	12.831	0.18182	0.1	1.2921e-002
28465	12.738	9.0909e-002	0.1	3.9068e-003
28466	12.738	0.45455	0.1	1.7262e-002
28467	12.831	0.36364	0.1	3.6405e-002
28468	12.738	0.63636	0.1	-5.2587e-004
28469	12.831	0.54545	0.1	1.3061e-003
28470	12.738	0.81818	0.1	-4.7521e-003
28471	12.831	0.72727	0.1	-2.4341e-003
28472	12.738	1.	0.1	-8.3409e-003
28473	12.831	0.90909	0.1	-7.7961e-003
28474	12.738	1.1818	0.1	-1.0001e-002
28475	12.831	1.0909	0.1	-9.999e-003
28476	12.738	1.3636	0.1	-1.0725e-002
28477	12.831	1.2727	0.1	-1.1153e-002
28478	12.738	1.5455	0.1	-1.0737e-002
28479	12.831	1.4545	0.1	-1.1348e-002
28480	12.738	1.7273	0.1	-1.0335e-002
28481	12.831	1.6364	0.1	-1.0999e-002
28482	12.738	1.9091	0.1	-9.7254e-003
28483	12.831	1.8182	0.1	-1.0348e-002
28484	12.738	2.0909	0.1	-9.0763e-003
28485	12.831	2.	0.1	-9.6065e-003
28486	12.738	2.2727	0.1	-8.5019e-003
28487	12.831	2.1818	0.1	-8.9232e-003
28488	12.738	2.4545	0.1	-8.065e-003
28489	12.831	2.3636	0.1	-8.391e-003
28490	12.738	2.6364	0.1	-7.7803e-003
28491	12.831	2.5455	0.1	-8.0387e-003
28492	12.738	2.8182	0.1	-7.6283e-003
28493	12.831	2.7273	0.1	-7.8455e-003
28494	12.738	3.	0.1	-7.5814e-003
28495	12.831	2.9091	0.1	-7.7647e-003
28496	12.738	3.1818	0.1	-7.6282e-003
28497	12.831	3.0909	0.1	-7.7651e-003
28498	12.738	3.3636	0.1	-7.7806e-003
28499	12.831	3.2727	0.1	-7.845e-003
28500	12.738	3.5455	0.1	-8.0649e-003
28501	12.831	3.4545	0.1	-8.039e-003
28502	12.738	3.7273	0.1	-8.5011e-003
28503	12.831	3.6364	0.1	-8.3905e-003
28504	12.738	3.9091	0.1	-9.076e-003
28505	12.831	3.8182	0.1	-8.9229e-003
28506	12.738	4.0909	0.1	-9.7254e-003
28507	12.831	4.	0.1	-9.6062e-003
28508	12.738	4.2727	0.1	-1.0334e-002
28509	12.831	4.1818	0.1	-1.0348e-002
28510	12.738	4.4545	0.1	-1.0737e-002
28511	12.831	4.3636	0.1	-1.0999e-002
28512	12.738	4.6364	0.1	-1.0725e-002
28513	12.831	4.5455	0.1	-1.1348e-002
28514	12.738	4.8182	0.1	-1.0001e-002
28515	12.831	4.7273	0.1	-1.1153e-002
28516	12.738	5.	0.1	-8.3405e-003
28517	12.831	4.9091	0.1	-9.9987e-003
28518	12.738	5.1818	0.1	-4.7508e-003
28519	12.831	5.0909	0.1	-7.7945e-003
28520	12.738	5.3636	0.1	-5.2475e-004
28521	12.831	5.2727	0.1	-2.4328e-003
28522	12.738	5.5455	0.1	1.7262e-002
28523	12.831	5.4545	0.1	1.3064e-003
28524	12.738	5.7273	0.1	2.462e-002
28525	12.831	5.6364	0.1	3.6406e-002
28526	12.831	5.8182	0.1	1.2921e-002
28527	12.738	5.9091	0.1	3.9077e-003
28528	12.923	0.27273	0.1	2.8805e-002
28529	13.015	0.18182	0.1	1.7596e-002
28530	12.923	9.0909e-002	0.1	4.2602e-003
28531	12.923	0.45455	0.1	1.9114e-002
28532	13.015	0.36364	0.1	4.1433e-002
28533	12.923	0.63636	0.1	-1.3799e-003
28534	13.015	0.54545	0.1	5.4517e-004
28535	12.923	0.81818	0.1	-5.9051e-003
28536	13.015	0.72727	0.1	-3.4003e-003
28537	12.923	1.	0.1	-9.6994e-003
28538	13.015	0.90909	0.1	-9.2086e-003
28539	12.923	1.1818	0.1	-1.1291e-002
28540	13.015	1.0909	0.1	-1.1378e-002
28541	12.923	1.3636	0.1	-1.185e-002
28542	13.015	1.2727	0.1	-1.2387e-002
28543	12.923	1.5455	0.1	-1.164e-002
28544	13.015	1.4545	0.1	-1.2343e-002
28545	12.923	1.7273	0.1	-1.1013e-002
28546	13.015	1.6364	0.1	-1.1735e-002
28547	12.923	1.9091	0.1	-1.0212e-002
28548	13.015	1.8182	0.1	-1.0849e-002
28549	12.923	2.0909	0.1	-9.4279e-003
28550	13.015	2.	0.1	-9.9314e-003
28551	12.923	2.2727	0.1	-8.7897e-003
28552	13.015	2.1818	0.1	-9.1554e-003
28553	12.923	2.4545	0.1	-8.3541e-003
28554	13.015	2.3636	0.1	-8.6157e-003
28555	12.923	2.6364	0.1	-8.1101e-003
28556	13.015	2.5455	0.1	-8.3197e-003
28557	12.923	2.8182	0.1	-8.0028e-003
28558	13.015	2.7273	0.1	-8.205e-003
28559	12.923	3.	0.1	-7.9752e-003
28560	13.015	2.9091	0.1	-8.1792e-003
28561	12.923	3.1818	0.1	-8.0027e-003
28562	13.015	3.0909	0.1	-8.1796e-003
28563	12.923	3.3636	0.1	-8.0841e-003
28564	13.015	3.2727	0.1	-8.2044e-003
28565	12.923	3.5455	0.1	-8.354e-003
28566	13.015	3.4545	0.1	-8.3196e-003
28567	12.923	3.7273	0.1	-8.7897e-003
28568	13.015	3.6364	0.1	-8.6153e-003
28569	12.923	3.9091	0.1	-9.4276e-003
28570	13.015	3.8182	0.1	-9.1551e-003
28571	12.923	4.0909	0.1	-1.0211e-002
28572	13.015	4.	0.1	-9.931e-003
28573	12.923	4.2727	0.1	-1.1013e-002
28574	13.015	4.1818	0.1	-1.0848e-002
28575	12.923	4.4545	0.1	-1.164e-002
28576	13.015	4.3636	0.1	-1.1735e-002
28577	12.923	4.6364	0.1	-1.185e-002
28578	13.015	4.5455	0.1	-1.2342e-002
28579	12.923	4.8182	0.1	-1.1291e-002
28580	13.015	4.7273	0.1	-1.2386e-002
28581	12.923	5.	0.1	-9.6979e-003
28582	13.015	4.9091	0.1	-1.1378e-002
28583	12.923	5.1818	0.1	-5.9035e-003
28584	13.015	5.0909	0.1	-9.2071e-003
28585	12.923	5.3636	0.1	-1.3794e-003
28586	13.015	5.2727	0.1	-3.3988e-003
28587	12.923	5.5455	0.1	1.9114e-002
28588	13.015	5.4545	0.1	5.4523e-004
28589	12.923	5.7273	0.1	2.8805e-002
28590	13.015	5.6364	0.1	4.1434e-002
28591	13.015	5.8182	0.1	1.7597e-002
28592	12.923	5.9091	0.1	4.2601e-003
28593	13.108	0.27273	0.1	3.3662e-002
28594	13.2	0.18182	0.1	2.3644e-002
28595	13.108	9.0909e-002	0.1	4.6809e-003
28596	13.108	0.45455	0.1	2.1118e-002
28597	13.2	0.36364	0.1	4.7047e-002
28598	13.108	0.63636	0.1	-2.418e-003
28599	13.2	0.54545	0.1	-4.5729e-004
28600	13.108	0.81818	0.1	-7.2074e-003
28601	13.2	0.72727	0.1	-4.5416e-003
28602	13.108	1.	0.1	-1.1172e-002
28603	13.2	0.90909	0.1	-1.0784e-002
28604	13.108	1.1818	0.1	-1.2633e-002
28605	13.2	1.0909	0.1	-1.285e-002
28606	13.108	1.3636	0.1	-1.296e-002
28607	13.2	1.2727	0.1	-1.3638e-002
28608	13.108	1.5455	0.1	-1.2466e-002
28609	13.2	1.4545	0.1	-1.328e-002
28610	13.108	1.7273	0.1	-1.1563e-002
28611	13.2	1.6364	0.1	-1.2348e-002
28612	13.108	1.9091	0.1	-1.0539e-002
28613	13.2	1.8182	0.1	-1.1179e-002
28614	13.108	2.0909	0.1	-9.6213e-003
28615	13.2	2.	0.1	-1.0072e-002
28616	13.108	2.2727	0.1	-8.9503e-003
28617	13.2	2.1818	0.1	-9.2249e-003
28618	13.108	2.4545	0.1	-8.5701e-003
28619	13.2	2.3636	0.1	-8.7359e-003
28620	13.108	2.6364	0.1	-8.4307e-003
28621	13.2	2.5455	0.1	-8.5776e-003
28622	13.108	2.8182	0.1	-8.4214e-003
28623	13.2	2.7273	0.1	-8.6216e-003
28624	13.108	3.	0.1	-8.4332e-003
28625	13.2	2.9091	0.1	-8.7011e-003
28626	13.108	3.1818	0.1	-8.4213e-003
28627	13.2	3.0909	0.1	-8.7011e-003
28628	13.108	3.3636	0.1	-8.4306e-003
28629	13.2	3.2727	0.1	-8.6212e-003
28630	13.108	3.5455	0.1	-8.5698e-003
28631	13.2	3.4545	0.1	-8.5777e-003
28632	13.108	3.7273	0.1	-8.9496e-003
28633	13.2	3.6364	0.1	-8.7355e-003
28634	13.108	3.9091	0.1	-9.621e-003
28635	13.2	3.8182	0.1	-9.2247e-003
28636	13.108	4.0909	0.1	-1.0539e-002
28637	13.2	4.	0.1	-1.0071e-002
28638	13.108	4.2727	0.1	-1.1563e-002
28639	13.2	4.1818	0.1	-1.1179e-002
28640	13.108	4.4545	0.1	-1.2466e-002
28641	13.2	4.3636	0.1	-1.2347e-002
28642	13.108	4.6364	0.1	-1.296e-002
28643	13.2	4.5455	0.1	-1.328e-002
28644	13.108	4.8182	0.1	-1.2632e-002
28645	13.2	4.7273	0.1	-1.3637e-002
28646	13.108	5.	0.1	-1.1171e-002
28647	13.2	4.9091	0.1	-1.285e-002
28648	13.108	5.1818	0.1	-7.2061e-003
28649	13.2	5.0909	0.1	-1.0783e-002
28650	13.108	5.3636	0.1	-2.4169e-003
28651	13.2	5.2727	0.1	-4.5398e-003
28652	13.108	5.5455	0.1	2.1118e-002
28653	13.2	5.4545	0.1	-4.5637e-004
28654	13.108	5.7273	0.1	3.3662e-002
28655	13.2	5.6364	0.1	4.7047e-002
28656	13.2	5.8182	0.1	2.3644e-002
28657	13.108	5.9091	0.1	4.6814e-003
28658	13.292	0.27273	0.1	3.9202e-002
28659	13.385	0.18182	0.1	3.1301e-002
28660	13.292	9.0909e-002	0.1	5.1415e-003
28661	13.292	0.45455	0.1	2.3226e-002
28662	13.385	0.36364	0.1	5.3272e-002
28663	13.292	0.63636	0.1	-3.715e-003
28664	13.385	0.54545	0.1	-1.7668e-003
28665	13.292	0.81818	0.1	-8.7097e-003
28666	13.385	0.72727	0.1	-5.8851e-003
28667	13.292	1.	0.1	-1.2792e-002
28668	13.385	0.90909	0.1	-1.2529e-002
28669	13.292	1.1818	0.1	-1.4037e-002
28670	13.385	1.0909	0.1	-1.4396e-002
28671	13.292	1.3636	0.1	-1.4047e-002
28672	13.385	1.2727	0.1	-1.4867e-002
28673	13.292	1.5455	0.1	-1.3188e-002
28674	13.385	1.4545	0.1	-1.4097e-002
28675	13.292	1.7273	0.1	-1.1946e-002
28676	13.385	1.6364	0.1	-1.2757e-002
28677	13.292	1.9091	0.1	-1.0667e-002
28678	13.385	1.8182	0.1	-1.125e-002
28679	13.292	2.0909	0.1	-9.6216e-003
28680	13.385	2.	0.1	-9.9376e-003
28681	13.292	2.2727	0.1	-8.9685e-003
28682	13.385	2.1818	0.1	-9.0598e-003
28683	13.292	2.4545	0.1	-8.7329e-003
28684	13.385	2.3636	0.1	-8.7132e-003
28685	13.292	2.6364	0.1	-8.8014e-003
28686	13.385	2.5455	0.1	-8.8199e-003
28687	13.292	2.8182	0.1	-8.9727e-003
28688	13.385	2.7273	0.1	-9.1476e-003
28689	13.292	3.	0.1	-9.056e-003
28690	13.385	2.9091	0.1	-9.4105e-003
28691	13.292	3.1818	0.1	-8.9725e-003
28692	13.385	3.0909	0.1	-9.4105e-003
28693	13.292	3.3636	0.1	-8.8012e-003
28694	13.385	3.2727	0.1	-9.1473e-003
28695	13.292	3.5455	0.1	-8.733e-003
28696	13.385	3.4545	0.1	-8.8199e-003
28697	13.292	3.7273	0.1	-8.9685e-003
28698	13.385	3.6364	0.1	-8.7127e-003
28699	13.292	3.9091	0.1	-9.6215e-003
28700	13.385	3.8182	0.1	-9.0597e-003
28701	13.292	4.0909	0.1	-1.0667e-002
28702	13.385	4.	0.1	-9.937e-003
28703	13.292	4.2727	0.1	-1.1946e-002
28704	13.385	4.1818	0.1	-1.125e-002
28705	13.292	4.4545	0.1	-1.3187e-002
28706	13.385	4.3636	0.1	-1.2756e-002
28707	13.292	4.6364	0.1	-1.4047e-002
28708	13.385	4.5455	0.1	-1.4097e-002
28709	13.292	4.8182	0.1	-1.4037e-002
28710	13.385	4.7273	0.1	-1.4867e-002
28711	13.292	5.	0.1	-1.2791e-002
28712	13.385	4.9091	0.1	-1.4396e-002
28713	13.292	5.1818	0.1	-8.7084e-003
28714	13.385	5.0909	0.1	-1.2528e-002
28715	13.292	5.3636	0.1	-3.7134e-003
28716	13.385	5.2727	0.1	-5.8834e-003
28717	13.292	5.5455	0.1	2.3226e-002
28718	13.385	5.4545	0.1	-1.7661e-003
28719	13.292	5.7273	0.1	3.9201e-002
28720	13.385	5.6364	0.1	5.3272e-002
28721	13.385	5.8182	0.1	3.1302e-002
28722	13.292	5.9091	0.1	5.1414e-003
28723	13.477	0.27273	0.1	4.5452e-002
28724	13.569	0.18182	0.1	4.083e-002
28725	13.477	9.0909e-002	0.1	5.6612e-003
28726	13.477	0.45455	0.1	2.5433e-002
28727	13.569	0.36364	0.1	6.0169e-002
28728	13.477	0.63636	0.1	-5.2925e-003
28729	13.569	0.54545	0.1	-3.3996e-003
28730	13.477	0.81818	0.1	-1.0398e-002
28731	13.569	0.72727	0.1	-7.3926e-003
28732	13.477	1.	0.1	-1.4516e-002
28733	13.569	0.90909	0.1	-1.4374e-002
28734	13.477	1.1818	0.1	-1.5435e-002
28735	13.569	1.0909	0.1	-1.5915e-002
28736	13.477	1.3636	0.1	-1.5017e-002
28737	13.569	1.2727	0.1	-1.5943e-002
28738	13.477	1.5455	0.1	-1.369e-002
28739	13.569	1.4545	0.1	-1.4638e-002
28740	13.477	1.7273	0.1	-1.203e-002
28741	13.569	1.6364	0.1	-1.2782e-002
28742	13.477	1.9091	0.1	-1.0457e-002
28743	13.569	1.8182	0.1	-1.0867e-002
28744	13.477	2.0909	0.1	-9.3012e-003
28745	13.569	2.	0.1	-9.3356e-003
28746	13.477	2.2727	0.1	-8.7483e-003
28747	13.569	2.1818	0.1	-8.4879e-003
28748	13.477	2.4545	0.1	-8.7926e-003
28749	13.569	2.3636	0.1	-8.4226e-003
28750	13.477	2.6364	0.1	-9.2264e-003
28751	13.569	2.5455	0.1	-8.986e-003
28752	13.477	2.8182	0.1	-9.7071e-003
28753	13.569	2.7273	0.1	-9.7889e-003
28754	13.477	3.	0.1	-9.9118e-003
28755	13.569	2.9091	0.1	-1.0356e-002
28756	13.477	3.1818	0.1	-9.7071e-003
28757	13.569	3.0909	0.1	-1.0356e-002
28758	13.477	3.3636	0.1	-9.2263e-003
28759	13.569	3.2727	0.1	-9.7888e-003
28760	13.477	3.5455	0.1	-8.792e-003
28761	13.569	3.4545	0.1	-8.986e-003
28762	13.477	3.7273	0.1	-8.7476e-003
28763	13.569	3.6364	0.1	-8.422e-003
28764	13.477	3.9091	0.1	-9.3006e-003
28765	13.569	3.8182	0.1	-8.4875e-003
28766	13.477	4.0909	0.1	-1.0456e-002
28767	13.569	4.	0.1	-9.3355e-003
28768	13.477	4.2727	0.1	-1.203e-002
28769	13.569	4.1818	0.1	-1.0866e-002
28770	13.477	4.4545	0.1	-1.3689e-002
28771	13.569	4.3636	0.1	-1.2782e-002
28772	13.477	4.6364	0.1	-1.5016e-002
28773	13.569	4.5455	0.1	-1.4637e-002
28774	13.477	4.8182	0.1	-1.5434e-002
28775	13.569	4.7273	0.1	-1.5943e-002
28776	13.477	5.	0.1	-1.4514e-002
28777	13.569	4.9091	0.1	-1.5914e-002
28778	13.477	5.1818	0.1	-1.0396e-002
28779	13.569	5.0909	0.1	-1.4372e-002
28780	13.477	5.3636	0.1	-5.2918e-003
28781	13.569	5.2727	0.1	-7.3911e-003
28782	13.477	5.5455	0.1	2.5433e-002
28783	13.569	5.4545	0.1	-3.4003e-003
28784	13.477	5.7273	0.1	4.5453e-002
28785	13.569	5.6364	0.1	6.017e-002
28786	13.569	5.8182	0.1	4.0832e-002
28787	13.477	5.9091	0.1	5.6619e-003
28788	13.662	0.27273	0.1	5.2441e-002
28789	13.754	0.18182	0.1	5.2372e-002
28790	13.662	9.0909e-002	0.1	6.3197e-003
28791	13.662	0.45455	0.1	2.7777e-002
28792	13.754	0.36364	0.1	6.7738e-002
28793	13.662	0.63636	0.1	-7.1105e-003
28794	13.754	0.54545	0.1	-5.3976e-003
28795	13.662	0.81818	0.1	-1.2179e-002
28796	13.754	0.72727	0.1	-9.0278e-003
28797	13.662	1.	0.1	-1.6216e-002
28798	13.754	0.90909	0.1	-1.6238e-002
28799	13.662	1.1818	0.1	-1.6663e-002
28800	13.754	1.0909	0.1	-1.7284e-002
28801	13.662	1.3636	0.1	-1.5676e-002
28802	13.754	1.2727	0.1	-1.6712e-002
28803	13.662	1.5455	0.1	-1.3751e-002
28804	13.754	1.4545	0.1	-1.4714e-002
28805	13.662	1.7273	0.1	-1.1574e-002
28806	13.754	1.6364	0.1	-1.2208e-002
28807	13.662	1.9091	0.1	-9.6576e-003
28808	13.754	1.8182	0.1	-9.7926e-003
28809	13.662	2.0909	0.1	-8.4207e-003
28810	13.754	2.	0.1	-8.0283e-003
28811	13.662	2.2727	0.1	-8.0878e-003
28812	13.754	2.1818	0.1	-7.2992e-003
28813	13.662	2.4545	0.1	-8.6146e-003
28814	13.754	2.3636	0.1	-7.7183e-003
28815	13.662	2.6364	0.1	-9.6519e-003
28816	13.754	2.5455	0.1	-9.023e-003
28817	13.662	2.8182	0.1	-1.0638e-002
28818	13.754	2.7273	0.1	-1.0588e-002
28819	13.662	3.	0.1	-1.1041e-002
28820	13.754	2.9091	0.1	-1.1643e-002
28821	13.662	3.1818	0.1	-1.0638e-002
28822	13.754	3.0909	0.1	-1.1643e-002
28823	13.662	3.3636	0.1	-9.6519e-003
28824	13.754	3.2727	0.1	-1.0589e-002
28825	13.662	3.5455	0.1	-8.6145e-003
28826	13.754	3.4545	0.1	-9.0229e-003
28827	13.662	3.7273	0.1	-8.0875e-003
28828	13.754	3.6364	0.1	-7.7178e-003
28829	13.662	3.9091	0.1	-8.4208e-003
28830	13.754	3.8182	0.1	-7.299e-003
28831	13.662	4.0909	0.1	-9.6576e-003
28832	13.754	4.	0.1	-8.0282e-003
28833	13.662	4.2727	0.1	-1.1573e-002
28834	13.754	4.1818	0.1	-9.792e-003
28835	13.662	4.4545	0.1	-1.3751e-002
28836	13.754	4.3636	0.1	-1.2208e-002
28837	13.662	4.6364	0.1	-1.5676e-002
28838	13.754	4.5455	0.1	-1.4713e-002
28839	13.662	4.8182	0.1	-1.6663e-002
28840	13.754	4.7273	0.1	-1.6712e-002
28841	13.662	5.	0.1	-1.6215e-002
28842	13.754	4.9091	0.1	-1.7284e-002
28843	13.662	5.1818	0.1	-1.2178e-002
28844	13.754	5.0909	0.1	-1.6237e-002
28845	13.662	5.3636	0.1	-7.1105e-003
28846	13.754	5.2727	0.1	-9.0263e-003
28847	13.662	5.5455	0.1	2.7776e-002
28848	13.754	5.4545	0.1	-5.3977e-003
28849	13.662	5.7273	0.1	5.2441e-002
28850	13.754	5.6364	0.1	6.7739e-002
28851	13.754	5.8182	0.1	5.2374e-002
28852	13.662	5.9091	0.1	6.3206e-003
28853	13.846	0.27273	0.1	5.999e-002
28854	13.938	0.18182	0.1	6.5825e-002
28855	13.846	9.0909e-002	0.1	7.0943e-003
28856	13.846	0.45455	0.1	3.0169e-002
28857	13.938	0.36364	0.1	7.589e-002
28858	13.846	0.63636	0.1	-9.217e-003
28859	13.938	0.54545	0.1	-7.8177e-003
28860	13.846	0.81818	0.1	-1.4031e-002
28861	13.938	0.72727	0.1	-1.0747e-002
28862	13.846	1.	0.1	-1.782e-002
28863	13.938	0.90909	0.1	-1.8015e-002
28864	13.846	1.1818	0.1	-1.7611e-002
28865	13.938	1.0909	0.1	-1.8351e-002
28866	13.846	1.3636	0.1	-1.5877e-002
28867	13.938	1.2727	0.1	-1.6977e-002
28868	13.846	1.5455	0.1	-1.319e-002
28869	13.938	1.4545	0.1	-1.4092e-002
28870	13.846	1.7273	0.1	-1.0365e-002
28871	13.938	1.6364	0.1	-1.0765e-002
28872	13.846	1.9091	0.1	-8.0457e-003
28873	13.938	1.8182	0.1	-7.7302e-003
28874	13.846	2.0909	0.1	-6.7714e-003
28875	13.938	2.	0.1	-5.7138e-003
28876	13.846	2.2727	0.1	-6.8323e-003
28877	13.938	2.1818	0.1	-5.2296e-003
28878	13.846	2.4545	0.1	-8.1362e-003
28879	13.938	2.3636	0.1	-6.4228e-003
28880	13.846	2.6364	0.1	-1.0128e-002
28881	13.938	2.5455	0.1	-8.8827e-003
28882	13.846	2.8182	0.1	-1.1914e-002
28883	13.938	2.7273	0.1	-1.1634e-002
28884	13.846	3.	0.1	-1.2629e-002
28885	13.938	2.9091	0.1	-1.3449e-002
28886	13.846	3.1818	0.1	-1.1914e-002
28887	13.938	3.0909	0.1	-1.3449e-002
28888	13.846	3.3636	0.1	-1.0129e-002
28889	13.938	3.2727	0.1	-1.1634e-002
28890	13.846	3.5455	0.1	-8.1357e-003
28891	13.938	3.4545	0.1	-8.8828e-003
28892	13.846	3.7273	0.1	-6.832e-003
28893	13.938	3.6364	0.1	-6.4223e-003
28894	13.846	3.9091	0.1	-6.7709e-003
28895	13.938	3.8182	0.1	-5.2296e-003
28896	13.846	4.0909	0.1	-8.0451e-003
28897	13.938	4.	0.1	-5.7129e-003
28898	13.846	4.2727	0.1	-1.0365e-002
28899	13.938	4.1818	0.1	-7.7296e-003
28900	13.846	4.4545	0.1	-1.319e-002
28901	13.938	4.3636	0.1	-1.0764e-002
28902	13.846	4.6364	0.1	-1.5876e-002
28903	13.938	4.5455	0.1	-1.4092e-002
28904	13.846	4.8182	0.1	-1.761e-002
28905	13.938	4.7273	0.1	-1.6977e-002
28906	13.846	5.	0.1	-1.7819e-002
28907	13.938	4.9091	0.1	-1.835e-002
28908	13.846	5.1818	0.1	-1.4029e-002
28909	13.938	5.0909	0.1	-1.8014e-002
28910	13.846	5.3636	0.1	-9.2156e-003
28911	13.938	5.2727	0.1	-1.0745e-002
28912	13.846	5.5455	0.1	3.017e-002
28913	13.938	5.4545	0.1	-7.8178e-003
28914	13.846	5.7273	0.1	5.9991e-002
28915	13.938	5.6364	0.1	7.589e-002
28916	13.938	5.8182	0.1	6.5826e-002
28917	13.846	5.9091	0.1	7.095e-003
28918	14.031	0.27273	0.1	6.7813e-002
28919	14.123	0.18182	0.1	8.0691e-002
28920	14.031	9.0909e-002	0.1	7.9975e-003
28921	14.031	0.45455	0.1	3.2549e-002
28922	14.123	0.36364	0.1	8.4437e-002
28923	14.031	0.63636	0.1	-1.1578e-002
28924	14.123	0.54545	0.1	-1.0708e-002
28925	14.031	0.81818	0.1	-1.5826e-002
28926	14.123	0.72727	0.1	-1.2454e-002
28927	14.031	1.	0.1	-1.9141e-002
28928	14.123	0.90909	0.1	-1.9529e-002
28929	14.031	1.1818	0.1	-1.804e-002
28930	14.123	1.0909	0.1	-1.8877e-002
28931	14.031	1.3636	0.1	-1.534e-002
28932	14.123	1.2727	0.1	-1.6458e-002
28933	14.031	1.5455	0.1	-1.1687e-002
28934	14.123	1.4545	0.1	-1.2449e-002
28935	14.031	1.7273	0.1	-8.0502e-003
28936	14.123	1.6364	0.1	-8.0833e-003
28937	14.031	1.9091	0.1	-5.2474e-003
28938	14.123	1.8182	0.1	-4.2752e-003
28939	14.031	2.0909	0.1	-3.9959e-003
28940	14.123	2.	0.1	-1.9807e-003
28941	14.031	2.2727	0.1	-4.6951e-003
28942	14.123	2.1818	0.1	-1.9156e-003
28943	14.031	2.4545	0.1	-7.1977e-003
28944	14.123	2.3636	0.1	-4.2908e-003
28945	14.031	2.6364	0.1	-1.0656e-002
28946	14.123	2.5455	0.1	-8.4981e-003
28947	14.031	2.8182	0.1	-1.3673e-002
28948	14.123	2.7273	0.1	-1.3051e-002
28949	14.031	3.	0.1	-1.4872e-002
28950	14.123	2.9091	0.1	-1.6026e-002
28951	14.031	3.1818	0.1	-1.3673e-002
28952	14.123	3.0909	0.1	-1.6027e-002
28953	14.031	3.3636	0.1	-1.0656e-002
28954	14.123	3.2727	0.1	-1.3051e-002
28955	14.031	3.5455	0.1	-7.1978e-003
28956	14.123	3.4545	0.1	-8.4986e-003
28957	14.031	3.7273	0.1	-4.6949e-003
28958	14.123	3.6364	0.1	-4.2898e-003
28959	14.031	3.9091	0.1	-3.9955e-003
28960	14.123	3.8182	0.1	-1.9158e-003
28961	14.031	4.0909	0.1	-5.2466e-003
28962	14.123	4.	0.1	-1.9804e-003
28963	14.031	4.2727	0.1	-8.0496e-003
28964	14.123	4.1818	0.1	-4.2747e-003
28965	14.031	4.4545	0.1	-1.1686e-002
28966	14.123	4.3636	0.1	-8.0827e-003
28967	14.031	4.6364	0.1	-1.534e-002
28968	14.123	4.5455	0.1	-1.2449e-002
28969	14.031	4.8182	0.1	-1.8039e-002
28970	14.123	4.7273	0.1	-1.6458e-002
28971	14.031	5.	0.1	-1.9139e-002
28972	14.123	4.9091	0.1	-1.8876e-002
28973	14.031	5.1818	0.1	-1.5825e-002
28974	14.123	5.0909	0.1	-1.9527e-002
28975	14.031	5.3636	0.1	-1.1577e-002
28976	14.123	5.2727	0.1	-1.2452e-002
28977	14.031	5.5455	0.1	3.2548e-002
28978	14.123	5.4545	0.1	-1.0709e-002
28979	14.031	5.7273	0.1	6.7814e-002
28980	14.123	5.6364	0.1	8.4437e-002
28981	14.123	5.8182	0.1	8.0692e-002
28982	14.031	5.9091	0.1	7.9981e-003
28983	14.215	0.27273	0.1	7.5327e-002
28984	14.308	0.18182	0.1	9.5799e-002
28985	14.215	9.0909e-002	0.1	8.9619e-003
28986	14.215	0.45455	0.1	3.4748e-002
28987	14.308	0.36364	0.1	9.3013e-002
28988	14.215	0.63636	0.1	-1.4178e-002
28989	14.308	0.54545	0.1	-1.4119e-002
28990	14.215	0.81818	0.1	-1.7419e-002
28991	14.308	0.72727	0.1	-1.4006e-002
28992	14.215	1.	0.1	-1.995e-002
28993	14.308	0.90909	0.1	-2.0515e-002
28994	14.215	1.1818	0.1	-1.7669e-002
28995	14.308	1.0909	0.1	-1.8533e-002
28996	14.215	1.3636	0.1	-1.374e-002
28997	14.308	1.2727	0.1	-1.4779e-002
28998	14.215	1.5455	0.1	-8.8705e-003
28999	14.308	1.4545	0.1	-9.3646e-003
29000	14.215	1.7273	0.1	-4.2136e-003
29001	14.308	1.6364	0.1	-3.6931e-003
29002	14.215	1.9091	0.1	-8.234e-004
29003	14.308	1.8182	0.1	1.0885e-003
29004	14.215	2.0909	0.1	3.2072e-004
29005	14.308	2.	0.1	3.6967e-003
29006	14.215	2.2727	0.1	-1.3562e-003
29007	14.308	2.1818	0.1	3.1031e-003
29008	14.215	2.4545	0.1	-5.6518e-003
29009	14.308	2.3636	0.1	-1.0248e-003
29010	14.215	2.6364	0.1	-1.1307e-002
29011	14.308	2.5455	0.1	-7.8193e-003
29012	14.215	2.8182	0.1	-1.6179e-002
29013	14.308	2.7273	0.1	-1.5049e-002
29014	14.215	3.	0.1	-1.8111e-002
29015	14.308	2.9091	0.1	-1.9757e-002
29016	14.215	3.1818	0.1	-1.6179e-002
29017	14.308	3.0909	0.1	-1.9757e-002
29018	14.215	3.3636	0.1	-1.1307e-002
29019	14.308	3.2727	0.1	-1.5049e-002
29020	14.215	3.5455	0.1	-5.6511e-003
29021	14.308	3.4545	0.1	-7.8192e-003
29022	14.215	3.7273	0.1	-1.3556e-003
29023	14.308	3.6364	0.1	-1.0242e-003
29024	14.215	3.9091	0.1	3.2033e-004
29025	14.308	3.8182	0.1	3.103e-003
29026	14.215	4.0909	0.1	-8.2344e-004
29027	14.308	4.	0.1	3.6967e-003
29028	14.215	4.2727	0.1	-4.213e-003
29029	14.308	4.1818	0.1	1.0891e-003
29030	14.215	4.4545	0.1	-8.8698e-003
29031	14.308	4.3636	0.1	-3.6927e-003
29032	14.215	4.6364	0.1	-1.374e-002
29033	14.308	4.5455	0.1	-9.3639e-003
29034	14.215	4.8182	0.1	-1.7668e-002
29035	14.308	4.7273	0.1	-1.4779e-002
29036	14.215	5.	0.1	-1.9949e-002
29037	14.308	4.9091	0.1	-1.8533e-002
29038	14.215	5.1818	0.1	-1.7417e-002
29039	14.308	5.0909	0.1	-2.0514e-002
29040	14.215	5.3636	0.1	-1.4178e-002
29041	14.308	5.2727	0.1	-1.4004e-002
29042	14.215	5.5455	0.1	3.4748e-002
29043	14.308	5.4545	0.1	-1.412e-002
29044	14.215	5.7273	0.1	7.5328e-002
29045	14.308	5.6364	0.1	9.3013e-002
29046	14.308	5.8182	0.1	9.5801e-002
29047	14.215	5.9091	0.1	8.9638e-003
29048	14.4	0.27273	0.1	8.1595e-002
29049	14.492	0.18182	0.1	0.10898
29050	14.4	9.0909e-002	0.1	9.8748e-003
29051	14.4	0.45455	0.1	3.6545e-002
29052	14.492	0.36364	0.1	0.10101
29053	14.4	0.63636	0.1	-1.693e-002
29054	14.492	0.54545	0.1	-1.8076e-002
29055	14.4	0.81818	0.1	-1.8544e-002
29056	14.492	0.72727	0.1	-1.5167e-002
29057	14.4	1.	0.1	-1.988e-002
29058	14.492	0.90909	0.1	-2.0577e-002
29059	14.4	1.1818	0.1	-1.6072e-002
29060	14.492	1.0909	0.1	-1.6841e-002
29061	14.4	1.3636	0.1	-1.0607e-002
29062	14.492	1.2727	0.1	-1.1421e-002
29063	14.4	1.5455	0.1	-4.224e-003
29064	14.492	1.4545	0.1	-4.2855e-003
29065	14.4	1.7273	0.1	1.7112e-003
29066	14.492	1.6364	0.1	3.0054e-003
29067	14.4	1.9091	0.1	5.8226e-003
29068	14.492	1.8182	0.1	9.01e-003
29069	14.4	2.0909	0.1	6.7432e-003
29070	14.492	2.	0.1	1.1969e-002
29071	14.4	2.2727	0.1	3.6155e-003
29072	14.492	2.1818	0.1	1.0382e-002
29073	14.4	2.4545	0.1	-3.3091e-003
29074	14.492	2.3636	0.1	3.7054e-003
29075	14.4	2.6364	0.1	-1.2191e-002
29076	14.492	2.5455	0.1	-6.8456e-003
29077	14.4	2.8182	0.1	-1.9797e-002
29078	14.492	2.7273	0.1	-1.797e-002
29079	14.4	3.	0.1	-2.2811e-002
29080	14.492	2.9091	0.1	-2.5201e-002
29081	14.4	3.1818	0.1	-1.9797e-002
29082	14.492	3.0909	0.1	-2.5201e-002
29083	14.4	3.3636	0.1	-1.2191e-002
29084	14.492	3.2727	0.1	-1.797e-002
29085	14.4	3.5455	0.1	-3.3091e-003
29086	14.492	3.4545	0.1	-6.8453e-003
29087	14.4	3.7273	0.1	3.6154e-003
29088	14.492	3.6364	0.1	3.705e-003
29089	14.4	3.9091	0.1	6.7435e-003
29090	14.492	3.8182	0.1	1.0382e-002
29091	14.4	4.0909	0.1	5.8231e-003
29092	14.492	4.	0.1	1.1969e-002
29093	14.4	4.2727	0.1	1.7115e-003
29094	14.492	4.1818	0.1	9.0104e-003
29095	14.4	4.4545	0.1	-4.2236e-003
29096	14.492	4.3636	0.1	3.0058e-003
29097	14.4	4.6364	0.1	-1.0607e-002
29098	14.492	4.5455	0.1	-4.2847e-003
29099	14.4	4.8182	0.1	-1.6071e-002
29100	14.492	4.7273	0.1	-1.1421e-002
29101	14.4	5.	0.1	-1.9879e-002
29102	14.492	4.9091	0.1	-1.684e-002
29103	14.4	5.1818	0.1	-1.8543e-002
29104	14.492	5.0909	0.1	-2.0576e-002
29105	14.4	5.3636	0.1	-1.6929e-002
29106	14.492	5.2727	0.1	-1.5165e-002
29107	14.4	5.5455	0.1	3.6544e-002
29108	14.492	5.4545	0.1	-1.8076e-002
29109	14.4	5.7273	0.1	8.1596e-002
29110	14.492	5.6364	0.1	0.10101
29111	14.492	5.8182	0.1	0.10898
29112	14.4	5.9091	0.1	9.8761e-003
29113	14.585	0.27273	0.1	8.5134e-002
29114	14.677	0.18182	0.1	0.1166
29115	14.585	9.0909e-002	0.1	1.0489e-002
29116	14.585	0.45455	0.1	3.7574e-002
29117	14.677	0.36364	0.1	0.1074
29118	14.585	0.63636	0.1	-1.9694e-002
29119	14.677	0.54545	0.1	-2.2618e-002
29120	14.585	0.81818	0.1	-1.8821e-002
29121	14.677	0.72727	0.1	-1.5622e-002
29122	14.585	1.	0.1	-1.8413e-002
29123	14.677	0.90909	0.1	-1.9168e-002
29124	14.585	1.1818	0.1	-1.2673e-002
29125	14.677	1.0909	0.1	-1.3158e-002
29126	14.585	1.3636	0.1	-5.3389e-003
29127	14.677	1.2727	0.1	-5.714e-003
29128	14.585	1.5455	0.1	2.8832e-003
29129	14.677	1.4545	0.1	3.4736e-003
29130	14.585	1.7273	0.1	1.0397e-002
29131	14.677	1.6364	0.1	1.2741e-002
29132	14.585	1.9091	0.1	1.5382e-002
29133	14.677	1.8182	0.1	2.0273e-002
29134	14.585	2.0909	0.1	1.59e-002
29135	14.677	2.	0.1	2.3627e-002
29136	14.585	2.2727	0.1	1.0659e-002
29137	14.677	2.1818	0.1	2.0548e-002
29138	14.585	2.4545	0.1	-4.8907e-005
29139	14.677	2.3636	0.1	1.0156e-002
29140	14.585	2.6364	0.1	-1.3571e-002
29141	14.677	2.5455	0.1	-5.7864e-003
29142	14.585	2.8182	0.1	-2.511e-002
29143	14.677	2.7273	0.1	-2.2442e-002
29144	14.585	3.	0.1	-2.9681e-002
29145	14.677	2.9091	0.1	-3.3235e-002
29146	14.585	3.1818	0.1	-2.511e-002
29147	14.677	3.0909	0.1	-3.3234e-002
29148	14.585	3.3636	0.1	-1.3571e-002
29149	14.677	3.2727	0.1	-2.2442e-002
29150	14.585	3.5455	0.1	-4.8974e-005
29151	14.677	3.4545	0.1	-5.7862e-003
29152	14.585	3.7273	0.1	1.0659e-002
29153	14.677	3.6364	0.1	1.0157e-002
29154	14.585	3.9091	0.1	1.59e-002
29155	14.677	3.8182	0.1	2.0548e-002
29156	14.585	4.0909	0.1	1.5382e-002
29157	14.677	4.	0.1	2.3627e-002
29158	14.585	4.2727	0.1	1.0398e-002
29159	14.677	4.1818	0.1	2.0274e-002
29160	14.585	4.4545	0.1	2.884e-003
29161	14.677	4.3636	0.1	1.2742e-002
29162	14.585	4.6364	0.1	-5.3387e-003
29163	14.677	4.5455	0.1	3.4743e-003
29164	14.585	4.8182	0.1	-1.2673e-002
29165	14.677	4.7273	0.1	-5.714e-003
29166	14.585	5.	0.1	-1.8413e-002
29167	14.677	4.9091	0.1	-1.3158e-002
29168	14.585	5.1818	0.1	-1.882e-002
29169	14.677	5.0909	0.1	-1.9167e-002
29170	14.585	5.3636	0.1	-1.9693e-002
29171	14.677	5.2727	0.1	-1.5621e-002
29172	14.585	5.5455	0.1	3.7575e-002
29173	14.677	5.4545	0.1	-2.2617e-002
29174	14.585	5.7273	0.1	8.5134e-002
29175	14.677	5.6364	0.1	0.1074
29176	14.677	5.8182	0.1	0.1166
29177	14.585	5.9091	0.1	1.049e-002
29178	14.769	0.27273	0.1	8.369e-002
29179	14.862	0.18182	0.1	0.11322
29180	14.769	9.0909e-002	0.1	1.0328e-002
29181	14.769	0.45455	0.1	3.7235e-002
29182	14.862	0.36364	0.1	0.11061
29183	14.769	0.63636	0.1	-2.23e-002
29184	14.862	0.54545	0.1	-2.7821e-002
29185	14.769	0.81818	0.1	-1.7749e-002
29186	14.862	0.72727	0.1	-1.497e-002
29187	14.769	1.	0.1	-1.4864e-002
29188	14.862	0.90909	0.1	-1.5551e-002
29189	14.769	1.1818	0.1	-6.7254e-003
29190	14.862	1.0909	0.1	-6.6201e-003
29191	14.769	1.3636	0.1	2.8217e-003
29192	14.862	1.2727	0.1	3.2046e-003
29193	14.769	1.5455	0.1	1.323e-002
29194	14.862	1.4545	0.1	1.4716e-002
29195	14.769	1.7273	0.1	2.267e-002
29196	14.862	1.6364	0.1	2.6267e-002
29197	14.769	1.9091	0.1	2.8717e-002
29198	14.862	1.8182	0.1	3.5616e-002
29199	14.769	2.0909	0.1	2.8555e-002
29200	14.862	2.	0.1	3.9271e-002
29201	14.769	2.2727	0.1	2.019e-002
29202	14.862	2.1818	0.1	3.3926e-002
29203	14.769	2.4545	0.1	4.0182e-003
29204	14.862	2.3636	0.1	1.8237e-002
29205	14.769	2.6364	0.1	-1.6069e-002
29206	14.862	2.5455	0.1	-5.3025e-003
29207	14.769	2.8182	0.1	-3.3091e-002
29208	14.862	2.7273	0.1	-2.9587e-002
29209	14.769	3.	0.1	-3.9816e-002
29210	14.862	2.9091	0.1	-4.5185e-002
29211	14.769	3.1818	0.1	-3.3091e-002
29212	14.862	3.0909	0.1	-4.5185e-002
29213	14.769	3.3636	0.1	-1.6069e-002
29214	14.862	3.2727	0.1	-2.9587e-002
29215	14.769	3.5455	0.1	4.0186e-003
29216	14.862	3.4545	0.1	-5.3019e-003
29217	14.769	3.7273	0.1	2.0191e-002
29218	14.862	3.6364	0.1	1.8237e-002
29219	14.769	3.9091	0.1	2.8556e-002
29220	14.862	3.8182	0.1	3.3927e-002
29221	14.769	4.0909	0.1	2.8718e-002
29222	14.862	4.	0.1	3.9271e-002
29223	14.769	4.2727	0.1	2.2671e-002
29224	14.862	4.1818	0.1	3.5617e-002
29225	14.769	4.4545	0.1	1.323e-002
29226	14.862	4.3636	0.1	2.6267e-002
29227	14.769	4.6364	0.1	2.8221e-003
29228	14.862	4.5455	0.1	1.4716e-002
29229	14.769	4.8182	0.1	-6.7251e-003
29230	14.862	4.7273	0.1	3.2052e-003
29231	14.769	5.	0.1	-1.4864e-002
29232	14.862	4.9091	0.1	-6.6194e-003
29233	14.769	5.1818	0.1	-1.7748e-002
29234	14.862	5.0909	0.1	-1.5549e-002
29235	14.769	5.3636	0.1	-2.2299e-002
29236	14.862	5.2727	0.1	-1.4969e-002
29237	14.769	5.5455	0.1	3.7236e-002
29238	14.862	5.4545	0.1	-2.7821e-002
29239	14.769	5.7273	0.1	8.369e-002
29240	14.862	5.6364	0.1	0.11061
29241	14.862	5.8182	0.1	0.11322
29242	14.769	5.9091	0.1	1.0328e-002
29243	14.954	0.27273	0.1	7.408e-002
29244	15.046	0.18182	0.1	9.1487e-002
29245	14.954	9.0909e-002	0.1	8.6106e-003
29246	14.954	0.45455	0.1	3.4611e-002
29247	15.046	0.36364	0.1	0.10834
29248	14.954	0.63636	0.1	-2.4536e-002
29249	15.046	0.54545	0.1	-3.3776e-002
29250	14.954	0.81818	0.1	-1.4653e-002
29251	15.046	0.72727	0.1	-1.2671e-002
29252	14.954	1.	0.1	-8.2872e-003
29253	15.046	0.90909	0.1	-8.6783e-003
29254	14.954	1.1818	0.1	2.7712e-003
29255	15.046	1.0909	0.1	4.0298e-003
29256	14.954	1.3636	0.1	1.4791e-002
29257	15.046	1.2727	0.1	1.6635e-002
29258	14.954	1.5455	0.1	2.7585e-002
29259	15.046	1.4545	0.1	3.0676e-002
29260	14.954	1.7273	0.1	3.9172e-002
29261	15.046	1.6364	0.1	4.4849e-002
29262	14.954	1.9091	0.1	4.6272e-002
29263	15.046	1.8182	0.1	5.6308e-002
29264	14.954	2.0909	0.1	4.483e-002
29265	15.046	2.	0.1	6.0289e-002
29266	14.954	2.2727	0.1	3.1977e-002
29267	15.046	2.1818	0.1	5.1338e-002
29268	14.954	2.4545	0.1	8.1858e-003
29269	15.046	2.3636	0.1	2.7391e-002
29270	14.954	2.6364	0.1	-2.091e-002
29271	15.046	2.5455	0.1	-6.9422e-003
29272	14.954	2.8182	0.1	-4.5259e-002
29273	15.046	2.7273	0.1	-4.1299e-002
29274	14.954	3.	0.1	-5.4803e-002
29275	15.046	2.9091	0.1	-6.2937e-002
29276	14.954	3.1818	0.1	-4.5259e-002
29277	15.046	3.0909	0.1	-6.2937e-002
29278	14.954	3.3636	0.1	-2.0909e-002
29279	15.046	3.2727	0.1	-4.1298e-002
29280	14.954	3.5455	0.1	8.1861e-003
29281	15.046	3.4545	0.1	-6.9423e-003
29282	14.954	3.7273	0.1	3.1977e-002
29283	15.046	3.6364	0.1	2.7391e-002
29284	14.954	3.9091	0.1	4.483e-002
29285	15.046	3.8182	0.1	5.1339e-002
29286	14.954	4.0909	0.1	4.6272e-002
29287	15.046	4.	0.1	6.0289e-002
29288	14.954	4.2727	0.1	3.9173e-002
29289	15.046	4.1818	0.1	5.6307e-002
29290	14.954	4.4545	0.1	2.7585e-002
29291	15.046	4.3636	0.1	4.485e-002
29292	14.954	4.6364	0.1	1.4791e-002
29293	15.046	4.5455	0.1	3.0677e-002
29294	14.954	4.8182	0.1	2.7723e-003
29295	15.046	4.7273	0.1	1.6635e-002
29296	14.954	5.	0.1	-8.2853e-003
29297	15.046	4.9091	0.1	4.0313e-003
29298	14.954	5.1818	0.1	-1.4651e-002
29299	15.046	5.0909	0.1	-8.6772e-003
29300	14.954	5.3636	0.1	-2.4537e-002
29301	15.046	5.2727	0.1	-1.2669e-002
29302	14.954	5.5455	0.1	3.461e-002
29303	15.046	5.4545	0.1	-3.3777e-002
29304	14.954	5.7273	0.1	7.4081e-002
29305	15.046	5.6364	0.1	0.10834
29306	15.046	5.8182	0.1	9.1489e-002
29307	14.954	5.9091	0.1	8.6116e-003
29308	15.138	0.27273	0.1	5.2226e-002
29309	15.231	0.18182	0.1	4.2537e-002
29310	15.138	9.0909e-002	0.1	4.2715e-003
29311	15.138	0.45455	0.1	2.8473e-002
29312	15.231	0.36364	0.1	9.7386e-002
29313	15.138	0.63636	0.1	-2.6066e-002
29314	15.231	0.54545	0.1	-4.0764e-002
29315	15.138	0.81818	0.1	-8.5583e-003
29316	15.231	0.72727	0.1	-8.2769e-003
29317	15.138	1.	0.1	2.7221e-003
29318	15.231	0.90909	0.1	2.6367e-003
29319	15.138	1.1818	0.1	1.7409e-002
29320	15.231	1.0909	0.1	2.0434e-002
29321	15.138	1.3636	0.1	3.2207e-002
29322	15.231	1.2727	0.1	3.6208e-002
29323	15.138	1.5455	0.1	4.7676e-002
29324	15.231	1.4545	0.1	5.2453e-002
29325	15.138	1.7273	0.1	6.1766e-002
29326	15.231	1.6364	0.1	6.8513e-002
29327	15.138	1.9091	0.1	7.0212e-002
29328	15.231	1.8182	0.1	8.1896e-002
29329	15.138	2.0909	0.1	6.6755e-002
29330	15.231	2.	0.1	8.4298e-002
29331	15.138	2.2727	0.1	4.6437e-002
29332	15.231	2.1818	0.1	6.9226e-002
29333	15.138	2.4545	0.1	1.0952e-002
29334	15.231	2.3636	0.1	3.4748e-002
29335	15.138	2.6364	0.1	-3.0396e-002
29336	15.231	2.5455	0.1	-1.38e-002
29337	15.138	2.8182	0.1	-6.3878e-002
29338	15.231	2.7273	0.1	-6.0654e-002
29339	15.138	3.	0.1	-7.6776e-002
29340	15.231	2.9091	0.1	-8.8986e-002
29341	15.138	3.1818	0.1	-6.3878e-002
29342	15.231	3.0909	0.1	-8.8986e-002
29343	15.138	3.3636	0.1	-3.0397e-002
29344	15.231	3.2727	0.1	-6.0653e-002
29345	15.138	3.5455	0.1	1.0951e-002
29346	15.231	3.4545	0.1	-1.38e-002
29347	15.138	3.7273	0.1	4.6438e-002
29348	15.231	3.6364	0.1	3.4748e-002
29349	15.138	3.9091	0.1	6.6756e-002
29350	15.231	3.8182	0.1	6.9227e-002
29351	15.138	4.0909	0.1	7.0212e-002
29352	15.231	4.	0.1	8.4299e-002
29353	15.138	4.2727	0.1	6.1765e-002
29354	15.231	4.1818	0.1	8.1896e-002
29355	15.138	4.4545	0.1	4.7676e-002
29356	15.231	4.3636	0.1	6.8514e-002
29357	15.138	4.6364	0.1	3.2207e-002
29358	15.231	4.5455	0.1	5.2454e-002
29359	15.138	4.8182	0.1	1.741e-002
29360	15.231	4.7273	0.1	3.6208e-002
29361	15.138	5.	0.1	2.7229e-003
29362	15.231	4.9091	0.1	2.0435e-002
29363	15.138	5.1818	0.1	-8.5571e-003
29364	15.231	5.0909	0.1	2.6367e-003
29365	15.138	5.3636	0.1	-2.6065e-002
29366	15.231	5.2727	0.1	-8.2744e-003
29367	15.138	5.5455	0.1	2.8473e-002
29368	15.231	5.4545	0.1	-4.0764e-002
29369	15.138	5.7273	0.1	5.2227e-002
29370	15.231	5.6364	0.1	9.7386e-002
29371	15.231	5.8182	0.1	4.2539e-002
29372	15.138	5.9091	0.1	4.2725e-003
29373	15.323	0.27273	0.1	1.3151e-002
29374	15.415	0.18182	0.1	-4.1496e-002
29375	15.323	9.0909e-002	0.1	-4.4564e-003
29376	15.323	0.45455	0.1	1.6905e-002
29377	15.415	0.36364	0.1	7.4271e-002
29378	15.323	0.63636	0.1	-2.69e-002
29379	15.415	0.54545	0.1	-4.875e-002
29380	15.323	0.81818	0.1	1.2911e-003
29381	15.415	0.72727	0.1	-1.0809e-003
29382	15.323	1.	0.1	1.9659e-002
29383	15.415	0.90909	0.1	2.0177e-002
29384	15.323	1.1818	0.1	3.893e-002
29385	15.415	1.0909	0.1	4.5206e-002
29386	15.323	1.3636	0.1	5.6206e-002
29387	15.415	1.2727	0.1	6.5297e-002
29388	15.323	1.5455	0.1	7.2905e-002
29389	15.415	1.4545	0.1	8.4778e-002
29390	15.323	1.7273	0.1	8.8119e-002
29391	15.415	1.6364	0.1	0.10457
29392	15.323	1.9091	0.1	9.5464e-002
29393	15.415	1.8182	0.1	0.11789
29394	15.323	2.0909	0.1	8.6273e-002
29395	15.415	2.	0.1	0.12125
29396	15.323	2.2727	0.1	5.6596e-002
29397	15.415	2.1818	0.1	9.6254e-002
29398	15.323	2.4545	0.1	7.6889e-003
29399	15.415	2.3636	0.1	3.6948e-002
29400	15.323	2.6364	0.1	-4.8482e-002
29401	15.415	2.5455	0.1	-3.2891e-002
29402	15.323	2.8182	0.1	-9.2155e-002
29403	15.415	2.7273	0.1	-9.2108e-002
29404	15.323	3.	0.1	-0.10839
29405	15.415	2.9091	0.1	-0.12588
29406	15.323	3.1818	0.1	-9.2154e-002
29407	15.415	3.0909	0.1	-0.12588
29408	15.323	3.3636	0.1	-4.8481e-002
29409	15.415	3.2727	0.1	-9.2107e-002
29410	15.323	3.5455	0.1	7.6894e-003
29411	15.415	3.4545	0.1	-3.289e-002
29412	15.323	3.7273	0.1	5.6596e-002
29413	15.415	3.6364	0.1	3.6948e-002
29414	15.323	3.9091	0.1	8.6273e-002
29415	15.415	3.8182	0.1	9.6254e-002
29416	15.323	4.0909	0.1	9.5465e-002
29417	15.415	4.	0.1	0.12125
29418	15.323	4.2727	0.1	8.8119e-002
29419	15.415	4.1818	0.1	0.11789
29420	15.323	4.4545	0.1	7.2905e-002
29421	15.415	4.3636	0.1	0.10457
29422	15.323	4.6364	0.1	5.6206e-002
29423	15.415	4.5455	0.1	8.4779e-002
29424	15.323	4.8182	0.1	3.893e-002
29425	15.415	4.7273	0.1	6.5297e-002
29426	15.323	5.	0.1	1.966e-002
29427	15.415	4.9091	0.1	4.5207e-002
29428	15.323	5.1818	0.1	1.2925e-003
29429	15.415	5.0909	0.1	2.0178e-002
29430	15.323	5.3636	0.1	-2.6898e-002
29431	15.415	5.2727	0.1	-1.0787e-003
29432	15.323	5.5455	0.1	1.6905e-002
29433	15.415	5.4545	0.1	-4.875e-002
29434	15.323	5.7273	0.1	1.3152e-002
29435	15.415	5.6364	0.1	7.4271e-002
29436	15.415	5.8182	0.1	-4.1494e-002
29437	15.323	5.9091	0.1	-4.4565e-003
29438	15.508	0.27273	0.1	-4.6369e-002
29439	15.6	0.18182	0.1	-0.16396
29440	15.508	9.0909e-002	0.1	-1.8551e-002
29441	15.508	0.45455	0.1	-1.0751e-003
29442	15.6	0.36364	0.1	3.4908e-002
29443	15.508	0.63636	0.1	-2.6017e-002
29444	15.6	0.54545	0.1	-5.8855e-002
29445	15.508	0.81818	0.1	1.6766e-002
29446	15.6	0.72727	0.1	7.5318e-003
29447	15.508	1.	0.1	4.5507e-002
29448	15.6	0.90909	0.1	4.3023e-002
29449	15.508	1.1818	0.1	7.1662e-002
29450	15.6	1.0909	0.1	7.9327e-002
29451	15.508	1.3636	0.1	9.3849e-002
29452	15.6	1.2727	0.1	0.10822
29453	15.508	1.5455	0.1	0.11596
29454	15.6	1.4545	0.1	0.12659
29455	15.508	1.7273	0.1	0.13334
29456	15.6	1.6364	0.1	0.13331
29457	15.508	1.9091	0.1	0.14246
29458	15.6	1.8182	0.1	0.15067
29459	15.508	2.0909	0.1	0.12992
29460	15.6	2.	0.1	0.12665
29461	15.508	2.2727	0.1	7.4515e-002
29462	15.6	2.1818	0.1	7.355e-002
29463	15.508	2.4545	0.1	-7.5984e-003
29464	15.6	2.3636	0.1	1.5047e-002
29465	15.508	2.6364	0.1	-8.2702e-002
29466	15.6	2.5455	0.1	-7.0741e-002
29467	15.508	2.8182	0.1	-0.13358
29468	15.6	2.7273	0.1	-0.14185
29469	15.508	3.	0.1	-0.15164
29470	15.6	2.9091	0.1	-0.17426
29471	15.508	3.1818	0.1	-0.13358
29472	15.6	3.0909	0.1	-0.17426
29473	15.508	3.3636	0.1	-8.2702e-002
29474	15.6	3.2727	0.1	-0.14185
29475	15.508	3.5455	0.1	-7.5982e-003
29476	15.6	3.4545	0.1	-7.0741e-002
29477	15.508	3.7273	0.1	7.4515e-002
29478	15.6	3.6364	0.1	1.5047e-002
29479	15.508	3.9091	0.1	0.12992
29480	15.6	3.8182	0.1	7.3551e-002
29481	15.508	4.0909	0.1	0.14246
29482	15.6	4.	0.1	0.12665
29483	15.508	4.2727	0.1	0.13334
29484	15.6	4.1818	0.1	0.15067
29485	15.508	4.4545	0.1	0.11596
29486	15.6	4.3636	0.1	0.13331
29487	15.508	4.6364	0.1	9.3849e-002
29488	15.6	4.5455	0.1	0.1266
29489	15.508	4.8182	0.1	7.1663e-002
29490	15.6	4.7273	0.1	0.10822
29491	15.508	5.	0.1	4.5509e-002
29492	15.6	4.9091	0.1	7.9328e-002
29493	15.508	5.1818	0.1	1.6767e-002
29494	15.6	5.0909	0.1	4.3025e-002
29495	15.508	5.3636	0.1	-2.6017e-002
29496	15.6	5.2727	0.1	7.5336e-003
29497	15.508	5.5455	0.1	-1.0754e-003
29498	15.6	5.4545	0.1	-5.8854e-002
29499	15.508	5.7273	0.1	-4.6369e-002
29500	15.6	5.6364	0.1	3.4908e-002
29501	15.6	5.8182	0.1	-0.16396
29502	15.508	5.9091	0.1	-1.8552e-002
29503	15.692	0.27273	0.1	-0.12822
29504	15.785	0.18182	0.1	-0.30499
29505	15.692	9.0909e-002	0.1	-4.2555e-002
29506	15.692	0.45455	0.1	-2.8773e-002
29507	15.785	0.36364	0.1	-1.3929e-002
29508	15.692	0.63636	0.1	-2.649e-002
29509	15.785	0.54545	0.1	-6.3473e-002
29510	15.692	0.81818	0.1	3.3858e-002
29511	15.785	0.72727	0.1	2.1786e-002
29512	15.692	1.	0.1	7.7391e-002
29513	15.785	0.90909	0.1	7.6745e-002
29514	15.692	1.1818	0.1	0.11665
29515	15.785	1.0909	0.1	0.13242
29516	15.692	1.3636	0.1	0.14151
29517	15.785	1.2727	0.1	0.17206
29518	15.692	1.5455	0.1	0.14359
29519	15.785	1.4545	0.1	0.20976
29520	15.692	1.7273	0.1	0.14903
29521	15.785	1.6364	0.1	0.28356
29522	15.692	1.9091	0.1	0.13251
29523	15.785	1.8182	0.1	0.23195
29524	15.692	2.0909	0.1	6.7547e-002
29525	15.785	2.	0.1	0.25664
29526	15.692	2.2727	0.1	9.8414e-003
29527	15.785	2.1818	0.1	0.19355
29528	15.692	2.4545	0.1	-5.4752e-002
29529	15.785	2.3636	0.1	-5.2797e-002
29530	15.692	2.6364	0.1	-0.13799
29531	15.785	2.5455	0.1	-0.16174
29532	15.692	2.8182	0.1	-0.19081
29533	15.785	2.7273	0.1	-0.20645
29534	15.692	3.	0.1	-0.20508
29535	15.785	2.9091	0.1	-0.22798
29536	15.692	3.1818	0.1	-0.19081
29537	15.785	3.0909	0.1	-0.22798
29538	15.692	3.3636	0.1	-0.13799
29539	15.785	3.2727	0.1	-0.20645
29540	15.692	3.5455	0.1	-5.4752e-002
29541	15.785	3.4545	0.1	-0.16174
29542	15.692	3.7273	0.1	9.8423e-003
29543	15.785	3.6364	0.1	-5.2797e-002
29544	15.692	3.9091	0.1	6.7548e-002
29545	15.785	3.8182	0.1	0.19355
29546	15.692	4.0909	0.1	0.13251
29547	15.785	4.	0.1	0.25664
29548	15.692	4.2727	0.1	0.14903
29549	15.785	4.1818	0.1	0.23195
29550	15.692	4.4545	0.1	0.14359
29551	15.785	4.3636	0.1	0.28356
29552	15.692	4.6364	0.1	0.14151
29553	15.785	4.5455	0.1	0.20976
29554	15.692	4.8182	0.1	0.11665
29555	15.785	4.7273	0.1	0.17206
29556	15.692	5.	0.1	7.7393e-002
29557	15.785	4.9091	0.1	0.13242
29558	15.692	5.1818	0.1	3.386e-002
29559	15.785	5.0909	0.1	7.6747e-002
29560	15.692	5.3636	0.1	-2.6489e-002
29561	15.785	5.2727	0.1	2.1788e-002
29562	15.692	5.5455	0.1	-2.8773e-002
29563	15.785	5.4545	0.1	-6.3473e-002
29564	15.692	5.7273	0.1	-0.12822
29565	15.785	5.6364	0.1	-1.393e-002
29566	15.785	5.8182	0.1	-0.30499
29567	15.692	5.9091	0.1	-4.2555e-002
29568	15.877	0.27273	0.1	-0.20345
29569	15.969	0.18182	0.1	-0.42449
29570	15.877	9.0909e-002	0.1	-6.1197e-002
29571	15.877	0.45455	0.1	-4.6855e-002
29572	15.969	0.36364	0.1	-7.051e-002
29573	15.877	0.63636	0.1	-1.2692e-002
29574	15.969	0.54545	0.1	-7.1254e-002
29575	15.877	0.81818	0.1	6.6517e-002
29576	15.969	0.72727	0.1	2.0852e-002
29577	15.877	1.	0.1	0.13327
29578	15.969	0.90909	0.1	9.0378e-002
29579	15.877	1.1818	0.1	0.18945
29580	15.969	1.0909	0.1	0.15921
29581	15.877	1.3636	0.1	0.24197
29582	15.969	1.2727	0.1	0.25289
29583	15.877	1.5455	0.1	0.35023
29584	15.969	1.4545	0.1	0.35459
29585	15.877	1.7273	0.1	0.36434
29586	15.969	1.6364	0.1	7.1866e-002
29587	15.877	1.9091	0.1	0.35187
29588	15.969	1.8182	0.1	0.24202
29589	15.877	2.0909	0.1	0.37716
29590	15.969	2.	0.1	-0.2292
29591	15.877	2.2727	0.1	0.12223
29592	15.969	2.1818	0.1	-0.5416
29593	15.877	2.4545	0.1	-0.17076
29594	15.969	2.3636	0.1	-0.13914
29595	15.877	2.6364	0.1	-0.23933
29596	15.969	2.5455	0.1	-0.29587
29597	15.877	2.8182	0.1	-0.25059
29598	15.969	2.7273	0.1	-0.28091
29599	15.877	3.	0.1	-0.25725
29600	15.969	2.9091	0.1	-0.25953
29601	15.877	3.1818	0.1	-0.25058
29602	15.969	3.0909	0.1	-0.25953
29603	15.877	3.3636	0.1	-0.23933
29604	15.969	3.2727	0.1	-0.28091
29605	15.877	3.5455	0.1	-0.17076
29606	15.969	3.4545	0.1	-0.29587
29607	15.877	3.7273	0.1	0.12223
29608	15.969	3.6364	0.1	-0.13914
29609	15.877	3.9091	0.1	0.37717
29610	15.969	3.8182	0.1	-0.5416
29611	15.877	4.0909	0.1	0.35187
29612	15.969	4.	0.1	-0.2292
29613	15.877	4.2727	0.1	0.36434
29614	15.969	4.1818	0.1	0.24202
29615	15.877	4.4545	0.1	0.35023
29616	15.969	4.3636	0.1	7.1868e-002
29617	15.877	4.6364	0.1	0.24198
29618	15.969	4.5455	0.1	0.35459
29619	15.877	4.8182	0.1	0.18945
29620	15.969	4.7273	0.1	0.25289
29621	15.877	5.	0.1	0.13327
29622	15.969	4.9091	0.1	0.15921
29623	15.877	5.1818	0.1	6.6518e-002
29624	15.969	5.0909	0.1	9.038e-002
29625	15.877	5.3636	0.1	-1.2692e-002
29626	15.969	5.2727	0.1	2.0854e-002
29627	15.877	5.5455	0.1	-4.6855e-002
29628	15.969	5.4545	0.1	-7.1253e-002
29629	15.877	5.7273	0.1	-0.20345
29630	15.969	5.6364	0.1	-7.051e-002
29631	15.969	5.8182	0.1	-0.42449
29632	15.877	5.9091	0.1	-6.1196e-002
29633	16.062	0.27273	0.1	-0.26011
29634	16.154	0.18182	0.1	-0.27359
29635	16.062	9.0909e-002	0.1	-0.11251
29636	16.062	0.45455	0.1	-7.8972e-002
29637	16.154	0.36364	0.1	2.1192e-002
29638	16.062	0.63636	0.1	-2.9124e-002
29639	16.154	0.54545	0.1	3.2458e-002
29640	16.062	0.81818	0.1	4.8923e-002
29641	16.154	0.72727	0.1	0.10386
29642	16.062	1.	0.1	0.11855
29643	16.154	0.90909	0.1	0.16985
29644	16.062	1.1818	0.1	0.22455
29645	16.154	1.0909	0.1	0.29838
29646	16.062	1.3636	0.1	0.36819
29647	16.154	1.2727	0.1	0.42052
29648	16.062	1.5455	0.1	7.9216e-002
29649	16.154	1.4545	0.1	0.48266
29650	16.062	1.7273	0.1	-5.1529e-002
29651	16.154	1.6364	0.1	1.7214
29652	16.062	1.9091	0.1	-0.34557
29653	16.154	1.8182	0.1	0.97587
29654	16.062	2.0909	0.1	-1.1595
29655	16.154	2.	0.1	2.1189
29656	16.062	2.2727	0.1	-0.82112
29657	16.154	2.1818	0.1	1.1428
29658	16.062	2.4545	0.1	-0.28129
29659	16.154	2.3636	0.1	-1.1743
29660	16.062	2.6364	0.1	-0.34397
29661	16.154	2.5455	0.1	-0.32008
29662	16.062	2.8182	0.1	-0.29293
29663	16.154	2.7273	0.1	-0.30298
29664	16.062	3.	0.1	-0.26475
29665	16.154	2.9091	0.1	-0.21801
29666	16.062	3.1818	0.1	-0.29293
29667	16.154	3.0909	0.1	-0.21801
29668	16.062	3.3636	0.1	-0.34397
29669	16.154	3.2727	0.1	-0.30298
29670	16.062	3.5455	0.1	-0.28129
29671	16.154	3.4545	0.1	-0.32008
29672	16.062	3.7273	0.1	-0.82112
29673	16.154	3.6364	0.1	-1.1743
29674	16.062	3.9091	0.1	-1.1595
29675	16.154	3.8182	0.1	1.1428
29676	16.062	4.0909	0.1	-0.34557
29677	16.154	4.	0.1	2.1189
29678	16.062	4.2727	0.1	-5.1528e-002
29679	16.154	4.1818	0.1	0.97587
29680	16.062	4.4545	0.1	7.9217e-002
29681	16.154	4.3636	0.1	1.7214
29682	16.062	4.6364	0.1	0.36819
29683	16.154	4.5455	0.1	0.48266
29684	16.062	4.8182	0.1	0.22455
29685	16.154	4.7273	0.1	0.42052
29686	16.062	5.	0.1	0.11855
29687	16.154	4.9091	0.1	0.29838
29688	16.062	5.1818	0.1	4.8925e-002
29689	16.154	5.0909	0.1	0.16985
29690	16.062	5.3636	0.1	-2.9122e-002
29691	16.154	5.2727	0.1	0.10386
29692	16.062	5.5455	0.1	-7.8972e-002
29693	16.154	5.4545	0.1	3.2459e-002
29694	16.062	5.7273	0.1	-0.26011
29695	16.154	5.6364	0.1	2.1191e-002
29696	16.154	5.8182	0.1	-0.27359
29697	16.062	5.9091	0.1	-0.11251
29698	16.246	0.27273	0.1	9.47e-002
29699	16.338	0.18182	0.1	0.2219
29700	16.246	9.0909e-002	0.1	8.7751e-002
29701	16.246	0.45455	0.1	0.1669
29702	16.338	0.36364	0.1	6.6597e-002
29703	16.246	0.63636	0.1	0.17937
29704	16.338	0.54545	0.1	-7.0935e-002
29705	16.246	0.81818	0.1	0.23088
29706	16.338	0.72727	0.1	-0.16052
29707	16.246	1.	0.1	0.35193
29708	16.338	0.90909	0.1	-0.18069
29709	16.246	1.1818	0.1	0.49525
29710	16.338	1.0909	0.1	-0.16941
29711	16.246	1.3636	0.1	0.53697
29712	16.338	1.2727	0.1	-7.56e-002
29713	16.246	1.5455	0.1	2.1254
29714	16.338	1.4545	0.1	-3.824e-002
29715	16.246	1.7273	0.1	2.7641
29716	16.338	1.6364	0.1	0.41564
29717	16.246	1.9091	0.1	3.4284
29718	16.338	1.8182	0.1	-2.9118
29719	16.246	2.0909	0.1	4.3909
29720	16.338	2.	0.1	-11.366
29721	16.246	2.2727	0.1	0.72809
29722	16.338	2.1818	0.1	-5.2373
29723	16.246	2.4545	0.1	-1.2253
29724	16.338	2.3636	0.1	1.221e-003
29725	16.246	2.6364	0.1	-0.27552
29726	16.338	2.5455	0.1	-0.41352
29727	16.246	2.8182	0.1	-0.2263
29728	16.338	2.7273	0.1	-0.10364
29729	16.246	3.	0.1	-0.17149
29730	16.338	2.9091	0.1	-2.9924e-002
29731	16.246	3.1818	0.1	-0.2263
29732	16.338	3.0909	0.1	-2.9924e-002
29733	16.246	3.3636	0.1	-0.27552
29734	16.338	3.2727	0.1	-0.10364
29735	16.246	3.5455	0.1	-1.2253
29736	16.338	3.4545	0.1	-0.41352
29737	16.246	3.7273	0.1	0.72809
29738	16.338	3.6364	0.1	1.2202e-003
29739	16.246	3.9091	0.1	4.3909
29740	16.338	3.8182	0.1	-5.2373
29741	16.246	4.0909	0.1	3.4284
29742	16.338	4.	0.1	-11.366
29743	16.246	4.2727	0.1	2.7641
29744	16.338	4.1818	0.1	-2.9118
29745	16.246	4.4545	0.1	2.1254
29746	16.338	4.3636	0.1	0.41564
29747	16.246	4.6364	0.1	0.53697
29748	16.338	4.5455	0.1	-3.824e-002
29749	16.246	4.8182	0.1	0.49526
29750	16.338	4.7273	0.1	-7.5599e-002
29751	16.246	5.	0.1	0.35193
29752	16.338	4.9091	0.1	-0.16941
29753	16.246	5.1818	0.1	0.23088
29754	16.338	5.0909	0.1	-0.18069
29755	16.246	5.3636	0.1	0.17937
29756	16.338	5.2727	0.1	-0.16052
29757	16.246	5.5455	0.1	0.1669
29758	16.338	5.4545	0.1	-7.0934e-002
29759	16.246	5.7273	0.1	9.4699e-002
29760	16.338	5.6364	0.1	6.6597e-002
29761	16.338	5.8182	0.1	0.2219
29762	16.246	5.9091	0.1	8.7752e-002
29763	16.431	0.27273	0.1	0.31039
29764	16.523	0.18182	0.1	4.2553
29765	16.431	9.0909e-002	0.1	-6.5435e-002
29766	16.431	0.45455	0.1	-0.16732
29767	16.523	0.36364	0.1	1.8671
29768	16.431	0.63636	0.1	-0.40907
29769	16.523	0.54545	0.1	1.2375
29770	16.431	0.81818	0.1	-0.56636
29771	16.523	0.72727	0.1	0.94812
29772	16.431	1.	0.1	-0.69424
29773	16.523	0.90909	0.1	0.85592
29774	16.431	1.1818	0.1	-0.73532
29775	16.523	1.0909	0.1	1.1192
29776	16.431	1.3636	0.1	-0.65477
29777	16.523	1.2727	0.1	0.59027
29778	16.431	1.5455	0.1	-1.7339
29779	16.523	1.4545	0.1	4.3064
29780	16.431	1.7273	0.1	-5.2826
29781	16.523	1.6364	0.1	-6.1717
29782	16.431	1.9091	0.1	-17.654
29783	16.523	1.8182	0.1	22.39
29784	16.431	2.0909	0.1	-21.089
29785	16.523	2.	0.1	101.32
29786	16.431	2.2727	0.1	-6.1058
29787	16.523	2.1818	0.1	-13.86
29788	16.431	2.4545	0.1	0.84382
29789	16.523	2.3636	0.1	4.5692
29790	16.431	2.6364	0.1	-0.22299
29791	16.523	2.5455	0.1	-1.3983
29792	16.431	2.8182	0.1	9.4616e-002
29793	16.523	2.7273	0.1	0.74196
29794	16.431	3.	0.1	0.10952
29795	16.523	2.9091	0.1	0.21723
29796	16.431	3.1818	0.1	9.4616e-002
29797	16.523	3.0909	0.1	0.21723
29798	16.431	3.3636	0.1	-0.22299
29799	16.523	3.2727	0.1	0.74196
29800	16.431	3.5455	0.1	0.84382
29801	16.523	3.4545	0.1	-1.3983
29802	16.431	3.7273	0.1	-6.1058
29803	16.523	3.6364	0.1	4.5692
29804	16.431	3.9091	0.1	-21.089
29805	16.523	3.8182	0.1	-13.86
29806	16.431	4.0909	0.1	-17.654
29807	16.523	4.	0.1	101.32
29808	16.431	4.2727	0.1	-5.2826
29809	16.523	4.1818	0.1	22.39
29810	16.431	4.4545	0.1	-1.7339
29811	16.523	4.3636	0.1	-6.1717
29812	16.431	4.6364	0.1	-0.65477
29813	16.523	4.5455	0.1	4.3064
29814	16.431	4.8182	0.1	-0.73532
29815	16.523	4.7273	0.1	0.59027
29816	16.431	5.	0.1	-0.69424
29817	16.523	4.9091	0.1	1.1192
29818	16.431	5.1818	0.1	-0.56636
29819	16.523	5.0909	0.1	0.85592
29820	16.431	5.3636	0.1	-0.40906
29821	16.523	5.2727	0.1	0.94812
29822	16.431	5.5455	0.1	-0.16732
29823	16.523	5.4545	0.1	1.2375
29824	16.431	5.7273	0.1	0.31039
29825	16.523	5.6364	0.1	1.8671
29826	16.523	5.8182	0.1	4.2553
29827	16.431	5.9091	0.1	-6.5434e-002
29828	16.615	0.27273	0.1	4.8469
29829	16.708	0.18182	0.1	-1.0867
29830	16.615	9.0909e-002	0.1	4.9452
29831	16.615	0.45455	0.1	2.8465
29832	16.708	0.36364	0.1	-1.296
29833	16.615	0.63636	0.1	2.4553
29834	16.708	0.54545	0.1	-0.84072
29835	16.615	0.81818	0.1	2.333
29836	16.708	0.72727	0.1	-0.81809
29837	16.615	1.	0.1	2.6893
29838	16.708	0.90909	0.1	-0.97373
29839	16.615	1.1818	0.1	2.532
29840	16.708	1.0909	0.1	-0.27989
29841	16.615	1.3636	0.1	5.6742
29842	16.708	1.2727	0.1	-2.7501
29843	16.615	1.5455	0.1	0.13612
29844	16.708	1.4545	0.1	7.5434
29845	16.615	1.7273	0.1	21.542
29846	16.708	1.6364	0.1	-30.107
29847	16.615	1.9091	0.1	143.97
29848	16.708	1.8182	0.1	134.35
29849	16.615	2.0909	0.1	102.98
29850	16.708	2.	0.1	138.95
29851	16.615	2.2727	0.1	-2.4474
29852	16.708	2.1818	0.1	-46.204
29853	16.615	2.4545	0.1	2.3994
29854	16.708	2.3636	0.1	10.578
29855	16.615	2.6364	0.1	-0.42903
29856	16.708	2.5455	0.1	-1.2193
29857	16.615	2.8182	0.1	0.85618
29858	16.708	2.7273	0.1	1.5224
29859	16.615	3.	0.1	0.31451
29860	16.708	2.9091	0.1	0.60834
29861	16.615	3.1818	0.1	0.85618
29862	16.708	3.0909	0.1	0.60834
29863	16.615	3.3636	0.1	-0.42903
29864	16.708	3.2727	0.1	1.5224
29865	16.615	3.5455	0.1	2.3994
29866	16.708	3.4545	0.1	-1.2193
29867	16.615	3.7273	0.1	-2.4474
29868	16.708	3.6364	0.1	10.578
29869	16.615	3.9091	0.1	102.98
29870	16.708	3.8182	0.1	-46.204
29871	16.615	4.0909	0.1	143.97
29872	16.708	4.	0.1	138.95
29873	16.615	4.2727	0.1	21.542
29874	16.708	4.1818	0.1	134.35
29875	16.615	4.4545	0.1	0.13613
29876	16.708	4.3636	0.1	-30.107
29877	16.615	4.6364	0.1	5.6742
29878	16.708	4.5455	0.1	7.5434
29879	16.615	4.8182	0.1	2.532
29880	16.708	4.7273	0.1	-2.7501
29881	16.615	5.	0.1	2.6893
29882	16.708	4.9091	0.1	-0.27988
29883	16.615	5.1818	0.1	2.333
29884	16.708	5.0909	0.1	-0.97372
29885	16.615	5.3636	0.1	2.4553
29886	16.708	5.2727	0.1	-0.81809
29887	16.615	5.5455	0.1	2.8465
29888	16.708	5.4545	0.1	-0.84072
29889	16.615	5.7273	0.1	4.8469
29890	16.708	5.6364	0.1	-1.296
29891	16.708	5.8182	0.1	-1.0867
29892	16.615	5.9091	0.1	4.9452
29893	16.967	3.7273	0.1	-0.16977
29894	16.883	3.8182	0.1	-49.883
29895	16.967	3.9091	0.1	293.88
29896	16.967	3.5455	0.1	7.8563
29897	16.883	3.6364	0.1	15.32
29898	16.967	3.3636	0.1	0.60118
29899	16.883	3.4545	0.1	-0.36061
29900	16.967	3.1818	0.1	1.2954
29901	16.883	3.2727	0.1	1.7046
29902	16.967	3.	0.1	0.84619
29903	16.883	3.0909	0.1	0.87843
29904	16.967	2.8182	0.1	1.2954
29905	16.883	2.9091	0.1	0.87843
29906	16.967	2.6364	0.1	0.60118
29907	16.883	2.7273	0.1	1.7046
29908	16.967	2.4545	0.1	7.8563
29909	16.883	2.5455	0.1	-0.36061
29910	16.967	2.2727	0.1	-0.16975
29911	16.883	2.3636	0.1	15.32
29912	16.883	2.1818	0.1	-49.883
29913	16.967	2.0909	0.1	293.88
29914	16.8	3.7273	0.1	-31.812
29915	16.8	3.9091	0.1	109.92
29916	16.8	3.5455	0.1	6.9241
29917	16.8	3.3636	0.1	0.70535
29918	16.8	3.1818	0.1	1.2513
29919	16.8	3.	0.1	0.88049
29920	16.8	2.8182	0.1	1.2513
29921	16.8	2.6364	0.1	0.70535
29922	16.8	2.4545	0.1	6.9241
29923	16.8	2.2727	0.1	-31.812
29924	16.8	2.0909	0.1	109.92
29925	16.967	5.7273	0.1	-4.6455
29926	16.967	5.9091	0.1	0.14562
29927	16.967	5.8182	5.e-002	3.8303e-006
29928	16.967	5.5455	0.1	-5.3715
29929	16.967	5.6364	5.e-002	4.3194e-006
29930	16.967	5.3636	0.1	-5.7467
29931	16.967	5.4545	5.e-002	4.7196e-006
29932	16.967	5.1818	0.1	-6.6244
29933	16.967	5.2727	5.e-002	4.2162e-006
29934	16.967	5.	0.1	-7.6751
29935	16.967	5.0909	5.e-002	5.0095e-006
29936	16.967	4.8182	0.1	-10.165
29937	16.967	4.9091	5.e-002	4.5812e-006
29938	16.967	4.6364	0.1	-11.656
29939	16.967	4.7273	5.e-002	1.1221e-007
29940	16.967	4.4545	0.1	-28.883
29941	16.967	4.5455	5.e-002	1.2507e-005
29942	16.967	4.2727	0.1	-26.013
29943	16.967	4.3636	5.e-002	-9.1828e-006
29944	16.967	4.0909	0.1	548.96
29945	16.967	4.1818	5.e-002	1.3144e-004
29946	16.883	4.	0.1	759.56
29947	16.967	4.	5.e-002	-9.7371e-004
29948	16.8	4.0909	0.1	401.94
29949	16.8	4.	5.e-002	-6.9881e-004
29950	16.8	4.2727	0.1	-22.49
29951	16.8	4.1818	5.e-002	1.3397e-004
29952	16.8	4.4545	0.1	-31.252
29953	16.8	4.3636	5.e-002	-9.7006e-006
29954	16.8	4.6364	0.1	-13.705
29955	16.8	4.5455	5.e-002	1.3851e-005
29956	16.8	4.8182	0.1	-12.578
29957	16.8	4.7273	5.e-002	4.2734e-006
29958	16.8	5.	0.1	-9.85
29959	16.8	4.9091	5.e-002	3.9572e-006
29960	16.8	5.1818	0.1	-8.7974
29961	16.8	5.0909	5.e-002	5.5326e-006
29962	16.8	5.3636	0.1	-7.8457
29963	16.8	5.2727	5.e-002	6.3085e-006
29964	16.8	5.5455	0.1	-7.4158
29965	16.8	5.4545	5.e-002	4.8754e-006
29966	16.8	5.7273	0.1	-6.6648
29967	16.8	5.6364	5.e-002	5.6911e-006
29968	16.8	5.9091	0.1	-2.5015
29969	16.8	5.8182	5.e-002	3.9124e-006
29970	16.967	0.27273	0.1	-4.6455
29971	16.967	9.0909e-002	0.1	0.14562
29972	16.967	0.18182	5.e-002	-7.4953e-006
29973	16.967	0.45455	0.1	-5.3715
29974	16.967	0.36364	5.e-002	5.0619e-006
29975	16.967	0.63636	0.1	-5.7467
29976	16.967	0.54545	5.e-002	2.7173e-006
29977	16.967	0.81818	0.1	-6.6244
29978	16.967	0.72727	5.e-002	3.0579e-006
29979	16.967	1.	0.1	-7.6751
29980	16.967	0.90909	5.e-002	2.1455e-006
29981	16.967	1.1818	0.1	-10.165
29982	16.967	1.0909	5.e-002	3.249e-006
29983	16.967	1.3636	0.1	-11.656
29984	16.967	1.2727	5.e-002	3.6044e-006
29985	16.967	1.5455	0.1	-28.883
29986	16.967	1.4545	5.e-002	-5.3517e-006
29987	16.967	1.7273	0.1	-26.013
29988	16.967	1.6364	5.e-002	2.0323e-005
29989	16.967	1.9091	0.1	548.96
29990	16.967	1.8182	5.e-002	-1.0363e-004
29991	16.883	2.	0.1	759.56
29992	16.967	2.	5.e-002	9.7276e-004
29993	16.8	1.9091	0.1	401.94
29994	16.8	2.	5.e-002	7.0581e-004
29995	16.8	1.7273	0.1	-22.49
29996	16.8	1.8182	5.e-002	-1.3454e-004
29997	16.8	1.5455	0.1	-31.252
29998	16.8	1.6364	5.e-002	2.4149e-005
29999	16.8	1.3636	0.1	-13.705
30000	16.8	1.4545	5.e-002	-5.8172e-006
30001	16.8	1.1818	0.1	-12.578
30002	16.8	1.2727	5.e-002	5.7412e-006
30003	16.8	1.	0.1	-9.85
30004	16.8	1.0909	5.e-002	1.779e-006
30005	16.8	0.81818	0.1	-8.7974
30006	16.8	0.90909	5.e-002	5.5846e-006
30007	16.8	0.63636	0.1	-7.8457
30008	16.8	0.72727	5.e-002	4.737e-006
30009	16.8	0.45455	0.1	-7.4158
30010	16.8	0.54545	5.e-002	4.2477e-006
30011	16.8	0.27273	0.1	-6.6648
30012	16.8	0.36364	5.e-002	5.6006e-006
30013	16.8	9.0909e-002	0.1	-2.5015
30014	16.8	0.18182	5.e-002	4.2066e-006
30015	17.057	6.	0.1	6.1236
30016	16.967	6.	5.e-002	2.9507e-006
30017	17.237	6.	0.1	-0.35203
30018	17.147	6.	5.e-002	-3.7632e-006
30019	17.418	6.	0.1	-0.89236
30020	17.327	6.	5.e-002	6.2177e-006
30021	17.598	6.	0.1	-0.37856
30022	17.508	6.	5.e-002	3.2055e-006
30023	17.778	6.	0.1	-0.14784
30024	17.688	6.	5.e-002	4.7008e-006
30025	17.959	6.	0.1	4.5045e-002
30026	17.868	6.	5.e-002	5.4798e-006
30027	18.139	6.	0.1	0.15092
30028	18.049	6.	5.e-002	6.0803e-006
30029	18.319	6.	0.1	0.20173
30030	18.229	6.	5.e-002	3.9929e-006
30031	18.5	6.	0.1	0.21189
30032	18.409	6.	5.e-002	4.866e-006
30033	18.68	6.	0.1	0.19751
30034	18.59	6.	5.e-002	4.9344e-006
30035	18.86	6.	0.1	0.16992
30036	18.77	6.	5.e-002	4.7903e-006
30037	19.041	6.	0.1	0.1372
30038	18.95	6.	5.e-002	1.2933e-005
30039	19.221	6.	0.1	0.10456
30040	19.131	6.	5.e-002	3.9045e-006
30041	19.401	6.	0.1	7.5095e-002
30042	19.311	6.	5.e-002	-5.9314e-007
30043	19.582	6.	0.1	5.0471e-002
30044	19.491	6.	5.e-002	5.1371e-006
30045	19.762	6.	0.1	3.1391e-002
30046	19.672	6.	5.e-002	5.8706e-006
30047	19.942	6.	0.1	1.7954e-002
30048	19.852	6.	5.e-002	5.3642e-006
30049	20.123	6.	0.1	9.9149e-003
30050	20.032	6.	5.e-002	5.1793e-006
30051	20.303	6.	0.1	6.8415e-003
30052	20.213	6.	5.e-002	7.2695e-006
30053	20.483	6.	0.1	8.219e-003
30054	20.393	6.	5.e-002	5.7575e-006
30055	20.664	6.	0.1	1.354e-002
30056	20.574	6.	5.e-002	4.6511e-006
30057	20.844	6.	0.1	2.2342e-002
30058	20.754	6.	5.e-002	7.3563e-006
30059	21.024	6.	0.1	3.4227e-002
30060	20.934	6.	5.e-002	5.8775e-006
30061	21.205	6.	0.1	4.8857e-002
30062	21.115	6.	5.e-002	4.998e-006
30063	21.385	6.	0.1	6.5971e-002
30064	21.295	6.	5.e-002	7.2843e-006
30065	21.565	6.	0.1	8.5394e-002
30066	21.475	6.	5.e-002	6.4968e-006
30067	21.746	6.	0.1	0.10704
30068	21.656	6.	5.e-002	5.4739e-006
30069	21.926	6.	0.1	0.13091
30070	21.836	6.	5.e-002	1.0275e-005
30071	22.106	6.	0.1	0.15712
30072	22.016	6.	5.e-002	5.4237e-006
30073	22.287	6.	0.1	0.18592
30074	22.197	6.	5.e-002	8.3985e-006
30075	22.467	6.	0.1	0.21769
30076	22.377	6.	5.e-002	6.9276e-006
30077	22.647	6.	0.1	0.25306
30078	22.557	6.	5.e-002	6.4416e-006
30079	22.828	6.	0.1	0.29285
30080	22.738	6.	5.e-002	1.0727e-005
30081	23.008	6.	0.1	0.33886
30082	22.918	6.	5.e-002	5.4697e-006
30083	23.188	6.	0.1	0.39168
30084	23.098	6.	5.e-002	6.5983e-006
30085	23.369	6.	0.1	0.4625
30086	23.279	6.	5.e-002	8.3559e-006
30087	23.549	6.	0.1	0.53856
30088	23.459	6.	5.e-002	8.1669e-006
30089	23.729	6.	0.1	0.75556
30090	23.639	6.	5.e-002	4.1862e-006
30091	23.91	6.	0.1	0.52997
30092	23.82	6.	5.e-002	4.2009e-006
30093	24.	5.9091	0.1	-2.4794
30094	24.	6.	5.e-002	3.6536e-005
30095	24.	5.7273	0.1	-2.3091
30096	24.	5.8182	5.e-002	1.9533e-005
30097	24.	5.5455	0.1	-2.3883
30098	24.	5.6364	5.e-002	1.5641e-005
30099	24.	5.3636	0.1	-2.4856
30100	24.	5.4545	5.e-002	1.4612e-005
30101	24.	5.1818	0.1	-2.5102
30102	24.	5.2727	5.e-002	1.5587e-005
30103	24.	5.	0.1	-2.5301
30104	24.	5.0909	5.e-002	1.5184e-005
30105	24.	4.8182	0.1	-2.5415
30106	24.	4.9091	5.e-002	1.3323e-005
30107	24.	4.6364	0.1	-2.5492
30108	24.	4.7273	5.e-002	1.5749e-005
30109	24.	4.4545	0.1	-2.5541
30110	24.	4.5455	5.e-002	1.4597e-005
30111	24.	4.2727	0.1	-2.5572
30112	24.	4.3636	5.e-002	1.5398e-005
30113	24.	4.0909	0.1	-2.5591
30114	24.	4.1818	5.e-002	1.4251e-005
30115	24.	3.9091	0.1	-2.5601
30116	24.	4.	5.e-002	1.8076e-005
30117	24.	3.7273	0.1	-2.5606
30118	24.	3.8182	5.e-002	1.5738e-005
30119	24.	3.5455	0.1	-2.5607
30120	24.	3.6364	5.e-002	1.6626e-005
30121	24.	3.3636	0.1	-2.5607
30122	24.	3.4545	5.e-002	1.3474e-005
30123	24.	3.1818	0.1	-2.5607
30124	24.	3.2727	5.e-002	1.4233e-005
30125	24.	3.	0.1	-2.5607
30126	24.	3.0909	5.e-002	1.1108e-005
30127	24.	2.8182	0.1	-2.5607
30128	24.	2.9091	5.e-002	1.1786e-005
30129	24.	2.6364	0.1	-2.5607
30130	24.	2.7273	5.e-002	1.2508e-005
30131	24.	2.4545	0.1	-2.5607
30132	24.	2.5455	5.e-002	1.324e-005
30133	24.	2.2727	0.1	-2.5606
30134	24.	2.3636	5.e-002	1.0119e-005
30135	24.	2.0909	0.1	-2.5601
30136	24.	2.1818	5.e-002	1.076e-005
30137	24.	1.9091	0.1	-2.5591
30138	24.	2.	5.e-002	1.1247e-005
30139	24.	1.7273	0.1	-2.5572
30140	24.	1.8182	5.e-002	8.8279e-006
30141	24.	1.5455	0.1	-2.5541
30142	24.	1.6364	5.e-002	1.2807e-005
30143	24.	1.3636	0.1	-2.5492
30144	24.	1.4545	5.e-002	1.3089e-005
30145	24.	1.1818	0.1	-2.5415
30146	24.	1.2727	5.e-002	1.3513e-005
30147	24.	1.	0.1	-2.5301
30148	24.	1.0909	5.e-002	1.6292e-005
30149	24.	0.81818	0.1	-2.5102
30150	24.	0.90909	5.e-002	1.002e-005
30151	24.	0.63636	0.1	-2.4856
30152	24.	0.72727	5.e-002	1.0289e-005
30153	24.	0.45455	0.1	-2.3883
30154	24.	0.54545	5.e-002	6.802e-006
30155	24.	0.27273	0.1	-2.3091
30156	24.	0.36364	5.e-002	7.9002e-006
30157	24.	9.0909e-002	0.1	-2.4794
30158	24.	0.18182	5.e-002	1.5747e-005
30159	2.3842e-015	0.27273	0.1	1764.
30160	7.9472e-016	9.0909e-002	0.1	378.71
30161	1.6109e-015	0.18182	5.e-002	6.1232e-005
30162	3.9736e-015	0.45455	0.1	2566.7
30163	3.2219e-015	0.36364	5.e-002	1.034e-004
30164	5.563e-015	0.63636	0.1	2979.8
30165	4.8328e-015	0.54545	5.e-002	1.0252e-004
30166	7.1525e-015	0.81818	0.1	3238.
30167	6.4438e-015	0.72727	5.e-002	8.1093e-005
30168	8.7419e-015	1.	0.1	3416.
30169	8.0547e-015	0.90909	5.e-002	7.3006e-005
30170	1.0331e-014	1.1818	0.1	3545.5
30171	9.6657e-015	1.0909	5.e-002	1.2743e-004
30172	1.1921e-014	1.3636	0.1	3642.6
30173	1.1277e-014	1.2727	5.e-002	3.4725e-006
30174	1.351e-014	1.5455	0.1	3716.8
30175	1.2888e-014	1.4545	5.e-002	5.8903e-005
30176	1.51e-014	1.7273	0.1	3774.1
30177	1.4498e-014	1.6364	5.e-002	6.1061e-005
30178	1.6689e-014	1.9091	0.1	3818.6
30179	1.6109e-014	1.8182	5.e-002	-1.2352e-006
30180	1.8279e-014	2.0909	0.1	3853.
30181	1.772e-014	2.	5.e-002	-1.2655e-006
30182	1.9868e-014	2.2727	0.1	3879.
30183	1.9331e-014	2.1818	5.e-002	-1.2077e-006
30184	2.1457e-014	2.4545	0.1	3898.
30185	2.0942e-014	2.3636	5.e-002	-1.0473e-006
30186	2.3047e-014	2.6364	0.1	3911.
30187	2.2553e-014	2.5455	5.e-002	-8.0221e-007
30188	2.4636e-014	2.8182	0.1	3918.5
30189	2.4164e-014	2.7273	5.e-002	6.0473e-005
30190	2.6226e-014	3.	0.1	3920.9
30191	2.5775e-014	2.9091	5.e-002	-1.7143e-007
30192	2.7815e-014	3.1818	0.1	3918.5
30193	2.7386e-014	3.0909	5.e-002	1.6943e-007
30194	2.9405e-014	3.3636	0.1	3911.
30195	2.8997e-014	3.2727	5.e-002	4.8725e-007
30196	3.0994e-014	3.5455	0.1	3898.
30197	3.0608e-014	3.4545	5.e-002	7.5431e-007
30198	3.2583e-014	3.7273	0.1	3879.
30199	3.2219e-014	3.6364	5.e-002	9.491e-007
30200	3.4173e-014	3.9091	0.1	3853.
30201	3.383e-014	3.8182	5.e-002	-5.9538e-005
30202	3.5762e-014	4.0909	0.1	3818.6
30203	3.5441e-014	4.	5.e-002	-6.0644e-005
30204	3.7352e-014	4.2727	0.1	3774.1
30205	3.7052e-014	4.1818	5.e-002	-7.621e-007
30206	3.8941e-014	4.4545	0.1	3716.8
30207	3.8663e-014	4.3636	5.e-002	6.3685e-007
30208	4.0531e-014	4.6364	0.1	3642.6
30209	4.0274e-014	4.5455	5.e-002	-5.9477e-005
30210	4.212e-014	4.8182	0.1	3545.5
30211	4.1885e-014	4.7273	5.e-002	-5.9704e-005
30212	4.371e-014	5.	0.1	3416.
30213	4.3495e-014	4.9091	5.e-002	-6.2865e-006
30214	4.5299e-014	5.1818	0.1	3238.
30215	4.5106e-014	5.0909	5.e-002	-6.1166e-005
30216	4.6888e-014	5.3636	0.1	2979.8
30217	4.6717e-014	5.2727	5.e-002	-6.2199e-005
30218	4.8478e-014	5.5455	0.1	2566.7
30219	4.8328e-014	5.4545	5.e-002	-8.4045e-005
30220	5.0067e-014	5.7273	0.1	1764.
30221	4.9939e-014	5.6364	5.e-002	-1.9192e-004
30222	5.1657e-014	5.9091	0.1	378.71
30223	5.155e-014	5.8182	5.e-002	-6.1232e-005
30224	23.91	0.	0.1	0.52996
30225	24.	0.	5.e-002	2.816e-005
30226	23.729	0.	0.1	0.75556
30227	23.82	0.	5.e-002	2.1449e-006
30228	23.549	0.	0.1	0.53856
30229	23.639	0.	5.e-002	6.5439e-006
30230	23.369	0.	0.1	0.4625
30231	23.459	0.	5.e-002	9.7316e-006
30232	23.188	0.	0.1	0.39168
30233	23.279	0.	5.e-002	6.5174e-006
30234	23.008	0.	0.1	0.33886
30235	23.098	0.	5.e-002	4.8832e-006
30236	22.828	0.	0.1	0.29285
30237	22.918	0.	5.e-002	6.8218e-006
30238	22.647	0.	0.1	0.25305
30239	22.738	0.	5.e-002	5.6859e-006
30240	22.467	0.	0.1	0.21769
30241	22.557	0.	5.e-002	3.9957e-006
30242	22.287	0.	0.1	0.18593
30243	22.377	0.	5.e-002	6.6297e-006
30244	22.106	0.	0.1	0.15713
30245	22.197	0.	5.e-002	9.6089e-006
30246	21.926	0.	0.1	0.13091
30247	22.016	0.	5.e-002	6.7807e-006
30248	21.746	0.	0.1	0.10704
30249	21.836	0.	5.e-002	6.4728e-006
30250	21.565	0.	0.1	8.5396e-002
30251	21.656	0.	5.e-002	5.4226e-006
30252	21.385	0.	0.1	6.5975e-002
30253	21.475	0.	5.e-002	7.7783e-006
30254	21.205	0.	0.1	4.886e-002
30255	21.295	0.	5.e-002	7.5869e-006
30256	21.024	0.	0.1	3.4229e-002
30257	21.115	0.	5.e-002	6.9439e-006
30258	20.844	0.	0.1	2.2344e-002
30259	20.934	0.	5.e-002	5.9275e-006
30260	20.664	0.	0.1	1.3543e-002
30261	20.754	0.	5.e-002	6.9714e-006
30262	20.483	0.	0.1	8.221e-003
30263	20.574	0.	5.e-002	5.3942e-006
30264	20.303	0.	0.1	6.8414e-003
30265	20.393	0.	5.e-002	5.6904e-006
30266	20.123	0.	0.1	9.9138e-003
30267	20.213	0.	5.e-002	6.0752e-006
30268	19.942	0.	0.1	1.7955e-002
30269	20.032	0.	5.e-002	6.5926e-006
30270	19.762	0.	0.1	3.1393e-002
30271	19.852	0.	5.e-002	6.1051e-006
30272	19.582	0.	0.1	5.0472e-002
30273	19.672	0.	5.e-002	4.643e-006
30274	19.401	0.	0.1	7.5097e-002
30275	19.491	0.	5.e-002	4.6435e-006
30276	19.221	0.	0.1	0.10456
30277	19.311	0.	5.e-002	5.2611e-006
30278	19.041	0.	0.1	0.1372
30279	19.131	0.	5.e-002	5.5561e-006
30280	18.86	0.	0.1	0.16992
30281	18.95	0.	5.e-002	6.0049e-006
30282	18.68	0.	0.1	0.19751
30283	18.77	0.	5.e-002	4.943e-006
30284	18.5	0.	0.1	0.21189
30285	18.59	0.	5.e-002	5.0879e-006
30286	18.319	0.	0.1	0.20173
30287	18.409	0.	5.e-002	5.4673e-006
30288	18.139	0.	0.1	0.15092
30289	18.229	0.	5.e-002	3.0531e-006
30290	17.959	0.	0.1	4.5045e-002
30291	18.049	0.	5.e-002	4.383e-006
30292	17.778	0.	0.1	-0.14784
30293	17.868	0.	5.e-002	5.6028e-006
30294	17.598	0.	0.1	-0.37855
30295	17.688	0.	5.e-002	5.2941e-006
30296	17.418	0.	0.1	-0.89235
30297	17.508	0.	5.e-002	4.0467e-006
30298	17.237	0.	0.1	-0.35203
30299	17.327	0.	5.e-002	5.1558e-006
30300	17.057	0.	0.1	6.1236
30301	17.147	0.	5.e-002	5.5221e-006
30302	16.967	0.	5.e-002	-1.5805e-006
30303	16.708	4.8261e-031	0.1	7.7798
30304	16.8	4.8527e-031	5.e-002	6.9586e-006
30305	16.523	4.7727e-031	0.1	0.44211
30306	16.615	0.	5.e-002	-2.9586e-006
30307	16.338	4.7194e-031	0.1	-0.2451
30308	16.431	0.	5.e-002	4.1304e-006
30309	16.154	4.6661e-031	0.1	0.43739
30310	16.246	0.	5.e-002	4.4959e-006
30311	15.969	4.6128e-031	0.1	0.73866
30312	16.062	0.	5.e-002	3.5218e-006
30313	15.785	4.5594e-031	0.1	0.98745
30314	15.877	0.	5.e-002	3.5905e-006
30315	15.6	4.5061e-031	0.1	1.1125
30316	15.692	0.	5.e-002	3.955e-007
30317	15.415	4.4528e-031	0.1	1.1543
30318	15.508	0.	5.e-002	3.3442e-006
30319	15.231	4.3995e-031	0.1	1.1318
30320	15.323	0.	5.e-002	4.4555e-006
30321	15.046	4.3461e-031	0.1	1.0679
30322	15.138	0.	5.e-002	3.6319e-006
30323	14.862	4.2928e-031	0.1	0.98046
30324	14.954	0.	5.e-002	3.9766e-006
30325	14.677	4.2395e-031	0.1	0.88275
30326	14.769	0.	5.e-002	4.0731e-006
30327	14.492	4.1862e-031	0.1	0.78379
30328	14.585	0.	5.e-002	3.1625e-006
30329	14.308	4.1328e-031	0.1	0.68913
30330	14.4	0.	5.e-002	3.2501e-006
30331	14.123	4.0795e-031	0.1	0.60178
30332	14.215	0.	5.e-002	3.245e-006
30333	13.938	4.0262e-031	0.1	0.52305
30334	14.031	0.	5.e-002	4.1988e-006
30335	13.754	3.9728e-031	0.1	0.4532
30336	13.846	0.	5.e-002	2.5809e-006
30337	13.569	3.9195e-031	0.1	0.39187
30338	13.662	0.	5.e-002	3.4268e-006
30339	13.385	3.8662e-031	0.1	0.33837
30340	13.477	0.	5.e-002	3.5928e-006
30341	13.2	3.8129e-031	0.1	0.29186
30342	13.292	0.	5.e-002	3.3119e-006
30343	13.015	3.7595e-031	0.1	0.25144
30344	13.108	0.	5.e-002	2.571e-006
30345	12.831	3.7062e-031	0.1	0.21628
30346	12.923	0.	5.e-002	2.7809e-006
30347	12.646	3.6529e-031	0.1	0.18561
30348	12.738	0.	5.e-002	2.9245e-006
30349	12.462	3.5996e-031	0.1	0.15871
30350	12.554	0.	5.e-002	2.7446e-006
30351	12.277	3.5462e-031	0.1	0.13494
30352	12.369	0.	5.e-002	2.1323e-006
30353	12.092	3.4929e-031	0.1	0.11376
30354	12.185	0.	5.e-002	2.3855e-006
30355	11.908	3.4396e-031	0.1	9.4696e-002
30356	12.	0.	5.e-002	2.3952e-006
30357	11.723	3.3863e-031	0.1	7.7343e-002
30358	11.815	0.	5.e-002	2.3761e-006
30359	11.538	3.3329e-031	0.1	6.1327e-002
30360	11.631	0.	5.e-002	2.3181e-006
30361	11.354	3.2796e-031	0.1	4.6344e-002
30362	11.446	0.	5.e-002	2.3195e-006
30363	11.169	3.2263e-031	0.1	3.2126e-002
30364	11.262	0.	5.e-002	2.3286e-006
30365	10.985	3.1729e-031	0.1	1.8453e-002
30366	11.077	0.	5.e-002	1.9049e-006
30367	10.8	3.1196e-031	0.1	5.1154e-003
30368	10.892	0.	5.e-002	1.7297e-006
30369	10.615	3.0663e-031	0.1	-8.1006e-003
30370	10.708	0.	5.e-002	1.9073e-006
30371	10.431	3.013e-031	0.1	-2.1327e-002
30372	10.523	0.	5.e-002	1.9684e-006
30373	10.246	2.9596e-031	0.1	-3.4714e-002
30374	10.338	0.	5.e-002	1.7286e-006
30375	10.062	2.9063e-031	0.1	-4.8412e-002
30376	10.154	0.	5.e-002	1.7287e-006
30377	9.8769	2.853e-031	0.1	-6.2531e-002
30378	9.9692	0.	5.e-002	1.7233e-006
30379	9.6923	2.7997e-031	0.1	-7.721e-002
30380	9.7846	0.	5.e-002	1.5501e-006
30381	9.5077	2.7463e-031	0.1	-9.2581e-002
30382	9.6	0.	5.e-002	1.4991e-006
30383	9.3231	2.693e-031	0.1	-0.10876
30384	9.4154	0.	5.e-002	1.3717e-006
30385	9.1385	2.6397e-031	0.1	-0.12586
30386	9.2308	0.	5.e-002	1.3608e-006
30387	8.9538	2.5863e-031	0.1	-0.14401
30388	9.0462	0.	5.e-002	1.4183e-006
30389	8.7692	2.533e-031	0.1	-0.16334
30390	8.8615	0.	5.e-002	1.373e-006
30391	8.5846	2.4797e-031	0.1	-0.18399
30392	8.6769	0.	5.e-002	1.2726e-006
30393	8.4	2.4264e-031	0.1	-0.20609
30394	8.4923	0.	5.e-002	1.1957e-006
30395	8.2154	2.373e-031	0.1	-0.22979
30396	8.3077	0.	5.e-002	1.0775e-006
30397	8.0308	2.3197e-031	0.1	-0.25524
30398	8.1231	0.	5.e-002	1.1089e-006
30399	7.8462	2.2664e-031	0.1	-0.28261
30400	7.9385	0.	5.e-002	1.0807e-006
30401	7.6615	2.2131e-031	0.1	-0.31207
30402	7.7538	0.	5.e-002	8.693e-007
30403	7.4769	2.1597e-031	0.1	-0.3438
30404	7.5692	0.	5.e-002	8.5434e-007
30405	7.2923	2.1064e-031	0.1	-0.37799
30406	7.3846	0.	5.e-002	9.8836e-007
30407	7.1077	2.0531e-031	0.1	-0.41474
30408	7.2	0.	5.e-002	1.0058e-006
30409	6.9231	1.9998e-031	0.1	-0.30505
30410	7.0154	0.	5.e-002	8.0525e-007
30411	6.7385	1.9464e-031	0.1	4.1017e-002
30412	6.8308	0.	5.e-002	8.4475e-007
30413	6.5538	1.8931e-031	0.1	0.39323
30414	6.6462	0.	5.e-002	7.1492e-007
30415	6.3692	1.8398e-031	0.1	0.74891
30416	6.4615	0.	5.e-002	6.9567e-007
30417	6.1846	1.7864e-031	0.1	1.105
30418	6.2769	0.	5.e-002	8.2931e-007
30419	6.	1.7331e-031	0.1	1.4577
30420	6.0923	0.	5.e-002	6.5471e-007
30421	5.8154	1.6798e-031	0.1	1.8023
30422	5.9077	0.	5.e-002	8.4188e-007
30423	5.6308	1.6265e-031	0.1	2.1333
30424	5.7231	0.	5.e-002	1.6229e-006
30425	5.4462	1.5731e-031	0.1	2.4437
30426	5.5385	0.	5.e-002	6.3873e-007
30427	5.2615	1.5198e-031	0.1	2.7254
30428	5.3538	0.	5.e-002	3.7826e-006
30429	5.0769	1.4665e-031	0.1	2.9685
30430	5.1692	0.	5.e-002	2.5005e-005
30431	4.8923	1.4132e-031	0.1	3.1614
30432	4.9846	0.	5.e-002	1.3076e-007
30433	4.7077	1.3598e-031	0.1	3.2903
30434	4.8	0.	5.e-002	7.8469e-006
30435	4.5231	1.3065e-031	0.1	3.3391
30436	4.6154	0.	5.e-002	5.0463e-006
30437	4.3385	1.2532e-031	0.1	3.2889
30438	4.4308	0.	5.e-002	1.7696e-006
30439	4.1538	1.1999e-031	0.1	3.1175
30440	4.2462	0.	5.e-002	1.5338e-006
30441	3.9692	1.1465e-031	0.1	2.7998
30442	4.0615	0.	5.e-002	5.3791e-007
30443	3.7846	1.0932e-031	0.1	2.3072
30444	3.8769	0.	5.e-002	8.1206e-007
30445	3.6	1.0399e-031	0.1	1.6091
30446	3.6923	0.	5.e-002	3.2252e-007
30447	3.4154	9.8655e-032	0.1	0.67869
30448	3.5077	0.	5.e-002	5.3188e-007
30449	3.2308	9.3322e-032	0.1	-0.47721
30450	3.3231	0.	5.e-002	4.5129e-007
30451	3.0462	8.7989e-032	0.1	-1.6555
30452	3.1385	0.	5.e-002	-2.3319e-014
30453	2.8615	8.2657e-032	0.1	-2.3654
30454	2.9538	0.	5.e-002	3.4606e-007
30455	2.6769	7.7324e-032	0.1	-2.7551
30456	2.7692	0.	5.e-002	4.2713e-007
30457	2.4923	7.1991e-032	0.1	-3.0718
30458	2.5846	0.	5.e-002	-3.4694e-014
30459	2.3077	6.6658e-032	0.1	-3.382
30460	2.4	0.	5.e-002	1.296e-007
30461	2.1231	6.1326e-032	0.1	-3.7083
30462	2.2154	0.	5.e-002	2.4051e-007
30463	1.9385	5.5993e-032	0.1	-4.0626
30464	2.0308	0.	5.e-002	1.1257e-007
30465	1.7538	5.066e-032	0.1	-4.4573
30466	1.8462	0.	5.e-002	2.1249e-007
30467	1.5692	4.5328e-032	0.1	-4.8996
30468	1.6615	0.	5.e-002	2.0207e-007
30469	1.3846	3.9995e-032	0.1	-5.4218
30470	1.4769	0.	5.e-002	1.9346e-007
30471	1.2	3.4662e-032	0.1	-5.9906
30472	1.2923	0.	5.e-002	1.8628e-007
30473	1.0154	2.933e-032	0.1	-6.8078
30474	1.1077	0.	5.e-002	8.9938e-008
30475	0.83077	2.3997e-032	0.1	-7.4269
30476	0.92308	0.	5.e-002	8.689e-008
30477	0.64615	1.8664e-032	0.1	-8.9
30478	0.73846	0.	5.e-002	1.6318e-007
30479	0.46154	1.3332e-032	0.1	-13.426
30480	0.55385	0.	5.e-002	-1.2138e-013
30481	0.27692	7.999e-033	0.1	18.97
30482	0.36923	0.	5.e-002	1.4131e-007
30483	9.2308e-002	2.6663e-033	0.1	-164.89
30484	0.18462	0.	5.e-002	-1.3351e-005
30485	0.	0.	5.e-002	1.1947e-004
30486	9.2308e-002	6.	0.1	-164.89
30487	5.2451e-014	6.	5.e-002	-1.5e-004
30488	0.27692	6.	0.1	18.97
30489	0.18462	6.	5.e-002	1.7166e-005
30490	0.46154	6.	0.1	-13.426
30491	0.36923	6.	5.e-002	-1.4074e-013
30492	0.64615	6.	0.1	-8.9
30493	0.55385	6.	5.e-002	-1.5273e-007
30494	0.83077	6.	0.1	-7.4269
30495	0.73846	6.	5.e-002	-1.0704e-013
30496	1.0154	6.	0.1	-6.8078
30497	0.92308	6.	5.e-002	-8.689e-008
30498	1.2	6.	0.1	-5.9906
30499	1.1077	6.	5.e-002	-8.5136e-014
30500	1.3846	6.	0.1	-5.4218
30501	1.2923	6.	5.e-002	-1.8628e-007
30502	1.5692	6.	0.1	-4.8996
30503	1.4769	6.	5.e-002	-1.9346e-007
30504	1.7538	6.	0.1	-4.4573
30505	1.6615	6.	5.e-002	-2.0207e-007
30506	1.9385	6.	0.1	-4.0626
30507	1.8462	6.	5.e-002	-2.1249e-007
30508	2.1231	6.	0.1	-3.7083
30509	2.0308	6.	5.e-002	-1.1257e-007
30510	2.3077	6.	0.1	-3.382
30511	2.2154	6.	5.e-002	-2.4051e-007
30512	2.4923	6.	0.1	-3.0718
30513	2.4	6.	5.e-002	-2.5921e-007
30514	2.6769	6.	0.1	-2.7551
30515	2.5846	6.	5.e-002	-1.4106e-007
30516	2.8615	6.	0.1	-2.3654
30517	2.7692	6.	5.e-002	-3.1046e-007
30518	3.0462	6.	0.1	-1.6555
30519	2.9538	6.	5.e-002	-3.4606e-007
30520	3.2308	6.	0.1	-0.47722
30521	3.1385	6.	5.e-002	-1.958e-007
30522	3.4154	6.	0.1	0.67869
30523	3.3231	6.	5.e-002	-4.5129e-007
30524	3.6	6.	0.1	1.6091
30525	3.5077	6.	5.e-002	-5.3188e-007
30526	3.7846	6.	0.1	2.3072
30527	3.6923	6.	5.e-002	-3.2251e-007
30528	3.9692	6.	0.1	2.7998
30529	3.8769	6.	5.e-002	-8.1205e-007
30530	4.1538	6.	0.1	3.1175
30531	4.0615	6.	5.e-002	-5.3791e-007
30532	4.3385	6.	0.1	3.2889
30533	4.2462	6.	5.e-002	-1.5338e-006
30534	4.5231	6.	0.1	3.3391
30535	4.4308	6.	5.e-002	-9.5986e-007
30536	4.7077	6.	0.1	3.2903
30537	4.6154	6.	5.e-002	-4.5204e-006
30538	4.8923	6.	0.1	3.1614
30539	4.8	6.	5.e-002	-6.8647e-006
30540	5.0769	6.	0.1	2.9685
30541	4.9846	6.	5.e-002	8.7177e-008
30542	5.2615	6.	0.1	2.7254
30543	5.1692	6.	5.e-002	-2.4273e-005
30544	5.4462	6.	0.1	2.4437
30545	5.3538	6.	5.e-002	-2.0312e-006
30546	5.6308	6.	0.1	2.1333
30547	5.5385	6.	5.e-002	-4.1042e-007
30548	5.8154	6.	0.1	1.8023
30549	5.7231	6.	5.e-002	-4.949e-007
30550	6.	6.	0.1	1.4577
30551	5.9077	6.	5.e-002	3.7538e-007
30552	6.1846	6.	0.1	1.105
30553	6.0923	6.	5.e-002	5.2314e-007
30554	6.3692	6.	0.1	0.74892
30555	6.2769	6.	5.e-002	-1.7428e-007
30556	6.5538	6.	0.1	0.39323
30557	6.4615	6.	5.e-002	1.5678e-006
30558	6.7385	6.	0.1	4.1019e-002
30559	6.6462	6.	5.e-002	7.3621e-007
30560	6.9231	6.	0.1	-0.30505
30561	6.8308	6.	5.e-002	2.8855e-008
30562	7.1077	6.	0.1	-0.41474
30563	7.0154	6.	5.e-002	9.8244e-007
30564	7.2923	6.	0.1	-0.37799
30565	7.2	6.	5.e-002	8.8661e-007
30566	7.4769	6.	0.1	-0.3438
30567	7.3846	6.	5.e-002	7.9952e-007
30568	7.6615	6.	0.1	-0.31207
30569	7.5692	6.	5.e-002	9.2695e-007
30570	7.8462	6.	0.1	-0.28261
30571	7.7538	6.	5.e-002	9.5781e-007
30572	8.0308	6.	0.1	-0.25524
30573	7.9385	6.	5.e-002	9.1679e-007
30574	8.2154	6.	0.1	-0.22979
30575	8.1231	6.	5.e-002	1.0637e-006
30576	8.4	6.	0.1	-0.20609
30577	8.3077	6.	5.e-002	1.0681e-006
30578	8.5846	6.	0.1	-0.18399
30579	8.4923	6.	5.e-002	1.3058e-006
30580	8.7692	6.	0.1	-0.16334
30581	8.6769	6.	5.e-002	1.1697e-006
30582	8.9538	6.	0.1	-0.14401
30583	8.8615	6.	5.e-002	1.3092e-006
30584	9.1385	6.	0.1	-0.12586
30585	9.0462	6.	5.e-002	1.1767e-006
30586	9.3231	6.	0.1	-0.10876
30587	9.2308	6.	5.e-002	1.4412e-006
30588	9.5077	6.	0.1	-9.258e-002
30589	9.4154	6.	5.e-002	1.37e-006
30590	9.6923	6.	0.1	-7.721e-002
30591	9.6	6.	5.e-002	1.6e-006
30592	9.8769	6.	0.1	-6.2531e-002
30593	9.7846	6.	5.e-002	1.602e-006
30594	10.062	6.	0.1	-4.8412e-002
30595	9.9692	6.	5.e-002	1.3705e-006
30596	10.246	6.	0.1	-3.4713e-002
30597	10.154	6.	5.e-002	1.7243e-006
30598	10.431	6.	0.1	-2.1327e-002
30599	10.338	6.	5.e-002	1.7908e-006
30600	10.615	6.	0.1	-8.1006e-003
30601	10.523	6.	5.e-002	1.6689e-006
30602	10.8	6.	0.1	5.1158e-003
30603	10.708	6.	5.e-002	1.8479e-006
30604	10.985	6.	0.1	1.8454e-002
30605	10.892	6.	5.e-002	2.2054e-006
30606	11.169	6.	0.1	3.2126e-002
30607	11.077	6.	5.e-002	1.7856e-006
30608	11.354	6.	0.1	4.6344e-002
30609	11.262	6.	5.e-002	2.2052e-006
30610	11.538	6.	0.1	6.1327e-002
30611	11.446	6.	5.e-002	1.8528e-006
30612	11.723	6.	0.1	7.7343e-002
30613	11.631	6.	5.e-002	1.8542e-006
30614	11.908	6.	0.1	9.4696e-002
30615	11.815	6.	5.e-002	2.2643e-006
30616	12.092	6.	0.1	0.11376
30617	12.	6.	5.e-002	2.264e-006
30618	12.277	6.	0.1	0.13494
30619	12.185	6.	5.e-002	2.4552e-006
30620	12.462	6.	0.1	0.15871
30621	12.369	6.	5.e-002	1.9649e-006
30622	12.646	6.	0.1	0.18561
30623	12.554	6.	5.e-002	2.8581e-006
30624	12.831	6.	0.1	0.21628
30625	12.738	6.	5.e-002	2.3582e-006
30626	13.015	6.	0.1	0.25144
30627	12.923	6.	5.e-002	2.7956e-006
30628	13.2	6.	0.1	0.29186
30629	13.108	6.	5.e-002	2.7335e-006
30630	13.385	6.	0.1	0.33837
30631	13.292	6.	5.e-002	2.6106e-006
30632	13.569	6.	0.1	0.39187
30633	13.477	6.	5.e-002	2.5311e-006
30634	13.754	6.	0.1	0.4532
30635	13.662	6.	5.e-002	2.9026e-006
30636	13.938	6.	0.1	0.52305
30637	13.846	6.	5.e-002	2.6031e-006
30638	14.123	6.	0.1	0.60178
30639	14.031	6.	5.e-002	3.0412e-006
30640	14.308	6.	0.1	0.68913
30641	14.215	6.	5.e-002	2.4729e-006
30642	14.492	6.	0.1	0.78379
30643	14.4	6.	5.e-002	3.5913e-006
30644	14.677	6.	0.1	0.88275
30645	14.585	6.	5.e-002	3.5005e-006
30646	14.862	6.	0.1	0.98046
30647	14.769	6.	5.e-002	2.818e-006
30648	15.046	6.	0.1	1.0679
30649	14.954	6.	5.e-002	2.6855e-006
30650	15.231	6.	0.1	1.1318
30651	15.138	6.	5.e-002	2.9131e-006
30652	15.415	6.	0.1	1.1543
30653	15.323	6.	5.e-002	3.7101e-006
30654	15.6	6.	0.1	1.1125
30655	15.508	6.	5.e-002	3.4209e-006
30656	15.785	6.	0.1	0.98745
30657	15.692	6.	5.e-002	-2.2314e-005
30658	15.969	6.	0.1	0.73866
30659	15.877	6.	5.e-002	4.8585e-006
30660	16.154	6.	0.1	0.43739
30661	16.062	6.	5.e-002	4.4586e-006
30662	16.338	6.	0.1	-0.2451
30663	16.246	6.	5.e-002	4.6275e-006
30664	16.523	6.	0.1	0.44211
30665	16.431	6.	5.e-002	3.446e-006
30666	16.708	6.	0.1	7.7798
30667	16.615	6.	5.e-002	8.7848e-006
30668	16.8	6.	5.e-002	-8.6535e-007
30669	16.523	6.	0.	-0.44211
30670	16.708	6.	0.	-7.7798
30671	16.338	6.	0.	0.2451
30672	16.154	6.	0.	-0.43739
30673	15.969	6.	0.	-0.73866
30674	15.785	6.	0.	-0.98745
30675	15.6	6.	0.	-1.1125
30676	15.415	6.	0.	-1.1543
30677	15.231	6.	0.	-1.1318
30678	15.046	6.	0.	-1.0679
30679	14.862	6.	0.	-0.98046
30680	14.677	6.	0.	-0.88275
30681	14.492	6.	0.	-0.78379
30682	14.308	6.	0.	-0.68913
30683	14.123	6.	0.	-0.60178
30684	13.938	6.	0.	-0.52305
30685	13.754	6.	0.	-0.4532
30686	13.569	6.	0.	-0.39187
30687	13.385	6.	0.	-0.33837
30688	13.2	6.	0.	-0.29186
30689	13.015	6.	0.	-0.25144
30690	12.831	6.	0.	-0.21628
30691	12.646	6.	0.	-0.18561
30692	12.462	6.	0.	-0.15871
30693	12.277	6.	0.	-0.13494
30694	12.092	6.	0.	-0.11376
30695	11.908	6.	0.	-9.4695e-002
30696	11.723	6.	0.	-7.7343e-002
30697	11.538	6.	0.	-6.1327e-002
30698	11.354	6.	0.	-4.6343e-002
30699	11.169	6.	0.	-3.2126e-002
30700	10.985	6.	0.	-1.8453e-002
30701	10.8	6.	0.	-5.1154e-003
30702	10.615	6.	0.	8.1013e-003
30703	10.431	6.	0.	2.1327e-002
30704	10.246	6.	0.	3.4714e-002
30705	10.062	6.	0.	4.8412e-002
30706	9.8769	6.	0.	6.2531e-002
30707	9.6923	6.	0.	7.721e-002
30708	9.5077	6.	0.	9.258e-002
30709	9.3231	6.	0.	0.10876
30710	9.1385	6.	0.	0.12586
30711	8.9538	6.	0.	0.14401
30712	8.7692	6.	0.	0.16334
30713	8.5846	6.	0.	0.18399
30714	8.4	6.	0.	0.20609
30715	8.2154	6.	0.	0.22979
30716	8.0308	6.	0.	0.25524
30717	7.8462	6.	0.	0.28261
30718	7.6615	6.	0.	0.31207
30719	7.4769	6.	0.	0.3438
30720	7.2923	6.	0.	0.37799
30721	7.1077	6.	0.	0.41474
30722	6.9231	6.	0.	0.30505
30723	6.7385	6.	0.	-4.1019e-002
30724	6.5538	6.	0.	-0.39323
30725	6.3692	6.	0.	-0.74892
30726	6.1846	6.	0.	-1.105
30727	6.	6.	0.	-1.4577
30728	5.8154	6.	0.	-1.8023
30729	5.6308	6.	0.	-2.1333
30730	5.4462	6.	0.	-2.4437
30731	5.2615	6.	0.	-2.7254
30732	5.0769	6.	0.	-2.9685
30733	4.8923	6.	0.	-3.1614
30734	4.7077	6.	0.	-3.2903
30735	4.5231	6.	0.	-3.3391
30736	4.3385	6.	0.	-3.2889
30737	4.1538	6.	0.	-3.1175
30738	3.9692	6.	0.	-2.7998
30739	3.7846	6.	0.	-2.3072
30740	3.6	6.	0.	-1.6091
30741	3.4154	6.	0.	-0.67869
30742	3.2308	6.	0.	0.47722
30743	3.0462	6.	0.	1.6555
30744	2.8615	6.	0.	2.3654
30745	2.6769	6.	0.	2.7551
30746	2.4923	6.	0.	3.0718
30747	2.3077	6.	0.	3.382
30748	2.1231	6.	0.	3.7083
30749	1.9385	6.	0.	4.0626
30750	1.7538	6.	0.	4.4573
30751	1.5692	6.	0.	4.8996
30752	1.3846	6.	0.	5.4218
30753	1.2	6.	0.	5.9906
30754	1.0154	6.	0.	6.8078
30755	0.83077	6.	0.	7.4269
30756	0.64615	6.	0.	8.9
30757	0.46154	6.	0.	13.426
30758	0.27692	6.	0.	-18.97
30759	9.2308e-002	6.	0.	164.89
30760	16.8	5.9091	0.	2.5015
30761	5.1657e-014	5.9091	0.	-378.71
30762	0.27692	7.999e-033	0.	-18.97
30763	9.2308e-002	2.6663e-033	0.	164.89
30764	0.46154	1.3332e-032	0.	13.426
30765	0.64615	1.8664e-032	0.	8.9
30766	0.83077	2.3997e-032	0.	7.4269
30767	1.0154	2.933e-032	0.	6.8078
30768	1.2	3.4662e-032	0.	5.9906
30769	1.3846	3.9995e-032	0.	5.4218
30770	1.5692	4.5328e-032	0.	4.8996
30771	1.7538	5.066e-032	0.	4.4573
30772	1.9385	5.5993e-032	0.	4.0626
30773	2.1231	6.1326e-032	0.	3.7083
30774	2.3077	6.6658e-032	0.	3.382
30775	2.4923	7.1991e-032	0.	3.0718
30776	2.6769	7.7324e-032	0.	2.7551
30777	2.8615	8.2657e-032	0.	2.3654
30778	3.0462	8.7989e-032	0.	1.6555
30779	3.2308	9.3322e-032	0.	0.47721
30780	3.4154	9.8655e-032	0.	-0.67869
30781	3.6	1.0399e-031	0.	-1.6091
30782	3.7846	1.0932e-031	0.	-2.3072
30783	3.9692	1.1465e-031	0.	-2.7998
30784	4.1538	1.1999e-031	0.	-3.1175
30785	4.3385	1.2532e-031	0.	-3.2889
30786	4.5231	1.3065e-031	0.	-3.3391
30787	4.7077	1.3598e-031	0.	-3.2903
30788	4.8923	1.4132e-031	0.	-3.1614
30789	5.0769	1.4665e-031	0.	-2.9685
30790	5.2615	1.5198e-031	0.	-2.7254
30791	5.4462	1.5731e-031	0.	-2.4437
30792	5.6308	1.6265e-031	0.	-2.1333
30793	5.8154	1.6798e-031	0.	-1.8023
30794	6.	1.7331e-031	0.	-1.4577
30795	6.1846	1.7864e-031	0.	-1.105
30796	6.3692	1.8398e-031	0.	-0.74891
30797	6.5538	1.8931e-031	0.	-0.39323
30798	6.7385	1.9464e-031	0.	-4.1015e-002
30799	6.9231	1.9998e-031	0.	0.30505
30800	7.1077	2.0531e-031	0.	0.41474
30801	7.2923	2.1064e-031	0.	0.37799
30802	7.4769	2.1597e-031	0.	0.3438
30803	7.6615	2.2131e-031	0.	0.31207
30804	7.8462	2.2664e-031	0.	0.28261
30805	8.0308	2.3197e-031	0.	0.25524
30806	8.2154	2.373e-031	0.	0.22979
30807	8.4	2.4264e-031	0.	0.20609
30808	8.5846	2.4797e-031	0.	0.18399
30809	8.7692	2.533e-031	0.	0.16334
30810	8.9538	2.5863e-031	0.	0.14401
30811	9.1385	2.6397e-031	0.	0.12586
30812	9.3231	2.693e-031	0.	0.10876
30813	9.5077	2.7463e-031	0.	9.2581e-002
30814	9.6923	2.7997e-031	0.	7.721e-002
30815	9.8769	2.853e-031	0.	6.2532e-002
30816	10.062	2.9063e-031	0.	4.8413e-002
30817	10.246	2.9596e-031	0.	3.4714e-002
30818	10.431	3.013e-031	0.	2.1327e-002
30819	10.615	3.0663e-031	0.	8.1012e-003
30820	10.8	3.1196e-031	0.	-5.1155e-003
30821	10.985	3.1729e-031	0.	-1.8453e-002
30822	11.169	3.2263e-031	0.	-3.2126e-002
30823	11.354	3.2796e-031	0.	-4.6343e-002
30824	11.538	3.3329e-031	0.	-6.1327e-002
30825	11.723	3.3863e-031	0.	-7.7342e-002
30826	11.908	3.4396e-031	0.	-9.4695e-002
30827	12.092	3.4929e-031	0.	-0.11376
30828	12.277	3.5462e-031	0.	-0.13494
30829	12.462	3.5996e-031	0.	-0.15871
30830	12.646	3.6529e-031	0.	-0.18561
30831	12.831	3.7062e-031	0.	-0.21628
30832	13.015	3.7595e-031	0.	-0.25144
30833	13.2	3.8129e-031	0.	-0.29186
30834	13.385	3.8662e-031	0.	-0.33837
30835	13.569	3.9195e-031	0.	-0.39187
30836	13.754	3.9728e-031	0.	-0.4532
30837	13.938	4.0262e-031	0.	-0.52305
30838	14.123	4.0795e-031	0.	-0.60178
30839	14.308	4.1328e-031	0.	-0.68913
30840	14.492	4.1862e-031	0.	-0.78379
30841	14.677	4.2395e-031	0.	-0.88275
30842	14.862	4.2928e-031	0.	-0.98046
30843	15.046	4.3461e-031	0.	-1.0679
30844	15.231	4.3995e-031	0.	-1.1318
30845	15.415	4.4528e-031	0.	-1.1543
30846	15.6	4.5061e-031	0.	-1.1125
30847	15.785	4.5594e-031	0.	-0.98745
30848	15.969	4.6128e-031	0.	-0.73866
30849	16.154	4.6661e-031	0.	-0.43739
30850	16.338	4.7194e-031	0.	0.2451
30851	16.523	4.7727e-031	0.	-0.44211
30852	16.708	4.8261e-031	0.	-7.7798
30853	16.8	9.0909e-002	0.	2.5015
30854	7.9472e-016	9.0909e-002	0.	-378.71
30855	17.237	0.	0.	0.35203
30856	17.057	0.	0.	-6.1236
30857	17.418	0.	0.	0.89236
30858	17.598	0.	0.	0.37855
30859	17.778	0.	0.	0.14784
30860	17.959	0.	0.	-4.5045e-002
30861	18.139	0.	0.	-0.15092
30862	18.319	0.	0.	-0.20173
30863	18.5	0.	0.	-0.21189
30864	18.68	0.	0.	-0.19751
30865	18.86	0.	0.	-0.16992
30866	19.041	0.	0.	-0.1372
30867	19.221	0.	0.	-0.10456
30868	19.401	0.	0.	-7.5095e-002
30869	19.582	0.	0.	-5.0471e-002
30870	19.762	0.	0.	-3.1392e-002
30871	19.942	0.	0.	-1.7953e-002
30872	20.123	0.	0.	-9.9131e-003
30873	20.303	0.	0.	-6.8405e-003
30874	20.483	0.	0.	-8.2197e-003
30875	20.664	0.	0.	-1.3542e-002
30876	20.844	0.	0.	-2.2343e-002
30877	21.024	0.	0.	-3.4227e-002
30878	21.205	0.	0.	-4.8857e-002
30879	21.385	0.	0.	-6.5971e-002
30880	21.565	0.	0.	-8.5393e-002
30881	21.746	0.	0.	-0.10704
30882	21.926	0.	0.	-0.13091
30883	22.106	0.	0.	-0.15712
30884	22.287	0.	0.	-0.18593
30885	22.467	0.	0.	-0.21769
30886	22.647	0.	0.	-0.25306
30887	22.828	0.	0.	-0.29285
30888	23.008	0.	0.	-0.33886
30889	23.188	0.	0.	-0.39168
30890	23.369	0.	0.	-0.4625
30891	23.549	0.	0.	-0.53856
30892	23.729	0.	0.	-0.75556
30893	23.91	0.	0.	-0.52996
30894	16.967	9.0909e-002	0.	-0.14562
30895	24.	9.0909e-002	0.	2.4794
30896	5.0067e-014	5.7273	0.	-1764.
30897	4.8478e-014	5.5455	0.	-2566.7
30898	4.6888e-014	5.3636	0.	-2979.8
30899	4.5299e-014	5.1818	0.	-3238.
30900	4.371e-014	5.	0.	-3416.
30901	4.212e-014	4.8182	0.	-3545.5
30902	4.0531e-014	4.6364	0.	-3642.6
30903	3.8941e-014	4.4545	0.	-3716.8
30904	3.7352e-014	4.2727	0.	-3774.1
30905	3.5762e-014	4.0909	0.	-3818.6
30906	3.4173e-014	3.9091	0.	-3853.
30907	3.2583e-014	3.7273	0.	-3879.
30908	3.0994e-014	3.5455	0.	-3898.
30909	2.9405e-014	3.3636	0.	-3911.
30910	2.7815e-014	3.1818	0.	-3918.5
30911	2.6226e-014	3.	0.	-3920.9
30912	2.4636e-014	2.8182	0.	-3918.5
30913	2.3047e-014	2.6364	0.	-3911.
30914	2.1457e-014	2.4545	0.	-3898.
30915	1.9868e-014	2.2727	0.	-3879.
30916	1.8279e-014	2.0909	0.	-3853.
30917	1.6689e-014	1.9091	0.	-3818.6
30918	1.51e-014	1.7273	0.	-3774.1
30919	1.351e-014	1.5455	0.	-3716.8
30920	1.1921e-014	1.3636	0.	-3642.6
30921	1.0331e-014	1.1818	0.	-3545.5
30922	8.7419e-015	1.	0.	-3416.
30923	7.1525e-015	0.81818	0.	-3238.
30924	5.563e-015	0.63636	0.	-2979.8
30925	3.9736e-015	0.45455	0.	-2566.7
30926	2.3842e-015	0.27273	0.	-1764.
30927	24.	0.27273	0.	2.3091
30928	24.	0.45455	0.	2.3883
30929	24.	0.63636	0.	2.4856
30930	24.	0.81818	0.	2.5102
30931	24.	1.	0.	2.5301
30932	24.	1.1818	0.	2.5415
30933	24.	1.3636	0.	2.5492
30934	24.	1.5455	0.	2.5542
30935	24.	1.7273	0.	2.5572
30936	24.	1.9091	0.	2.5591
30937	24.	2.0909	0.	2.5601
30938	24.	2.2727	0.	2.5606
30939	24.	2.4545	0.	2.5607
30940	24.	2.6364	0.	2.5607
30941	24.	2.8182	0.	2.5607
30942	24.	3.	0.	2.5607
30943	24.	3.1818	0.	2.5607
30944	24.	3.3636	0.	2.5607
30945	24.	3.5455	0.	2.5607
30946	24.	3.7273	0.	2.5606
30947	24.	3.9091	0.	2.5601
30948	24.	4.0909	0.	2.5591
30949	24.	4.2727	0.	2.5572
30950	24.	4.4545	0.	2.5541
30951	24.	4.6364	0.	2.5492
30952	24.	4.8182	0.	2.5415
30953	24.	5.	0.	2.5301
30954	24.	5.1818	0.	2.5102
30955	24.	5.3636	0.	2.4856
30956	24.	5.5455	0.	2.3883
30957	24.	5.7273	0.	2.3091
30958	24.	5.9091	0.	2.4794
30959	23.91	6.	0.	-0.52996
30960	23.729	6.	0.	-0.75556
30961	23.549	6.	0.	-0.53856
30962	23.369	6.	0.	-0.4625
30963	23.188	6.	0.	-0.39168
30964	23.008	6.	0.	-0.33886
30965	22.828	6.	0.	-0.29285
30966	22.647	6.	0.	-0.25305
30967	22.467	6.	0.	-0.21769
30968	22.287	6.	0.	-0.18592
30969	22.106	6.	0.	-0.15712
30970	21.926	6.	0.	-0.13091
30971	21.746	6.	0.	-0.10704
30972	21.565	6.	0.	-8.5394e-002
30973	21.385	6.	0.	-6.5971e-002
30974	21.205	6.	0.	-4.8856e-002
30975	21.024	6.	0.	-3.4225e-002
30976	20.844	6.	0.	-2.2341e-002
30977	20.664	6.	0.	-1.3539e-002
30978	20.483	6.	0.	-8.2183e-003
30979	20.303	6.	0.	-6.8405e-003
30980	20.123	6.	0.	-9.9145e-003
30981	19.942	6.	0.	-1.7953e-002
30982	19.762	6.	0.	-3.139e-002
30983	19.582	6.	0.	-5.0471e-002
30984	19.401	6.	0.	-7.5095e-002
30985	19.221	6.	0.	-0.10456
30986	19.041	6.	0.	-0.1372
30987	18.86	6.	0.	-0.16992
30988	18.68	6.	0.	-0.19751
30989	18.5	6.	0.	-0.21188
30990	18.319	6.	0.	-0.20173
30991	18.139	6.	0.	-0.15092
30992	17.959	6.	0.	-4.5044e-002
30993	17.778	6.	0.	0.14784
30994	17.598	6.	0.	0.37856
30995	17.418	6.	0.	0.89236
30996	17.237	6.	0.	0.35203
30997	17.057	6.	0.	-6.1236
30998	16.967	5.9091	0.	-0.14561
30999	16.8	1.7273	0.	22.49
31000	16.8	1.9091	0.	-401.94
31001	16.8	1.5455	0.	31.252
31002	16.8	1.3636	0.	13.705
31003	16.8	1.1818	0.	12.578
31004	16.8	1.	0.	9.85
31005	16.8	0.81818	0.	8.7974
31006	16.8	0.63636	0.	7.8457
31007	16.8	0.45455	0.	7.4158
31008	16.8	0.27273	0.	6.6648
31009	16.883	2.	0.	-759.56
31010	16.967	0.27273	0.	4.6455
31011	16.967	0.45455	0.	5.3715
31012	16.967	0.63636	0.	5.7467
31013	16.967	0.81818	0.	6.6244
31014	16.967	1.	0.	7.6751
31015	16.967	1.1818	0.	10.165
31016	16.967	1.3636	0.	11.656
31017	16.967	1.5455	0.	28.883
31018	16.967	1.7273	0.	26.013
31019	16.967	1.9091	0.	-548.96
31020	16.8	4.2727	0.	22.49
31021	16.8	4.0909	0.	-401.94
31022	16.8	4.4545	0.	31.252
31023	16.8	4.6364	0.	13.705
31024	16.8	4.8182	0.	12.578
31025	16.8	5.	0.	9.85
31026	16.8	5.1818	0.	8.7974
31027	16.8	5.3636	0.	7.8457
31028	16.8	5.5455	0.	7.4158
31029	16.8	5.7273	0.	6.6648
31030	16.883	4.	0.	-759.56
31031	16.967	5.7273	0.	4.6455
31032	16.967	5.5455	0.	5.3715
31033	16.967	5.3636	0.	5.7467
31034	16.967	5.1818	0.	6.6244
31035	16.967	5.	0.	7.6751
31036	16.967	4.8182	0.	10.165
31037	16.967	4.6364	0.	11.656
31038	16.967	4.4545	0.	28.883
31039	16.967	4.2727	0.	26.013
31040	16.967	4.0909	0.	-548.96
