Node Number	X Location (in)	Y Location (in)	Z Location (in)	Minimum Principal Stress (psi)
1	2.9906	2.9945	0.	-8253.2
2	4.1424	3.0775	0.	-8574.7
3	4.4347	2.0481	0.	-7743.1
4	4.8296	2.869	0.	-6334.4
5	2.3328	1.7027	0.	-8181.6
6	2.3241	0.66434	0.	-5670.1
7	2.1818	5.1955	0.	-5115.5
8	4.299	5.0342	0.	-3195.1
9	4.6651	4.464	0.	-6456.4
10	4.7893	0.79519	0.	-3980.6
11	4.4962	5.4616	0.	-4119.
12	5.8413	1.0304	0.	-4455.2
13	1.0679	2.472	0.	-5956.9
14	1.2202	1.2141	0.	-5443.
15	1.0825	4.9367	0.	-5510.
16	6.9186	1.1532	0.	-4270.6
17	8.029	1.1568	0.	-3953.6
18	9.1974	1.1827	0.	-3604.4
19	10.355	1.1896	0.	-3275.
20	11.507	1.1905	0.	-2958.4
21	12.656	1.1836	0.	-2648.9
22	13.789	1.1832	0.	-2352.
23	14.921	1.1828	0.	-2062.3
24	16.054	1.1906	0.	-1779.7
25	17.186	1.1905	0.	-1504.8
26	18.32	1.1907	0.	-1237.
27	19.455	1.191	0.	-976.33
28	20.59	1.1916	0.	-722.37
29	21.726	1.1927	0.	-475.22
30	22.862	1.1955	0.	-236.93
31	1.2272	3.7408	0.	-6308.8
32	22.853	2.3939	0.	-243.22
33	22.85	3.6005	0.	-243.89
34	22.856	4.7961	0.	-238.33
35	21.715	4.81	0.	-477.82
36	20.576	4.8114	0.	-725.56
37	19.44	4.8118	0.	-979.81
38	18.304	4.8118	0.	-1240.5
39	17.177	4.7992	0.	-1506.9
40	16.038	4.7948	0.	-1783.7
41	14.898	4.7883	0.	-2068.2
42	13.772	4.7881	0.	-2356.3
43	12.634	4.7831	0.	-2655.7
44	11.485	4.7763	0.	-2966.7
45	10.321	4.7698	0.	-3290.1
46	9.152	4.7617	0.	-3617.4
47	7.9965	4.7661	0.	-3920.9
48	5.7956	3.6318	0.	-4594.9
49	5.6924	4.8618	0.	-4309.5
50	6.8234	2.3186	0.	-4266.5
51	6.8135	3.5637	0.	-4392.1
52	7.9071	2.3375	0.	-3937.8
53	9.1188	2.3661	0.	-3613.3
54	10.313	2.3649	0.	-3282.2
55	11.483	2.3746	0.	-2959.9
56	12.634	2.3807	0.	-2650.
57	13.772	2.3869	0.	-2351.6
58	14.903	2.3904	0.	-2062.2
59	16.033	2.3925	0.	-1780.9
60	17.163	2.3876	0.	-1506.7
61	18.298	2.3879	0.	-1239.
62	19.434	2.3884	0.	-979.12
63	20.571	2.3894	0.	-726.98
64	21.711	2.391	0.	-482.31
65	21.706	3.599	0.	-483.36
66	20.567	3.6002	0.	-727.96
67	19.429	3.6	0.	-980.06
68	18.293	3.5998	0.	-1240.1
69	17.164	3.5983	0.	-1506.4
70	16.032	3.5949	0.	-1780.7
71	14.892	3.5832	0.	-2065.2
72	13.76	3.5768	0.	-2354.9
73	12.624	3.5694	0.	-2652.5
74	11.471	3.5621	0.	-2960.8
75	10.296	3.5664	0.	-3282.1
76	9.0922	3.5521	0.	-3625.5
77	7.9546	3.5626	0.	-3993.1
78	4.8364	3.7281	0.	-5706.
79	2.6072	1.1235	0.	-4929.8
80	2.1564	2.4588	0.	-6544.2
81	2.1981	3.2001	0.	-7802.9
82	2.6072	3.9637	0.	-8421.5
83	3.5635	2.9981	0.	-9980.
84	3.0186	3.61	0.	-8366.1
85	4.6873	1.5169	0.	-5269.
86	4.0921	2.4012	0.	-7180.4
87	5.6776	2.267	0.	-5055.7
88	2.3634	4.5135	0.	-6423.
89	6.8968	4.7984	0.	-4140.2
90	6.8968	4.7984	0.1	-138.26
91	2.3634	4.5135	0.1	185.54
92	5.6776	2.267	0.1	12.341
93	4.0921	2.4012	0.1	-1170.8
94	4.6873	1.5169	0.1	-458.77
95	3.0186	3.61	0.1	-1527.5
96	3.5635	2.9981	0.1	-2778.2
97	2.6072	3.9637	0.1	-114.1
98	2.1981	3.2001	0.1	322.44
99	2.1564	2.4588	0.1	403.67
100	2.6072	1.1235	0.1	-380.76
101	4.8364	3.7281	0.1	101.55
102	7.9546	3.5626	0.1	17.952
103	9.0922	3.5521	0.1	1.0573
104	10.296	3.5664	0.1	-1.4407
105	11.471	3.5621	0.1	-0.78942
106	12.624	3.5694	0.1	-0.13047
107	13.76	3.5768	0.1	-2.6072
108	14.892	3.5832	0.1	-8.9733
109	16.032	3.5949	0.1	-13.979
110	17.164	3.5983	0.1	-19.522
111	18.293	3.5998	0.1	-26.882
112	19.429	3.6	0.1	-37.715
113	20.567	3.6002	0.1	-54.613
114	21.706	3.599	0.1	-81.587
115	21.711	2.391	0.1	-81.422
116	20.571	2.3894	0.1	-54.554
117	19.434	2.3884	0.1	-37.75
118	18.298	2.3879	0.1	-27.007
119	17.163	2.3876	0.1	-19.93
120	16.033	2.3925	0.1	-14.363
121	14.903	2.3904	0.1	-8.8699
122	13.772	2.3869	0.1	-2.6401
123	12.634	2.3807	0.1	-0.17206
124	11.483	2.3746	0.1	0.93782
125	10.313	2.3649	0.1	0.77794
126	9.1188	2.3661	0.1	1.3787
127	7.9071	2.3375	0.1	-23.775
128	6.8135	3.5637	0.1	37.615
129	6.8234	2.3186	0.1	-20.663
130	5.6924	4.8618	0.1	114.25
131	5.7956	3.6318	0.1	-200.16
132	7.9965	4.7661	0.1	-8.1419
133	9.152	4.7617	0.1	-4.7699
134	10.321	4.7698	0.1	1.9551
135	11.485	4.7763	0.1	0.14758
136	12.634	4.7831	0.1	-1.3252
137	13.772	4.7881	0.1	-7.0259
138	14.898	4.7883	0.1	-11.759
139	16.038	4.7948	0.1	-15.576
140	17.177	4.7992	0.1	-19.476
141	18.304	4.8118	0.1	-24.446
142	19.44	4.8118	0.1	-30.98
143	20.576	4.8114	0.1	-41.079
144	21.715	4.81	0.1	-56.524
145	22.856	4.7961	0.1	-84.717
146	22.85	3.6005	0.1	-124.03
147	22.853	2.3939	0.1	-123.99
148	1.2272	3.7408	0.1	-940.7
149	22.862	1.1955	0.1	-84.509
150	21.726	1.1927	0.1	-57.022
151	20.59	1.1916	0.1	-41.132
152	19.455	1.191	0.1	-31.026
153	18.32	1.1907	0.1	-24.126
154	17.186	1.1905	0.1	-19.291
155	16.054	1.1906	0.1	-15.272
156	14.921	1.1828	0.1	-11.467
157	13.789	1.1832	0.1	-7.3402
158	12.656	1.1836	0.1	-1.3613
159	11.507	1.1905	0.1	-0.47597
160	10.355	1.1896	0.1	-0.78717
161	9.1974	1.1827	0.1	-0.34296
162	8.029	1.1568	0.1	10.711
163	6.9186	1.1532	0.1	14.609
164	1.0825	4.9367	0.1	-1044.2
165	1.2202	1.2141	0.1	-783.78
166	1.0679	2.472	0.1	-1401.5
167	5.8413	1.0304	0.1	-25.394
168	4.4962	5.4616	0.1	-462.78
169	4.7893	0.79519	0.1	-278.69
170	4.6651	4.464	0.1	-647.06
171	4.299	5.0342	0.1	-522.
172	2.1818	5.1955	0.1	87.489
173	2.3241	0.66434	0.1	2.226
174	2.3328	1.7027	0.1	410.57
175	4.8296	2.869	0.1	-268.27
176	4.4347	2.0481	0.1	26.777
177	4.1424	3.0775	0.1	-496.26
178	2.9906	2.9945	0.1	-805.38
179	3.6067	4.	0.1	-1039.8
180	3.6067	4.5	0.1	-4856.7
181	3.6067	5.	0.1	-1825.8
182	3.6067	5.5	0.1	-738.13
183	3.44	5.5	0.1	-816.02
184	3.44	5.	0.1	-1807.1
185	3.44	4.5	0.1	-5233.7
186	3.44	4.	0.1	58.113
187	3.6067	2.	0.1	-293.55
188	3.6067	1.5	0.1	-4567.6
189	3.6067	1.	0.1	-1507.3
190	3.6067	0.5	0.1	-761.02
191	3.44	0.5	0.1	-1199.1
192	3.44	1.	0.1	-1449.6
193	3.44	1.5	0.1	-6199.1
194	3.44	2.	0.1	805.86
195	3.6067	6.	0.1	-310.6
196	4.7396	6.	0.1	-17.676
197	5.8726	6.	0.1	-83.826
198	7.0056	6.	0.1	-77.963
199	8.1385	6.	0.1	30.356
200	9.2715	6.	0.1	-6.234
201	10.404	6.	0.1	-5.8574
202	11.537	6.	0.1	-7.2819
203	12.67	6.	0.1	-7.7461
204	13.803	6.	0.1	-8.4784
205	14.936	6.	0.1	-9.6129
206	16.069	6.	0.1	-10.392
207	17.202	6.	0.1	-11.578
208	18.335	6.	0.1	-12.873
209	19.468	6.	0.1	-14.065
210	20.601	6.	0.1	-15.349
211	21.734	6.	0.1	-15.202
212	22.867	6.	0.1	-14.592
213	24.	6.	0.1	-20.685
214	24.	4.8	0.1	-144.49
215	24.	3.6	0.1	-184.62
216	24.	2.4	0.1	-184.75
217	24.	1.2	0.1	-144.28
218	0.	1.2	0.1	3422.1
219	0.	2.4	0.1	3812.6
220	0.	3.6	0.1	3514.
221	0.	4.8	0.1	3675.1
222	24.	0.	0.1	-20.74
223	22.867	0.	0.1	-14.616
224	21.734	0.	0.1	-15.076
225	20.601	0.	0.1	-15.312
226	19.468	0.	0.1	-14.223
227	18.335	0.	0.1	-12.949
228	17.202	0.	0.1	-11.844
229	16.069	0.	0.1	-10.567
230	14.936	0.	0.1	-9.8521
231	13.803	0.	0.1	-8.7838
232	12.67	0.	0.1	-7.6648
233	11.537	0.	0.1	-7.1846
234	10.404	0.	0.1	-4.0998
235	9.2715	0.	0.1	-16.709
236	8.1385	0.	0.1	-3.3347
237	7.0056	0.	0.1	-74.838
238	5.8726	0.	0.1	7.7668
239	4.7396	0.	0.1	-70.533
240	3.6067	0.	0.1	11.635
241	3.44	0.	0.1	-375.75
242	2.2933	0.	0.1	-25.717
243	1.1467	0.	0.1	-672.53
244	0.	0.	0.1	962.42
245	0.	6.	0.1	930.38
246	1.1467	6.	0.1	-479.79
247	2.2933	6.	0.1	-35.483
248	3.44	6.	0.1	-211.85
249	2.2933	6.	0.	-4309.3
250	1.1467	6.	0.	-6138.8
251	3.44	6.	0.	-326.16
252	0.	6.	0.	-2569.3
253	1.1467	0.	0.	-6103.7
254	2.2933	0.	0.	-4480.8
255	3.44	0.	0.	-706.01
256	0.	0.	0.	-2745.2
257	4.7396	0.	0.	-3282.9
258	5.8726	0.	0.	-4240.3
259	7.0056	0.	0.	-4189.7
260	8.1385	0.	0.	-3906.6
261	9.2715	0.	0.	-3594.
262	10.404	0.	0.	-3274.9
263	11.537	0.	0.	-2958.
264	12.67	0.	0.	-2650.9
265	13.803	0.	0.	-2351.2
266	14.936	0.	0.	-2060.2
267	16.069	0.	0.	-1777.1
268	17.202	0.	0.	-1501.6
269	18.335	0.	0.	-1233.1
270	19.468	0.	0.	-971.44
271	20.601	0.	0.	-716.36
272	21.734	0.	0.	-466.71
273	22.867	0.	0.	-218.84
274	3.6067	0.	0.	-192.56
275	24.	0.	0.	-12.181
276	0.	4.8	0.	-7476.7
277	0.	3.6	0.	-7302.1
278	0.	2.4	0.	-7874.5
279	0.	1.2	0.	-7164.9
280	24.	1.2	0.	-2.685
281	24.	2.4	0.	-3.4698
282	24.	3.6	0.	-3.8505
283	24.	4.8	0.	-2.9388
284	24.	6.	0.	-11.404
285	22.867	6.	0.	-218.74
286	21.734	6.	0.	-466.63
287	20.601	6.	0.	-716.27
288	19.468	6.	0.	-971.45
289	18.335	6.	0.	-1233.3
290	17.202	6.	0.	-1502.
291	16.069	6.	0.	-1777.5
292	14.936	6.	0.	-2060.4
293	13.803	6.	0.	-2352.1
294	12.67	6.	0.	-2651.2
295	11.537	6.	0.	-2958.3
296	10.404	6.	0.	-3274.9
297	9.2715	6.	0.	-3601.3
298	8.1385	6.	0.	-3961.9
299	7.0056	6.	0.	-4313.6
300	5.8726	6.	0.	-4051.6
301	4.7396	6.	0.	-3463.5
302	3.6067	6.	0.	-770.81
303	3.44	1.5	0.	-4678.8
304	3.44	1.	0.	-3827.3
305	3.44	0.5	0.	-1512.8
306	3.44	2.	0.	-18308
307	3.6067	0.5	0.	-1560.
308	3.6067	1.	0.	-3410.7
309	3.6067	1.5	0.	-5549.9
310	3.6067	2.	0.	-20540
311	3.44	4.5	0.	-6439.8
312	3.44	5.	0.	-3913.1
313	3.44	5.5	0.	-2025.6
314	3.44	4.	0.	-21564
315	3.6067	5.5	0.	-834.18
316	3.6067	5.	0.	-3115.1
317	3.6067	4.5	0.	-3921.4
318	3.6067	4.	0.	-16733
319	2.5943	3.0973	0.	-7990.4
320	3.2771	2.9963	0.	-9101.4
321	3.0046	3.3023	0.	-7924.2
322	2.9906	2.9945	5.e-002	-80.224
323	3.2153	2.4973	0.	-13184
324	4.486	2.9733	0.	-7447.
325	3.8529	3.0378	0.	-9273.8
326	4.1172	2.7393	0.	-7653.8
327	4.1424	3.0775	5.e-002	-55.679
328	3.8745	3.5387	0.	-12468
329	4.6321	2.4586	0.	-7018.1
330	4.561	1.7825	0.	-6505.
331	4.2634	2.2247	0.	-7405.7
332	4.4347	2.0481	5.e-002	-67.8
333	4.0207	1.7741	0.	-5950.4
334	4.833	3.2986	0.	-6006.6
335	5.2536	2.568	0.	-5693.3
336	4.8296	2.869	5.e-002	-238.41
337	1.7765	1.4584	0.	-6811.
338	2.47	1.4131	0.	-6346.8
339	2.2446	2.0807	0.	-7357.6
340	2.3328	1.7027	5.e-002	-236.53
341	2.8864	1.6013	0.	-5413.8
342	1.7721	0.93919	0.	-5545.1
343	2.4656	0.89394	0.	-5202.5
344	2.3241	0.66434	5.e-002	-50.916
345	2.3087	0.33217	0.	-5071.6
346	2.8821	0.58217	0.	-2855.
347	1.6321	5.0661	0.	-5298.4
348	2.2726	4.8545	0.	-5769.
349	2.1818	5.1955	5.e-002	-50.083
350	2.2376	5.5978	0.	-4700.3
351	2.8109	5.3478	0.	-3217.5
352	4.4821	4.7491	0.	-4661.8
353	4.3976	5.2479	0.	-3592.4
354	4.299	5.0342	5.e-002	-346.37
355	3.9528	5.0171	0.	-3061.3
356	5.1788	4.6629	0.	-5373.7
357	4.7508	4.0961	0.	-6070.2
358	4.6651	4.464	5.e-002	-178.13
359	4.1359	4.482	0.	-4255.9
360	5.3153	0.9128	0.	-4198.
361	4.7383	1.156	0.	-4624.7
362	4.7893	0.79519	5.e-002	-24.27
363	4.7645	0.39759	0.	-3625.2
364	4.198	0.64759	0.	-2388.1
365	5.0943	5.1617	0.	-4168.6
366	4.4962	5.4616	5.e-002	-36.692
367	4.6179	5.7308	0.	-3769.
368	4.0514	5.4808	0.	-1873.
369	6.38	1.0918	0.	-4362.
370	5.7594	1.6487	0.	-4755.1
371	5.8413	1.0304	5.e-002	-17.047
372	5.857	0.51521	0.	-4347.5
373	1.144	1.843	0.	-5680.4
374	1.1476	3.1064	0.	-6126.5
375	1.6121	2.4654	0.	-6244.
376	1.0679	2.472	5.e-002	-88.024
377	0.53394	2.436	0.	-6914.7
378	1.2202	1.2141	5.e-002	-72.306
379	1.1834	0.60703	0.	-5766.6
380	0.61009	1.207	0.	-6287.3
381	1.1548	4.3388	0.	-5898.5
382	1.0825	4.9367	5.e-002	-17.7
383	1.1146	5.4684	0.	-5819.1
384	0.54124	4.8684	0.	-6473.8
385	7.4738	1.155	0.	-4112.
386	6.871	1.7359	0.	-4268.5
387	6.9186	1.1532	5.e-002	-5.9479
388	6.9621	0.57659	0.	-4230.1
389	8.6132	1.1698	0.	-3778.9
390	7.9681	1.7472	0.	-3945.6
391	8.029	1.1568	5.e-002	-5.4105
392	8.0837	0.57841	0.	-3929.9
393	9.7764	1.1861	0.	-3439.6
394	9.1581	1.7744	0.	-3608.7
395	9.1974	1.1827	5.e-002	-1.8183
396	9.2345	0.59135	0.	-3599.1
397	10.931	1.19	0.	-3116.7
398	10.334	1.7773	0.	-3278.3
399	10.355	1.1896	5.e-002	-1.8661
400	10.38	0.59479	0.	-3274.8
401	12.081	1.187	0.	-2803.6
402	11.495	1.7825	0.	-2958.7
403	11.507	1.1905	5.e-002	-1.5519
404	11.522	0.59523	0.	-2958.1
405	13.223	1.1834	0.	-2500.4
406	12.645	1.7822	0.	-2649.
407	12.656	1.1836	5.e-002	-1.2445
408	12.663	0.59181	0.	-2649.8
409	14.355	1.183	0.	-2207.2
410	13.78	1.785	0.	-2351.2
411	13.789	1.1832	5.e-002	-1.1326
412	13.796	0.5916	0.	-2351.5
413	15.487	1.1867	0.	-1921.
414	14.912	1.7866	0.	-2061.6
415	14.921	1.1828	5.e-002	-1.0049
416	14.929	0.5914	0.	-2061.1
417	16.62	1.1905	0.	-1642.2
418	16.043	1.7915	0.	-1779.6
419	16.054	1.1906	5.e-002	-1.1059
420	16.061	0.59528	0.	-1778.2
421	17.753	1.1906	0.	-1370.9
422	17.174	1.789	0.	-1505.
423	17.186	1.1905	5.e-002	-1.1489
424	17.194	0.59524	0.	-1503.
425	18.887	1.1908	0.	-1106.6
426	18.309	1.7893	0.	-1237.2
427	18.32	1.1907	5.e-002	-1.1642
428	18.328	0.59533	0.	-1234.8
429	20.022	1.1913	0.	-849.32
430	19.444	1.7897	0.	-976.84
431	19.455	1.191	5.e-002	-1.1878
432	19.461	0.5955	0.	-973.58
433	21.158	1.1921	0.	-598.78
434	20.581	1.7905	0.	-723.77
435	20.59	1.1916	5.e-002	-1.2985
436	20.596	0.59579	0.	-718.93
437	22.294	1.1941	0.	-356.07
438	21.719	1.7919	0.	-477.93
439	21.726	1.1927	5.e-002	-1.6002
440	21.73	0.59634	0.	-470.21
441	22.858	1.7947	0.	-239.54
442	22.862	1.1955	5.e-002	-2.2839
443	22.865	0.59775	0.	-226.42
444	23.431	1.1977	0.	-118.05
445	1.7126	3.4704	0.	-7052.7
446	1.7953	4.1271	0.	-6317.1
447	1.2272	3.7408	5.e-002	-41.85
448	0.61361	3.6704	0.	-6799.4
449	22.852	2.9972	0.	-243.24
450	22.282	2.3925	0.	-362.76
451	22.853	2.3939	5.e-002	-2.4019
452	23.427	2.3969	0.	-122.26
453	22.853	4.1983	0.	-240.57
454	22.278	3.5997	0.	-363.62
455	22.85	3.6005	5.e-002	-2.4366
456	23.425	3.6003	0.	-122.86
457	22.285	4.803	0.	-358.07
458	22.856	4.7961	5.e-002	-2.2986
459	23.428	4.7981	0.	-119.02
460	22.862	5.3981	0.	-227.09
461	21.145	4.8107	0.	-601.67
462	21.71	4.2045	0.	-479.73
463	21.715	4.81	5.e-002	-1.5528
464	21.724	5.405	0.	-471.47
465	20.008	4.8116	0.	-852.65
466	20.572	4.2058	0.	-725.81
467	20.576	4.8114	5.e-002	-1.24
468	20.589	5.4057	0.	-720.49
469	18.872	4.8118	0.	-1110.1
470	19.435	4.2059	0.	-979.01
471	19.44	4.8118	5.e-002	-1.1233
472	19.454	5.4059	0.	-975.34
473	17.741	4.8055	0.	-1373.7
474	18.299	4.2058	0.	-1239.5
475	18.304	4.8118	5.e-002	-1.0991
476	18.32	5.4059	0.	-1236.7
477	16.607	4.797	0.	-1645.3
478	17.17	4.1988	0.	-1505.8
479	17.177	4.7992	5.e-002	-1.2259
480	17.189	5.3996	0.	-1504.3
481	15.468	4.7916	0.	-1925.9
482	16.035	4.1949	0.	-1781.5
483	16.038	4.7948	5.e-002	-1.217
484	16.054	5.3974	0.	-1780.4
485	14.335	4.7882	0.	-2212.2
486	14.895	4.1858	0.	-2066.1
487	14.898	4.7883	5.e-002	-1.3886
488	14.917	5.3941	0.	-2064.1
489	13.203	4.7856	0.	-2506.
490	13.766	4.1824	0.	-2355.
491	13.772	4.7881	5.e-002	-1.4416
492	13.788	5.394	0.	-2354.1
493	12.059	4.7797	0.	-2811.2
494	12.629	4.1763	0.	-2653.6
495	12.634	4.7831	5.e-002	-1.5709
496	12.652	5.3916	0.	-2653.3
497	10.903	4.7731	0.	-3128.4
498	11.478	4.1692	0.	-2963.3
499	11.485	4.7763	5.e-002	-2.116
500	11.511	5.3882	0.	-2962.4
501	9.7366	4.7657	0.	-3453.7
502	10.309	4.1681	0.	-3285.7
503	10.321	4.7698	5.e-002	-3.2307
504	10.363	5.3849	0.	-3282.3
505	8.5742	4.7639	0.	-3769.1
506	9.1221	4.1569	0.	-3621.2
507	9.152	4.7617	5.e-002	-5.4056
508	9.2118	5.3808	0.	-3609.3
509	7.9755	4.1644	0.	-3956.8
510	7.4466	4.7823	0.	-4030.5
511	7.9965	4.7661	5.e-002	-7.0324
512	8.0675	5.3831	0.	-3941.3
513	5.744	4.2468	0.	-4447.4
514	6.3045	3.5978	0.	-4493.2
515	5.316	3.68	0.	-5144.6
516	5.7366	2.9494	0.	-4824.6
517	5.7956	3.6318	5.e-002	-108.8
518	6.2946	4.8301	0.	-4223.1
519	5.6924	4.8618	5.e-002	-48.525
520	5.7825	5.4309	0.	-4177.7
521	6.8184	2.9411	0.	-4329.2
522	7.3653	2.328	0.	-4102.1
523	6.2505	2.2928	0.	-4660.8
524	6.8234	2.3186	5.e-002	-6.4445
525	7.3841	3.5631	0.	-4192.5
526	6.8551	4.181	0.	-4265.9
527	6.8135	3.5637	5.e-002	-37.063
528	8.513	2.3518	0.	-3775.5
529	7.9309	2.9501	0.	-3965.3
530	7.9071	2.3375	5.e-002	-6.0463
531	9.7157	2.3655	0.	-3447.7
532	9.1055	2.9591	0.	-3619.2
533	9.1188	2.3661	5.e-002	-3.9673
534	10.898	2.3698	0.	-3121.
535	10.304	2.9657	0.	-3281.8
536	10.313	2.3649	5.e-002	-2.9918
537	12.059	2.3776	0.	-2805.
538	11.477	2.9683	0.	-2959.9
539	11.483	2.3746	5.e-002	-2.1175
540	13.203	2.3838	0.	-2500.8
541	12.629	2.975	0.	-2650.8
542	12.634	2.3807	5.e-002	-1.8529
543	14.337	2.3886	0.	-2206.9
544	13.766	2.9818	0.	-2352.7
545	13.772	2.3869	5.e-002	-1.579
546	15.468	2.3914	0.	-1921.5
547	14.898	2.9868	0.	-2063.1
548	14.903	2.3904	5.e-002	-1.4982
549	16.598	2.39	0.	-1643.8
550	16.033	2.9937	0.	-1780.1
551	16.033	2.3925	5.e-002	-1.3803
552	17.73	2.3877	0.	-1372.9
553	17.163	2.993	0.	-1505.8
554	17.163	2.3876	5.e-002	-1.2665
555	18.866	2.3881	0.	-1109.1
556	18.296	2.9938	0.	-1238.8
557	18.298	2.3879	5.e-002	-1.301
558	20.003	2.3889	0.	-853.05
559	19.432	2.9942	0.	-978.76
560	19.434	2.3884	5.e-002	-1.417
561	21.141	2.3902	0.	-604.64
562	20.569	2.9948	0.	-726.7
563	20.571	2.3894	5.e-002	-1.5674
564	21.709	2.995	0.	-482.24
565	21.711	2.391	5.e-002	-1.9942
566	21.137	3.5996	0.	-605.66
567	21.706	3.599	5.e-002	-2.0086
568	19.998	3.6001	0.	-854.01
569	20.567	3.6002	5.e-002	-1.5435
570	18.861	3.5999	0.	-1110.1
571	19.429	3.6	5.e-002	-1.36
572	17.729	3.5991	0.	-1373.2
573	18.293	3.5998	5.e-002	-1.2825
574	16.598	3.5966	0.	-1643.5
575	17.164	3.5983	5.e-002	-1.3105
576	15.462	3.5891	0.	-1923.
577	16.032	3.5949	5.e-002	-1.3617
578	14.326	3.58	0.	-2210.1
579	14.892	3.5832	5.e-002	-1.3873
580	13.192	3.5731	0.	-2503.7
581	13.76	3.5768	5.e-002	-1.5447
582	12.048	3.5657	0.	-2806.7
583	12.624	3.5694	5.e-002	-1.7428
584	10.884	3.5643	0.	-3121.4
585	11.471	3.5621	5.e-002	-1.8677
586	9.6941	3.5593	0.	-3453.8
587	10.296	3.5664	5.e-002	-1.6363
588	8.5234	3.5573	0.	-3809.3
589	9.0922	3.5521	5.e-002	-1.3808
590	7.9546	3.5626	5.e-002	-2.0348
591	4.8364	3.7281	5.e-002	-85.495
592	4.2215	3.8641	0.	-11121
593	2.6072	1.1235	5.e-002	-280.02
594	3.0236	1.0618	0.	-4270.
595	2.1772	2.8294	0.	-7128.1
596	2.1564	2.4588	5.e-002	-93.237
597	2.7982	2.2294	0.	-12383
598	2.4026	3.5819	0.	-8087.9
599	2.1981	3.2001	5.e-002	-239.96
600	2.8129	3.7869	0.	-8341.5
601	2.4853	4.2386	0.	-7419.4
602	2.6072	3.9637	5.e-002	-124.09
603	3.0236	4.2319	0.	-6769.6
604	3.5635	2.9981	5.e-002	-53.165
605	3.5851	2.4991	0.	-15172
606	3.5018	3.4991	0.	-15679
607	3.0186	3.61	5.e-002	-464.76
608	3.2293	3.805	0.	-14846
609	5.1824	1.8919	0.	-5134.7
610	4.6873	1.5169	5.e-002	-100.94
611	4.147	1.2584	0.	-3809.4
612	4.0921	2.4012	5.e-002	-337.55
613	3.8494	2.2006	0.	-13794
614	5.6776	2.267	5.e-002	-6.5161
615	2.3634	4.5135	5.e-002	-116.03
616	2.9017	4.7567	0.	-4545.1
617	6.8968	4.7984	5.e-002	-10.649
618	6.9512	5.3992	0.	-4226.7
619	6.8551	4.181	0.1	-50.18
620	6.2946	4.8301	0.1	-4.4573
621	7.4466	4.7823	0.1	-73.021
622	6.9512	5.3992	0.1	-57.467
623	2.4853	4.2386	0.1	130.61
624	1.7953	4.1271	0.1	-276.75
625	2.2726	4.8545	0.1	139.16
626	2.9017	4.7567	0.1	-167.42
627	5.1824	1.8919	0.1	-19.534
628	6.2505	2.2928	0.1	-4.1535
629	5.7366	2.9494	0.1	-93.31
630	5.7594	1.6487	0.1	11.735
631	5.2536	2.568	0.1	-95.495
632	4.2634	2.2247	0.1	-38.746
633	4.1172	2.7393	0.1	-339.97
634	3.8494	2.2006	0.1	159.35
635	4.7383	1.156	0.1	-366.69
636	4.561	1.7825	0.1	-2.0959
637	4.147	1.2584	0.1	-444.83
638	2.8129	3.7869	0.1	-7.5667
639	3.0046	3.3023	0.1	-799.67
640	3.2293	3.805	0.1	224.61
641	3.8529	3.0378	0.1	-1338.3
642	3.2771	2.9963	0.1	-1776.8
643	3.5018	3.4991	0.1	-201.67
644	3.5851	2.4991	0.1	-308.5
645	2.4026	3.5819	0.1	112.73
646	3.0236	4.2319	0.1	-1109.3
647	2.1772	2.8294	0.1	368.82
648	1.7126	3.4704	0.1	-297.01
649	2.5943	3.0973	0.1	-168.94
650	1.6121	2.4654	0.1	-497.91
651	2.2446	2.0807	0.1	439.35
652	2.7982	2.2294	0.1	823.91
653	2.4656	0.89394	0.1	-54.692
654	2.47	1.4131	0.1	60.184
655	3.0236	1.0618	0.1	-527.58
656	5.316	3.68	0.1	-47.562
657	4.7508	4.0961	0.1	-7.7037
658	4.833	3.2986	0.1	-53.465
659	4.2215	3.8641	0.1	-103.14
660	8.5234	3.5573	0.1	9.5054
661	7.9309	2.9501	0.1	-2.863
662	7.3841	3.5631	0.1	27.866
663	7.9755	4.1644	0.1	5.0286
664	9.6941	3.5593	0.1	-0.19147
665	9.1055	2.9591	0.1	1.2504
666	9.1221	4.1569	0.1	-1.8113
667	10.884	3.5643	0.1	-1.1148
668	10.304	2.9657	0.1	-0.29928
669	10.309	4.1681	0.1	0.29948
670	12.048	3.5657	0.1	-0.45752
671	11.477	2.9683	0.1	0.10602
672	11.478	4.1692	0.1	-0.27272
673	13.192	3.5731	0.1	2.2814e-002
674	12.629	2.975	0.1	-8.4983e-002
675	12.629	4.1763	0.1	-4.9465e-002
676	14.326	3.58	0.1	-5.7807
677	13.766	2.9818	0.1	-1.9638
678	13.766	4.1824	0.1	-4.2287
679	15.462	3.5891	0.1	-11.473
680	14.898	2.9868	0.1	-8.2745
681	14.895	4.1858	0.1	-9.7154
682	16.598	3.5966	0.1	-16.748
683	16.033	2.9937	0.1	-13.469
684	16.035	4.1949	0.1	-14.069
685	17.729	3.5991	0.1	-23.199
686	17.163	2.993	0.1	-18.96
687	17.17	4.1988	0.1	-18.716
688	18.861	3.5999	0.1	-32.296
689	18.296	2.9938	0.1	-26.122
690	18.299	4.2058	0.1	-24.809
691	19.998	3.6001	0.1	-46.162
692	19.432	2.9942	0.1	-36.902
693	19.435	4.2059	0.1	-33.423
694	21.137	3.5996	0.1	-68.1
695	20.569	2.9948	0.1	-53.815
696	20.572	4.2058	0.1	-46.897
697	21.709	2.995	0.1	-80.913
698	21.71	4.2045	0.1	-68.195
699	22.278	3.5997	0.1	-102.81
700	21.141	2.3902	0.1	-67.988
701	22.282	2.3925	0.1	-102.7
702	21.719	1.7919	0.1	-68.381
703	20.003	2.3889	0.1	-46.151
704	20.581	1.7905	0.1	-46.934
705	18.866	2.3881	0.1	-32.376
706	19.444	1.7897	0.1	-33.507
707	17.73	2.3877	0.1	-23.465
708	18.309	1.7893	0.1	-24.743
709	16.598	2.39	0.1	-17.143
710	17.174	1.789	0.1	-18.846
711	15.468	2.3914	0.1	-11.61
712	16.043	1.7915	0.1	-14.111
713	14.337	2.3886	0.1	-5.6983
714	14.912	1.7866	0.1	-9.5225
715	13.203	2.3838	0.1	-0.37959
716	13.78	1.785	0.1	-4.3555
717	12.059	2.3776	0.1	0.40206
718	12.645	1.7822	0.1	-0.14084
719	10.898	2.3698	0.1	0.86033
720	11.495	1.7825	0.1	0.23284
721	9.7157	2.3655	0.1	1.08
722	10.334	1.7773	0.1	-3.0376e-003
723	8.513	2.3518	0.1	-11.198
724	9.1581	1.7744	0.1	0.52854
725	7.3653	2.328	0.1	-22.176
726	7.9681	1.7472	0.1	-6.5291
727	6.8184	2.9411	0.1	8.5897
728	6.3045	3.5978	0.1	-81.04
729	6.871	1.7359	0.1	-2.8856
730	5.744	4.2468	0.1	-34.419
731	5.0943	5.1617	0.1	-105.07
732	5.1788	4.6629	0.1	-230.58
733	5.7825	5.4309	0.1	35.249
734	8.5742	4.7639	0.1	-6.454
735	8.0675	5.3831	0.1	15.039
736	9.7366	4.7657	0.1	-1.4016
737	9.2118	5.3808	0.1	-3.9357
738	10.903	4.7731	0.1	1.061
739	10.363	5.3849	0.1	1.3829
740	12.059	4.7797	0.1	-4.9261e-003
741	11.511	5.3882	0.1	-9.1657e-002
742	13.203	4.7856	0.1	-4.0241
743	12.652	5.3916	0.1	-4.1063
744	14.335	4.7882	0.1	-9.3669
745	13.788	5.394	0.1	-7.522
746	15.468	4.7916	0.1	-13.642
747	14.917	5.3941	0.1	-10.473
748	16.607	4.797	0.1	-17.498
749	16.054	5.3974	0.1	-12.767
750	17.741	4.8055	0.1	-21.928
751	17.189	5.3996	0.1	-15.294
752	18.872	4.8118	0.1	-27.676
753	18.32	5.4059	0.1	-18.381
754	20.008	4.8116	0.1	-35.996
755	19.454	5.4059	0.1	-22.174
756	21.145	4.8107	0.1	-48.785
757	20.589	5.4057	0.1	-27.698
758	22.285	4.803	0.1	-70.619
759	21.724	5.405	0.1	-34.977
760	22.853	4.1983	0.1	-103.84
761	22.862	5.3981	0.1	-48.064
762	23.428	4.7981	0.1	-114.49
763	22.852	2.9972	0.1	-123.7
764	23.425	3.6003	0.1	-154.32
765	22.858	1.7947	0.1	-103.72
766	23.427	2.3969	0.1	-154.37
767	1.1548	4.3388	0.1	-992.4
768	1.1476	3.1064	0.1	-1170.4
769	0.61361	3.6704	0.1	1329.
770	22.294	1.1941	0.1	-70.765
771	23.431	1.1977	0.1	-114.25
772	22.865	0.59775	0.1	-47.963
773	21.158	1.1921	0.1	-49.059
774	21.73	0.59634	0.1	-35.173
775	20.022	1.1913	0.1	-36.046
776	20.596	0.59579	0.1	-27.706
777	18.887	1.1908	0.1	-27.541
778	19.461	0.5955	0.1	-22.277
779	17.753	1.1906	0.1	-21.678
780	18.328	0.59533	0.1	-18.272
781	16.62	1.1905	0.1	-17.256
782	17.194	0.59524	0.1	-15.348
783	15.487	1.1867	0.1	-13.349
784	16.061	0.59528	0.1	-12.734
785	14.355	1.183	0.1	-9.3834
786	14.929	0.5914	0.1	-10.495
787	13.223	1.1834	0.1	-4.3059
788	13.796	0.5916	0.1	-7.9121
789	12.081	1.187	0.1	-0.2703
790	12.663	0.59181	0.1	-4.3349
791	10.931	1.19	0.1	-0.62692
792	11.522	0.59523	0.1	-0.1298
793	9.7764	1.1861	0.1	-0.55986
794	10.38	0.59479	0.1	0.20994
795	8.6132	1.1698	0.1	5.1877
796	9.2345	0.59135	0.1	-0.28522
797	7.4738	1.155	0.1	12.7
798	8.0837	0.57841	0.1	3.879
799	6.38	1.0918	0.1	9.5267
800	6.9621	0.57659	0.1	3.4293
801	1.6321	5.0661	0.1	-387.
802	0.54124	4.8684	0.1	1325.1
803	1.1146	5.4684	0.1	-760.25
804	1.144	1.843	0.1	-1092.1
805	1.7721	0.93919	0.1	-226.84
806	1.7765	1.4584	0.1	-147.51
807	0.61009	1.207	0.1	1372.
808	1.1834	0.60703	0.1	-664.96
809	0.53394	2.436	0.1	1243.5
810	5.3153	0.9128	0.1	-129.84
811	5.857	0.51521	0.1	-6.045
812	4.3976	5.2479	0.1	-354.23
813	4.0514	5.4808	0.1	-45.896
814	4.6179	5.7308	0.1	-214.64
815	4.198	0.64759	0.1	-137.64
816	4.7645	0.39759	0.1	-167.15
817	4.4821	4.7491	0.1	-355.97
818	4.1359	4.482	0.1	-1807.8
819	3.9528	5.0171	0.1	-833.83
820	2.8109	5.3478	0.1	-24.451
821	2.2376	5.5978	0.1	43.963
822	2.8821	0.58217	0.1	84.539
823	2.3087	0.33217	0.1	-0.61689
824	2.8864	1.6013	0.1	-1641.7
825	4.6321	2.4586	0.1	-81.958
826	4.486	2.9733	0.1	-357.35
827	4.0207	1.7741	0.1	-1091.4
828	3.8745	3.5387	0.1	-312.24
829	3.2153	2.4973	0.1	85.632
830	3.6067	4.25	0.1	-2063.
831	3.5233	4.	0.1	439.14
832	3.6067	4.	5.e-002	-269.51
833	3.6067	4.75	0.1	-3313.6
834	3.6067	4.5	5.e-002	-247.22
835	3.6067	5.25	0.1	-1037.4
836	3.6067	5.	5.e-002	-610.54
837	3.6067	5.75	0.1	-167.17
838	3.6067	5.5	5.e-002	-145.2
839	3.44	5.25	0.1	-1306.
840	3.44	5.75	0.1	-304.56
841	3.44	5.5	5.e-002	-93.325
842	3.44	4.75	0.1	-3483.4
843	3.44	5.	5.e-002	-171.
844	3.44	4.25	0.1	-407.04
845	3.44	4.5	5.e-002	-524.98
846	3.44	4.	5.e-002	-807.34
847	3.6067	1.75	0.1	-378.13
848	3.5233	2.	0.1	471.46
849	3.6067	2.	5.e-002	-653.49
850	3.6067	1.25	0.1	-3028.2
851	3.6067	1.5	5.e-002	-425.64
852	3.6067	0.75	0.1	-1125.
853	3.6067	1.	5.e-002	-190.15
854	3.6067	0.25	0.1	-294.22
855	3.6067	0.5	5.e-002	-87.557
856	3.44	0.75	0.1	-1160.7
857	3.44	0.25	0.1	-348.87
858	3.44	0.5	5.e-002	-85.212
859	3.44	1.25	0.1	-3807.1
860	3.44	1.	5.e-002	-506.9
861	3.44	1.75	0.1	-1530.7
862	3.44	1.5	5.e-002	-327.71
863	3.44	2.	5.e-002	-275.79
864	4.1731	6.	0.1	-79.212
865	3.6067	6.	5.e-002	-120.35
866	5.3061	6.	0.1	-49.646
867	4.7396	6.	5.e-002	-105.2
868	6.4391	6.	0.1	-69.724
869	5.8726	6.	5.e-002	-21.03
870	7.572	6.	0.1	-22.094
871	7.0056	6.	5.e-002	-10.399
872	8.705	6.	0.1	12.264
873	8.1385	6.	5.e-002	-12.707
874	9.838	6.	0.1	-5.5385
875	9.2715	6.	5.e-002	-14.269
876	10.971	6.	0.1	-6.5266
877	10.404	6.	5.e-002	-15.067
878	12.104	6.	0.1	-7.4826
879	11.537	6.	5.e-002	-16.024
880	13.237	6.	0.1	-8.0839
881	12.67	6.	5.e-002	-16.408
882	14.37	6.	0.1	-9.0142
883	13.803	6.	5.e-002	-16.308
884	15.503	6.	0.1	-9.9622
885	14.936	6.	5.e-002	-15.876
886	16.636	6.	0.1	-10.94
887	16.069	6.	5.e-002	-15.524
888	17.769	6.	0.1	-12.156
889	17.202	6.	5.e-002	-15.015
890	18.902	6.	0.1	-13.377
891	18.335	6.	5.e-002	-14.705
892	20.035	6.	0.1	-14.562
893	19.468	6.	5.e-002	-13.86
894	21.168	6.	0.1	-15.035
895	20.601	6.	5.e-002	-12.745
896	22.301	6.	0.1	-14.54
897	21.734	6.	5.e-002	-10.71
898	23.434	6.	0.1	-14.2
899	22.867	6.	5.e-002	-7.868
900	24.	5.4	0.1	-76.727
901	24.	6.	5.e-002	-3.9814
902	24.	4.2	0.1	-164.5
903	24.	4.8	5.e-002	-3.2662
904	24.	3.	0.1	-184.55
905	24.	3.6	5.e-002	-3.1265
906	24.	1.8	0.1	-164.5
907	24.	2.4	5.e-002	-3.0306
908	24.	0.6	0.1	-76.57
909	24.	1.2	5.e-002	-3.2151
910	0.	1.8	0.1	3622.1
911	0.	0.6	0.1	2357.9
912	0.	1.2	5.e-002	-222.52
913	0.	3.	0.1	3744.1
914	0.	2.4	5.e-002	-93.717
915	0.	4.2	0.1	3623.5
916	0.	3.6	5.e-002	-224.85
917	0.	5.4	0.1	2351.1
918	0.	4.8	5.e-002	-45.747
919	23.434	0.	0.1	-14.288
920	24.	0.	5.e-002	-4.1125
921	22.301	0.	0.1	-14.477
922	22.867	0.	5.e-002	-7.9711
923	21.168	0.	0.1	-14.959
924	21.734	0.	5.e-002	-10.666
925	20.035	0.	0.1	-14.622
926	20.601	0.	5.e-002	-12.666
927	18.902	0.	0.1	-13.491
928	19.468	0.	5.e-002	-13.761
929	17.769	0.	0.1	-12.33
930	18.335	0.	5.e-002	-14.538
931	16.636	0.	0.1	-11.155
932	17.202	0.	5.e-002	-15.169
933	15.503	0.	0.1	-10.172
934	16.069	0.	5.e-002	-15.679
935	14.37	0.	0.1	-9.2845
936	14.936	0.	5.e-002	-16.337
937	13.237	0.	0.1	-8.1964
938	13.803	0.	5.e-002	-16.604
939	12.104	0.	0.1	-7.3937
940	12.67	0.	5.e-002	-16.698
941	10.971	0.	0.1	-5.6093
942	11.537	0.	5.e-002	-16.499
943	9.838	0.	0.1	-10.345
944	10.404	0.	5.e-002	-16.152
945	8.705	0.	0.1	-5.2852
946	9.2715	0.	5.e-002	-14.791
947	7.572	0.	0.1	-33.346
948	8.1385	0.	5.e-002	-13.227
949	6.4391	0.	0.1	-29.979
950	7.0056	0.	5.e-002	-7.4075
951	5.3061	0.	0.1	-28.28
952	5.8726	0.	5.e-002	-18.279
953	4.1731	0.	0.1	-9.3931
954	4.7396	0.	5.e-002	-24.197
955	3.6067	0.	5.e-002	-28.952
956	2.8667	0.	0.1	-53.976
957	3.44	0.	5.e-002	-160.86
958	1.72	0.	0.1	-344.5
959	2.2933	0.	5.e-002	-142.98
960	0.57333	0.	0.1	207.35
961	1.1467	0.	5.e-002	-33.509
962	0.	0.	5.e-002	-422.28
963	0.57333	6.	0.1	248.79
964	0.	6.	5.e-002	-344.33
965	1.72	6.	0.1	-236.58
966	1.1467	6.	5.e-002	-44.747
967	2.8667	6.	0.1	-20.701
968	2.2933	6.	5.e-002	-113.35
969	3.44	6.	5.e-002	-86.66
970	1.72	6.	0.	-5220.3
971	2.8667	6.	0.	-2221.8
972	0.57333	6.	0.	-4306.
973	3.44	5.75	0.	-928.82
974	0.	5.4	0.	-4920.9
975	1.72	0.	0.	-5290.6
976	0.57333	0.	0.	-4376.
977	2.8667	0.	0.	-2522.1
978	3.44	0.25	0.	-676.57
979	0.	0.6	0.	-4853.7
980	5.3061	0.	0.	-3760.3
981	4.1731	0.	0.	-1714.2
982	6.4391	0.	0.	-4213.4
983	7.572	0.	0.	-4047.8
984	8.705	0.	0.	-3750.3
985	9.838	0.	0.	-3434.4
986	10.971	0.	0.	-3116.4
987	12.104	0.	0.	-2804.4
988	13.237	0.	0.	-2501.
989	14.37	0.	0.	-2205.7
990	15.503	0.	0.	-1918.6
991	16.636	0.	0.	-1639.3
992	17.769	0.	0.	-1367.3
993	18.902	0.	0.	-1102.2
994	20.035	0.	0.	-843.75
995	21.168	0.	0.	-591.3
996	22.301	0.	0.	-342.4
997	23.434	0.	0.	-111.93
998	3.6067	0.25	0.	-791.72
999	24.	0.6	0.	-3.8483
1000	0.	4.2	0.	-7387.2
1001	0.	3.	0.	-7584.2
1002	0.	1.8	0.	-7514.8
1003	24.	1.8	0.	-3.0254
1004	24.	3.	0.	-3.5692
1005	24.	4.2	0.	-3.3172
1006	24.	5.4	0.	-3.8158
1007	23.434	6.	0.	-111.45
1008	22.301	6.	0.	-342.33
1009	21.168	6.	0.	-591.21
1010	20.035	6.	0.	-843.72
1011	18.902	6.	0.	-1102.3
1012	17.769	6.	0.	-1367.6
1013	16.636	6.	0.	-1639.7
1014	15.503	6.	0.	-1918.9
1015	14.37	6.	0.	-2206.2
1016	13.237	6.	0.	-2501.6
1017	12.104	6.	0.	-2804.7
1018	10.971	6.	0.	-3116.5
1019	9.838	6.	0.	-3438.
1020	8.705	6.	0.	-3781.6
1021	7.572	6.	0.	-4137.
1022	6.4391	6.	0.	-4171.8
1023	5.3061	6.	0.	-3757.
1024	4.1731	6.	0.	-2110.8
1025	3.6067	5.75	0.	-402.13
1026	3.44	1.25	0.	-4247.
1027	3.44	1.75	0.	-10327
1028	3.44	0.75	0.	-2529.6
1029	3.5233	2.	0.	-18695
1030	3.6067	0.75	0.	-2478.3
1031	3.6067	1.25	0.	-4470.7
1032	3.6067	1.75	0.	-12037
1033	3.44	4.75	0.	-5137.9
1034	3.44	4.25	0.	-12785
1035	3.44	5.25	0.	-2969.3
1036	3.5233	4.	0.	-18241
1037	3.6067	5.25	0.	-1770.8
1038	3.6067	4.75	0.	-3511.4
1039	3.6067	4.25	0.	-9435.4
