Node Number	X Location (in)	Y Location (in)	Z Location (in)	Equivalent (von-Mises) Stress (psi)
1	22.9	2.1818	0.	1103.9
2	22.9	2.3636	0.	721.23
3	22.9	2.5455	0.	602.09
4	22.9	2.7273	0.	543.52
5	22.9	2.9091	0.	519.07
6	22.9	3.0909	0.	519.07
7	22.9	3.2727	0.	543.52
8	22.9	3.4545	0.	602.09
9	22.9	3.6364	0.	721.23
10	22.9	3.8182	0.	1103.9
11	23.222	2.	0.	768.33
12	23.378	2.	0.	545.74
13	23.533	2.	0.	429.42
14	23.689	2.	0.	368.74
15	23.844	2.	0.	349.87
16	23.844	4.	0.	349.87
17	23.689	4.	0.	368.74
18	23.533	4.	0.	429.42
19	23.378	4.	0.	545.74
20	23.222	4.	0.	768.33
21	22.715	5.8182	0.	72.372
22	22.715	5.6364	0.	111.85
23	22.715	5.4545	0.	163.1
24	22.715	5.2727	0.	222.16
25	22.715	5.0909	0.	289.35
26	22.715	4.9091	0.	366.81
27	22.715	4.7273	0.	458.71
28	22.715	4.5455	0.	574.35
29	22.715	4.3636	0.	728.98
30	22.715	4.1818	0.	965.63
31	22.715	4.	0.	1058.1
32	22.715	3.8182	0.	854.39
33	22.715	3.6364	0.	692.19
34	22.715	3.4545	0.	611.8
35	22.715	3.2727	0.	570.99
36	22.715	3.0909	0.	552.84
37	22.715	2.9091	0.	552.84
38	22.715	2.7273	0.	570.99
39	22.715	2.5455	0.	611.8
40	22.715	2.3636	0.	692.19
41	22.715	2.1818	0.	854.39
42	22.715	2.	0.	1058.1
43	22.715	1.8182	0.	965.62
44	22.715	1.6364	0.	728.98
45	22.715	1.4545	0.	574.35
46	22.715	1.2727	0.	458.71
47	22.715	1.0909	0.	366.81
48	22.715	0.90909	0.	289.35
49	22.715	0.72727	0.	222.16
50	22.715	0.54545	0.	163.1
51	22.715	0.36364	0.	111.85
52	22.715	0.18182	0.	72.372
53	22.531	5.8182	0.	122.79
54	22.531	5.6364	0.	149.78
55	22.531	5.4545	0.	189.64
56	22.531	5.2727	0.	239.78
57	22.531	5.0909	0.	299.18
58	22.531	4.9091	0.	368.38
59	22.531	4.7273	0.	449.63
60	22.531	4.5455	0.	544.23
61	22.531	4.3636	0.	656.81
62	22.531	4.1818	0.	751.86
63	22.531	4.	0.	772.34
64	22.531	3.8182	0.	720.13
65	22.531	3.6364	0.	653.27
66	22.531	3.4545	0.	607.62
67	22.531	3.2727	0.	582.19
68	22.531	3.0909	0.	570.51
69	22.531	2.9091	0.	570.51
70	22.531	2.7273	0.	582.19
71	22.531	2.5455	0.	607.62
72	22.531	2.3636	0.	653.27
73	22.531	2.1818	0.	720.13
74	22.531	2.	0.	772.34
75	22.531	1.8182	0.	751.86
76	22.531	1.6364	0.	656.81
77	22.531	1.4545	0.	544.23
78	22.531	1.2727	0.	449.63
79	22.531	1.0909	0.	368.38
80	22.531	0.90909	0.	299.18
81	22.531	0.72727	0.	239.78
82	22.531	0.54545	0.	189.64
83	22.531	0.36364	0.	149.78
84	22.531	0.18182	0.	122.79
85	22.346	5.8182	0.	180.56
86	22.346	5.6364	0.	204.47
87	22.346	5.4545	0.	238.16
88	22.346	5.2727	0.	281.5
89	22.346	5.0909	0.	333.79
90	22.346	4.9091	0.	394.61
91	22.346	4.7273	0.	463.44
92	22.346	4.5455	0.	538.65
93	22.346	4.3636	0.	611.73
94	22.346	4.1818	0.	665.49
95	22.346	4.	0.	681.
96	22.346	3.8182	0.	660.99
97	22.346	3.6364	0.	630.49
98	22.346	3.4545	0.	605.23
99	22.346	3.2727	0.	589.3
100	22.346	3.0909	0.	581.89
101	22.346	2.9091	0.	581.89
102	22.346	2.7273	0.	589.3
103	22.346	2.5455	0.	605.23
104	22.346	2.3636	0.	630.49
105	22.346	2.1818	0.	660.99
106	22.346	2.	0.	681.
107	22.346	1.8182	0.	665.49
108	22.346	1.6364	0.	611.73
109	22.346	1.4545	0.	538.65
110	22.346	1.2727	0.	463.44
111	22.346	1.0909	0.	394.61
112	22.346	0.90909	0.	333.79
113	22.346	0.72727	0.	281.5
114	22.346	0.54545	0.	238.16
115	22.346	0.36364	0.	204.47
116	22.346	0.18182	0.	180.56
117	22.161	5.8182	0.	239.97
118	22.161	5.6364	0.	262.55
119	22.161	5.4545	0.	292.43
120	22.161	5.2727	0.	330.13
121	22.161	5.0909	0.	375.27
122	22.161	4.9091	0.	426.89
123	22.161	4.7273	0.	483.21
124	22.161	4.5455	0.	540.66
125	22.161	4.3636	0.	592.46
126	22.161	4.1818	0.	628.53
127	22.161	4.	0.	642.74
128	22.161	3.8182	0.	637.52
129	22.161	3.6364	0.	622.76
130	22.161	3.4545	0.	608.31
131	22.161	3.2727	0.	598.31
132	22.161	3.0909	0.	593.39
133	22.161	2.9091	0.	593.39
134	22.161	2.7273	0.	598.31
135	22.161	2.5455	0.	608.31
136	22.161	2.3636	0.	622.76
137	22.161	2.1818	0.	637.52
138	22.161	2.	0.	642.74
139	22.161	1.8182	0.	628.53
140	22.161	1.6364	0.	592.46
141	22.161	1.4545	0.	540.66
142	22.161	1.2727	0.	483.21
143	22.161	1.0909	0.	426.89
144	22.161	0.90909	0.	375.27
145	22.161	0.72727	0.	330.13
146	22.161	0.54545	0.	292.43
147	22.161	0.36364	0.	262.55
148	22.161	0.18182	0.	239.97
149	21.977	5.8182	0.	299.33
150	21.977	5.6364	0.	320.69
151	21.977	5.4545	0.	347.63
152	21.977	5.2727	0.	380.56
153	21.977	5.0909	0.	419.1
154	21.977	4.9091	0.	462.08
155	21.977	4.7273	0.	507.4
156	21.977	4.5455	0.	551.63
157	21.977	4.3636	0.	589.84
158	21.977	4.1818	0.	616.97
159	21.977	4.	0.	630.18
160	21.977	3.8182	0.	631.11
161	21.977	3.6364	0.	624.96
162	21.977	3.4545	0.	617.07
163	21.977	3.2727	0.	610.84
164	21.977	3.0909	0.	607.59
165	21.977	2.9091	0.	607.59
166	21.977	2.7273	0.	610.84
167	21.977	2.5455	0.	617.07
168	21.977	2.3636	0.	624.96
169	21.977	2.1818	0.	631.11
170	21.977	2.	0.	630.18
171	21.977	1.8182	0.	616.97
172	21.977	1.6364	0.	589.84
173	21.977	1.4545	0.	551.63
174	21.977	1.2727	0.	507.4
175	21.977	1.0909	0.	462.08
176	21.977	0.90909	0.	419.1
177	21.977	0.72727	0.	380.56
178	21.977	0.54545	0.	347.63
179	21.977	0.36364	0.	320.69
180	21.977	0.18182	0.	299.33
181	21.792	5.8182	0.	357.73
182	21.792	5.6364	0.	377.57
183	21.792	5.4545	0.	401.85
184	21.792	5.2727	0.	430.57
185	21.792	5.0909	0.	463.27
186	21.792	4.9091	0.	498.78
187	21.792	4.7273	0.	535.15
188	21.792	4.5455	0.	569.66
189	21.792	4.3636	0.	599.05
190	21.792	4.1818	0.	620.43
191	21.792	4.	0.	632.49
192	21.792	3.8182	0.	636.26
193	21.792	3.6364	0.	634.57
194	21.792	3.4545	0.	630.69
195	21.792	3.2727	0.	627.07
196	21.792	3.0909	0.	625.01
197	21.792	2.9091	0.	625.01
198	21.792	2.7273	0.	627.07
199	21.792	2.5455	0.	630.69
200	21.792	2.3636	0.	634.57
201	21.792	2.1818	0.	636.26
202	21.792	2.	0.	632.49
203	21.792	1.8182	0.	620.43
204	21.792	1.6364	0.	599.05
205	21.792	1.4545	0.	569.66
206	21.792	1.2727	0.	535.15
207	21.792	1.0909	0.	498.78
208	21.792	0.90909	0.	463.27
209	21.792	0.72727	0.	430.57
210	21.792	0.54545	0.	401.85
211	21.792	0.36364	0.	377.57
212	21.792	0.18182	0.	357.73
213	21.607	5.8182	0.	414.61
214	21.607	5.6364	0.	432.65
215	21.607	5.4545	0.	454.36
216	21.607	5.2727	0.	479.31
217	21.607	5.0909	0.	506.97
218	21.607	4.9091	0.	536.27
219	21.607	4.7273	0.	565.6
220	21.607	4.5455	0.	592.93
221	21.607	4.3636	0.	616.12
222	21.607	4.1818	0.	633.46
223	21.607	4.	0.	644.27
224	21.607	3.8182	0.	649.2
225	21.607	3.6364	0.	649.93
226	21.607	3.4545	0.	648.52
227	21.607	3.2727	0.	646.67
228	21.607	3.0909	0.	645.5
229	21.607	2.9091	0.	645.5
230	21.607	2.7273	0.	646.67
231	21.607	2.5455	0.	648.52
232	21.607	2.3636	0.	649.93
233	21.607	2.1818	0.	649.2
234	21.607	2.	0.	644.27
235	21.607	1.8182	0.	633.46
236	21.607	1.6364	0.	616.12
237	21.607	1.4545	0.	592.93
238	21.607	1.2727	0.	565.6
239	21.607	1.0909	0.	536.27
240	21.607	0.90909	0.	506.97
241	21.607	0.72727	0.	479.31
242	21.607	0.54545	0.	454.36
243	21.607	0.36364	0.	432.65
244	21.607	0.18182	0.	414.6
245	21.423	5.8182	0.	469.72
246	21.423	5.6364	0.	485.79
247	21.423	5.4545	0.	505.02
248	21.423	5.2727	0.	526.61
249	21.423	5.0909	0.	549.98
250	21.423	4.9091	0.	574.21
251	21.423	4.7273	0.	598.04
252	21.423	4.5455	0.	620.
253	21.423	4.3636	0.	638.67
254	21.423	4.1818	0.	652.98
255	21.423	4.	0.	662.56
256	21.423	3.8182	0.	667.83
257	21.423	3.6364	0.	669.84
258	21.423	3.4545	0.	669.91
259	21.423	3.2727	0.	669.25
260	21.423	3.0909	0.	668.71
261	21.423	2.9091	0.	668.71
262	21.423	2.7273	0.	669.25
263	21.423	2.5455	0.	669.91
264	21.423	2.3636	0.	669.84
265	21.423	2.1818	0.	667.83
266	21.423	2.	0.	662.56
267	21.423	1.8182	0.	652.98
268	21.423	1.6364	0.	638.67
269	21.423	1.4545	0.	620.
270	21.423	1.2727	0.	598.04
271	21.423	1.0909	0.	574.21
272	21.423	0.90909	0.	549.98
273	21.423	0.72727	0.	526.61
274	21.423	0.54545	0.	505.02
275	21.423	0.36364	0.	485.79
276	21.423	0.18182	0.	469.72
277	21.238	5.8182	0.	523.02
278	21.238	5.6364	0.	537.06
279	21.238	5.4545	0.	553.96
280	21.238	5.2727	0.	572.57
281	21.238	5.0909	0.	592.33
282	21.238	4.9091	0.	612.46
283	21.238	4.7273	0.	631.99
284	21.238	4.5455	0.	649.87
285	21.238	4.3636	0.	665.12
286	21.238	4.1818	0.	677.08
287	21.238	4.	0.	685.52
288	21.238	3.8182	0.	690.71
289	21.238	3.6364	0.	693.35
290	21.238	3.4545	0.	694.3
291	21.238	3.2727	0.	694.41
292	21.238	3.0909	0.	694.3
293	21.238	2.9091	0.	694.3
294	21.238	2.7273	0.	694.41
295	21.238	2.5455	0.	694.3
296	21.238	2.3636	0.	693.35
297	21.238	2.1818	0.	690.71
298	21.238	2.	0.	685.52
299	21.238	1.8182	0.	677.08
300	21.238	1.6364	0.	665.12
301	21.238	1.4545	0.	649.87
302	21.238	1.2727	0.	631.99
303	21.238	1.0909	0.	612.46
304	21.238	0.90909	0.	592.33
305	21.238	0.72727	0.	572.57
306	21.238	0.54545	0.	553.96
307	21.238	0.36364	0.	537.06
308	21.238	0.18182	0.	523.02
309	21.053	5.8182	0.	574.62
310	21.053	5.6364	0.	586.66
311	21.053	5.4545	0.	601.41
312	21.053	5.2727	0.	617.42
313	21.053	5.0909	0.	634.15
314	21.053	4.9091	0.	650.95
315	21.053	4.7273	0.	667.1
316	21.053	4.5455	0.	681.82
317	21.053	4.3636	0.	694.45
318	21.053	4.1818	0.	704.55
319	21.053	4.	0.	711.96
320	21.053	3.8182	0.	716.88
321	21.053	3.6364	0.	719.77
322	21.053	3.4545	0.	721.21
323	21.053	3.2727	0.	721.79
324	21.053	3.0909	0.	721.96
325	21.053	2.9091	0.	721.96
326	21.053	2.7273	0.	721.79
327	21.053	2.5455	0.	721.21
328	21.053	2.3636	0.	719.77
329	21.053	2.1818	0.	716.88
330	21.053	2.	0.	711.96
331	21.053	1.8182	0.	704.55
332	21.053	1.6364	0.	694.45
333	21.053	1.4545	0.	681.82
334	21.053	1.2727	0.	667.1
335	21.053	1.0909	0.	650.95
336	21.053	0.90909	0.	634.15
337	21.053	0.72727	0.	617.42
338	21.053	0.54545	0.	601.41
339	21.053	0.36364	0.	586.66
340	21.053	0.18182	0.	574.62
341	20.869	5.8182	0.	624.67
342	20.869	5.6364	0.	634.82
343	20.869	5.4545	0.	647.63
344	20.869	5.2727	0.	661.38
345	20.869	5.0909	0.	675.57
346	20.869	4.9091	0.	689.68
347	20.869	4.7273	0.	703.14
348	20.869	4.5455	0.	715.39
349	20.869	4.3636	0.	725.96
350	20.869	4.1818	0.	734.55
351	20.869	4.	0.	741.06
352	20.869	3.8182	0.	745.62
353	20.869	3.6364	0.	748.55
354	20.869	3.4545	0.	750.23
355	20.869	3.2727	0.	751.08
356	20.869	3.0909	0.	751.42
357	20.869	2.9091	0.	751.42
358	20.869	2.7273	0.	751.08
359	20.869	2.5455	0.	750.23
360	20.869	2.3636	0.	748.55
361	20.869	2.1818	0.	745.62
362	20.869	2.	0.	741.06
363	20.869	1.8182	0.	734.55
364	20.869	1.6364	0.	725.96
365	20.869	1.4545	0.	715.39
366	20.869	1.2727	0.	703.14
367	20.869	1.0909	0.	689.68
368	20.869	0.90909	0.	675.57
369	20.869	0.72727	0.	661.38
370	20.869	0.54545	0.	647.63
371	20.869	0.36364	0.	634.82
372	20.869	0.18182	0.	624.67
373	20.684	5.8182	0.	673.37
374	20.684	5.6364	0.	681.79
375	20.684	5.4545	0.	692.86
376	20.684	5.2727	0.	704.66
377	20.684	5.0909	0.	716.73
378	20.684	4.9091	0.	728.63
379	20.684	4.7273	0.	739.94
380	20.684	4.5455	0.	750.22
381	20.684	4.3636	0.	759.15
382	20.684	4.1818	0.	766.51
383	20.684	4.	0.	772.24
384	20.684	3.8182	0.	776.42
385	20.684	3.6364	0.	779.25
386	20.684	3.4545	0.	781.03
387	20.684	3.2727	0.	782.02
388	20.684	3.0909	0.	782.45
389	20.684	2.9091	0.	782.45
390	20.684	2.7273	0.	782.02
391	20.684	2.5455	0.	781.03
392	20.684	2.3636	0.	779.25
393	20.684	2.1818	0.	776.42
394	20.684	2.	0.	772.24
395	20.684	1.8182	0.	766.51
396	20.684	1.6364	0.	759.15
397	20.684	1.4545	0.	750.22
398	20.684	1.2727	0.	739.94
399	20.684	1.0909	0.	728.63
400	20.684	0.90909	0.	716.73
401	20.684	0.72727	0.	704.66
402	20.684	0.54545	0.	692.86
403	20.684	0.36364	0.	681.79
404	20.684	0.18182	0.	673.37
405	20.499	5.8182	0.	720.93
406	20.499	5.6364	0.	727.78
407	20.499	5.4545	0.	737.32
408	20.499	5.2727	0.	747.44
409	20.499	5.0909	0.	757.73
410	20.499	4.9091	0.	767.83
411	20.499	4.7273	0.	777.39
412	20.499	4.5455	0.	786.09
413	20.499	4.3636	0.	793.7
414	20.499	4.1818	0.	800.04
415	20.499	4.	0.	805.08
416	20.499	3.8182	0.	808.87
417	20.499	3.6364	0.	811.56
418	20.499	3.4545	0.	813.32
419	20.499	3.2727	0.	814.37
420	20.499	3.0909	0.	814.85
421	20.499	2.9091	0.	814.85
422	20.499	2.7273	0.	814.37
423	20.499	2.5455	0.	813.32
424	20.499	2.3636	0.	811.56
425	20.499	2.1818	0.	808.87
426	20.499	2.	0.	805.08
427	20.499	1.8182	0.	800.04
428	20.499	1.6364	0.	793.7
429	20.499	1.4545	0.	786.09
430	20.499	1.2727	0.	777.39
431	20.499	1.0909	0.	767.83
432	20.499	0.90909	0.	757.73
433	20.499	0.72727	0.	747.44
434	20.499	0.54545	0.	737.32
435	20.499	0.36364	0.	727.78
436	20.499	0.18182	0.	720.93
437	20.315	5.8182	0.	767.55
438	20.315	5.6364	0.	773.
439	20.315	5.4545	0.	781.19
440	20.315	5.2727	0.	789.87
441	20.315	5.0909	0.	798.67
442	20.315	4.9091	0.	807.27
443	20.315	4.7273	0.	815.4
444	20.315	4.5455	0.	822.82
445	20.315	4.3636	0.	829.34
446	20.315	4.1818	0.	834.84
447	20.315	4.	0.	839.28
448	20.315	3.8182	0.	842.7
449	20.315	3.6364	0.	845.2
450	20.315	3.4545	0.	846.9
451	20.315	3.2727	0.	847.95
452	20.315	3.0909	0.	848.44
453	20.315	2.9091	0.	848.44
454	20.315	2.7273	0.	847.95
455	20.315	2.5455	0.	846.9
456	20.315	2.3636	0.	845.2
457	20.315	2.1818	0.	842.7
458	20.315	2.	0.	839.28
459	20.315	1.8182	0.	834.84
460	20.315	1.6364	0.	829.34
461	20.315	1.4545	0.	822.82
462	20.315	1.2727	0.	815.4
463	20.315	1.0909	0.	807.27
464	20.315	0.90909	0.	798.67
465	20.315	0.72727	0.	789.87
466	20.315	0.54545	0.	781.19
467	20.315	0.36364	0.	773.
468	20.315	0.18182	0.	767.55
469	20.13	5.8182	0.	813.39
470	20.13	5.6364	0.	817.61
471	20.13	5.4545	0.	824.63
472	20.13	5.2727	0.	832.08
473	20.13	5.0909	0.	839.6
474	20.13	4.9091	0.	846.95
475	20.13	4.7273	0.	853.9
476	20.13	4.5455	0.	860.26
477	20.13	4.3636	0.	865.88
478	20.13	4.1818	0.	870.67
479	20.13	4.	0.	874.6
480	20.13	3.8182	0.	877.68
481	20.13	3.6364	0.	879.97
482	20.13	3.4545	0.	881.58
483	20.13	3.2727	0.	882.59
484	20.13	3.0909	0.	883.07
485	20.13	2.9091	0.	883.07
486	20.13	2.7273	0.	882.59
487	20.13	2.5455	0.	881.58
488	20.13	2.3636	0.	879.97
489	20.13	2.1818	0.	877.68
490	20.13	2.	0.	874.6
491	20.13	1.8182	0.	870.67
492	20.13	1.6364	0.	865.88
493	20.13	1.4545	0.	860.26
494	20.13	1.2727	0.	853.9
495	20.13	1.0909	0.	846.95
496	20.13	0.90909	0.	839.6
497	20.13	0.72727	0.	832.08
498	20.13	0.54545	0.	824.63
499	20.13	0.36364	0.	817.61
500	20.13	0.18182	0.	813.39
501	19.945	5.8182	0.	858.63
502	19.945	5.6364	0.	861.76
503	19.945	5.4545	0.	867.75
504	19.945	5.2727	0.	874.14
505	19.945	5.0909	0.	880.6
506	19.945	4.9091	0.	886.9
507	19.945	4.7273	0.	892.86
508	19.945	4.5455	0.	898.34
509	19.945	4.3636	0.	903.21
510	19.945	4.1818	0.	907.39
511	19.945	4.	0.	910.86
512	19.945	3.8182	0.	913.62
513	19.945	3.6364	0.	915.72
514	19.945	3.4545	0.	917.21
515	19.945	3.2727	0.	918.17
516	19.945	3.0909	0.	918.63
517	19.945	2.9091	0.	918.63
518	19.945	2.7273	0.	918.17
519	19.945	2.5455	0.	917.21
520	19.945	2.3636	0.	915.72
521	19.945	2.1818	0.	913.62
522	19.945	2.	0.	910.86
523	19.945	1.8182	0.	907.39
524	19.945	1.6364	0.	903.21
525	19.945	1.4545	0.	898.34
526	19.945	1.2727	0.	892.86
527	19.945	1.0909	0.	886.9
528	19.945	0.90909	0.	880.6
529	19.945	0.72727	0.	874.14
530	19.945	0.54545	0.	867.75
531	19.945	0.36364	0.	861.76
532	19.945	0.18182	0.	858.63
533	19.76	5.8182	0.	903.38
534	19.76	5.6364	0.	905.56
535	19.76	5.4545	0.	910.67
536	19.76	5.2727	0.	916.15
537	19.76	5.0909	0.	921.69
538	19.76	4.9091	0.	927.1
539	19.76	4.7273	0.	932.24
540	19.76	4.5455	0.	936.97
541	19.76	4.3636	0.	941.2
542	19.76	4.1818	0.	944.86
543	19.76	4.	0.	947.93
544	19.76	3.8182	0.	950.4
545	19.76	3.6364	0.	952.31
546	19.76	3.4545	0.	953.68
547	19.76	3.2727	0.	954.57
548	19.76	3.0909	0.	955.
549	19.76	2.9091	0.	955.
550	19.76	2.7273	0.	954.57
551	19.76	2.5455	0.	953.68
552	19.76	2.3636	0.	952.31
553	19.76	2.1818	0.	950.4
554	19.76	2.	0.	947.93
555	19.76	1.8182	0.	944.86
556	19.76	1.6364	0.	941.2
557	19.76	1.4545	0.	936.97
558	19.76	1.2727	0.	932.24
559	19.76	1.0909	0.	927.1
560	19.76	0.90909	0.	921.69
561	19.76	0.72727	0.	916.15
562	19.76	0.54545	0.	910.67
563	19.76	0.36364	0.	905.56
564	19.76	0.18182	0.	903.38
565	19.576	5.8182	0.	947.76
566	19.576	5.6364	0.	949.12
567	19.576	5.4545	0.	953.46
568	19.576	5.2727	0.	958.15
569	19.576	5.0909	0.	962.9
570	19.576	4.9091	0.	967.56
571	19.576	4.7273	0.	971.99
572	19.576	4.5455	0.	976.09
573	19.576	4.3636	0.	979.77
574	19.576	4.1818	0.	982.98
575	19.576	4.	0.	985.7
576	19.576	3.8182	0.	987.91
577	19.576	3.6364	0.	989.63
578	19.576	3.4545	0.	990.89
579	19.576	3.2727	0.	991.71
580	19.576	3.0909	0.	992.11
581	19.576	2.9091	0.	992.11
582	19.576	2.7273	0.	991.71
583	19.576	2.5455	0.	990.89
584	19.576	2.3636	0.	989.63
585	19.576	2.1818	0.	987.91
586	19.576	2.	0.	985.7
587	19.576	1.8182	0.	982.98
588	19.576	1.6364	0.	979.77
589	19.576	1.4545	0.	976.09
590	19.576	1.2727	0.	971.99
591	19.576	1.0909	0.	967.56
592	19.576	0.90909	0.	962.9
593	19.576	0.72727	0.	958.15
594	19.576	0.54545	0.	953.46
595	19.576	0.36364	0.	949.12
596	19.576	0.18182	0.	947.76
597	19.391	5.8182	0.	991.87
598	19.391	5.6364	0.	992.51
599	19.391	5.4545	0.	996.18
600	19.391	5.2727	0.	1000.2
601	19.391	5.0909	0.	1004.3
602	19.391	4.9091	0.	1008.3
603	19.391	4.7273	0.	1012.1
604	19.391	4.5455	0.	1015.7
605	19.391	4.3636	0.	1018.9
606	19.391	4.1818	0.	1021.7
607	19.391	4.	0.	1024.1
608	19.391	3.8182	0.	1026.1
609	19.391	3.6364	0.	1027.6
610	19.391	3.4545	0.	1028.8
611	19.391	3.2727	0.	1029.5
612	19.391	3.0909	0.	1029.9
613	19.391	2.9091	0.	1029.9
614	19.391	2.7273	0.	1029.5
615	19.391	2.5455	0.	1028.8
616	19.391	2.3636	0.	1027.6
617	19.391	2.1818	0.	1026.1
618	19.391	2.	0.	1024.1
619	19.391	1.8182	0.	1021.7
620	19.391	1.6364	0.	1018.9
621	19.391	1.4545	0.	1015.7
622	19.391	1.2727	0.	1012.1
623	19.391	1.0909	0.	1008.3
624	19.391	0.90909	0.	1004.3
625	19.391	0.72727	0.	1000.2
626	19.391	0.54545	0.	996.18
627	19.391	0.36364	0.	992.51
628	19.391	0.18182	0.	991.87
629	19.206	5.8182	0.	1035.8
630	19.206	5.6364	0.	1035.8
631	19.206	5.4545	0.	1038.9
632	19.206	5.2727	0.	1042.3
633	19.206	5.0909	0.	1045.8
634	19.206	4.9091	0.	1049.2
635	19.206	4.7273	0.	1052.5
636	19.206	4.5455	0.	1055.6
637	19.206	4.3636	0.	1058.4
638	19.206	4.1818	0.	1060.9
639	19.206	4.	0.	1063.
640	19.206	3.8182	0.	1064.8
641	19.206	3.6364	0.	1066.2
642	19.206	3.4545	0.	1067.2
643	19.206	3.2727	0.	1067.9
644	19.206	3.0909	0.	1068.2
645	19.206	2.9091	0.	1068.2
646	19.206	2.7273	0.	1067.9
647	19.206	2.5455	0.	1067.2
648	19.206	2.3636	0.	1066.2
649	19.206	2.1818	0.	1064.8
650	19.206	2.	0.	1063.
651	19.206	1.8182	0.	1060.9
652	19.206	1.6364	0.	1058.4
653	19.206	1.4545	0.	1055.6
654	19.206	1.2727	0.	1052.5
655	19.206	1.0909	0.	1049.2
656	19.206	0.90909	0.	1045.8
657	19.206	0.72727	0.	1042.3
658	19.206	0.54545	0.	1038.9
659	19.206	0.36364	0.	1035.8
660	19.206	0.18182	0.	1035.8
661	19.022	5.8182	0.	1079.6
662	19.022	5.6364	0.	1079.1
663	19.022	5.4545	0.	1081.6
664	19.022	5.2727	0.	1084.5
665	19.022	5.0909	0.	1087.5
666	19.022	4.9091	0.	1090.5
667	19.022	4.7273	0.	1093.3
668	19.022	4.5455	0.	1096.
669	19.022	4.3636	0.	1098.4
670	19.022	4.1818	0.	1100.6
671	19.022	4.	0.	1102.5
672	19.022	3.8182	0.	1104.
673	19.022	3.6364	0.	1105.3
674	19.022	3.4545	0.	1106.2
675	19.022	3.2727	0.	1106.8
676	19.022	3.0909	0.	1107.1
677	19.022	2.9091	0.	1107.1
678	19.022	2.7273	0.	1106.8
679	19.022	2.5455	0.	1106.2
680	19.022	2.3636	0.	1105.3
681	19.022	2.1818	0.	1104.
682	19.022	2.	0.	1102.5
683	19.022	1.8182	0.	1100.6
684	19.022	1.6364	0.	1098.4
685	19.022	1.4545	0.	1096.
686	19.022	1.2727	0.	1093.3
687	19.022	1.0909	0.	1090.5
688	19.022	0.90909	0.	1087.5
689	19.022	0.72727	0.	1084.5
690	19.022	0.54545	0.	1081.6
691	19.022	0.36364	0.	1079.1
692	19.022	0.18182	0.	1079.6
693	18.837	5.8182	0.	1123.3
694	18.837	5.6364	0.	1122.3
695	18.837	5.4545	0.	1124.4
696	18.837	5.2727	0.	1126.9
697	18.837	5.0909	0.	1129.4
698	18.837	4.9091	0.	1131.9
699	18.837	4.7273	0.	1134.4
700	18.837	4.5455	0.	1136.7
701	18.837	4.3636	0.	1138.8
702	18.837	4.1818	0.	1140.7
703	18.837	4.	0.	1142.4
704	18.837	3.8182	0.	1143.8
705	18.837	3.6364	0.	1144.9
706	18.837	3.4545	0.	1145.7
707	18.837	3.2727	0.	1146.2
708	18.837	3.0909	0.	1146.5
709	18.837	2.9091	0.	1146.5
710	18.837	2.7273	0.	1146.2
711	18.837	2.5455	0.	1145.7
712	18.837	2.3636	0.	1144.9
713	18.837	2.1818	0.	1143.8
714	18.837	2.	0.	1142.4
715	18.837	1.8182	0.	1140.7
716	18.837	1.6364	0.	1138.8
717	18.837	1.4545	0.	1136.7
718	18.837	1.2727	0.	1134.4
719	18.837	1.0909	0.	1131.9
720	18.837	0.90909	0.	1129.4
721	18.837	0.72727	0.	1126.9
722	18.837	0.54545	0.	1124.4
723	18.837	0.36364	0.	1122.3
724	18.837	0.18182	0.	1123.3
725	18.652	5.8182	0.	1167.
726	18.652	5.6364	0.	1165.6
727	18.652	5.4545	0.	1167.3
728	18.652	5.2727	0.	1169.3
729	18.652	5.0909	0.	1171.5
730	18.652	4.9091	0.	1173.7
731	18.652	4.7273	0.	1175.8
732	18.652	4.5455	0.	1177.8
733	18.652	4.3636	0.	1179.6
734	18.652	4.1818	0.	1181.3
735	18.652	4.	0.	1182.7
736	18.652	3.8182	0.	1183.9
737	18.652	3.6364	0.	1184.9
738	18.652	3.4545	0.	1185.6
739	18.652	3.2727	0.	1186.1
740	18.652	3.0909	0.	1186.4
741	18.652	2.9091	0.	1186.4
742	18.652	2.7273	0.	1186.1
743	18.652	2.5455	0.	1185.6
744	18.652	2.3636	0.	1184.9
745	18.652	2.1818	0.	1183.9
746	18.652	2.	0.	1182.7
747	18.652	1.8182	0.	1181.3
748	18.652	1.6364	0.	1179.6
749	18.652	1.4545	0.	1177.8
750	18.652	1.2727	0.	1175.8
751	18.652	1.0909	0.	1173.7
752	18.652	0.90909	0.	1171.5
753	18.652	0.72727	0.	1169.3
754	18.652	0.54545	0.	1167.3
755	18.652	0.36364	0.	1165.6
756	18.652	0.18182	0.	1167.
757	18.468	5.8182	0.	1210.6
758	18.468	5.6364	0.	1208.9
759	18.468	5.4545	0.	1210.3
760	18.468	5.2727	0.	1212.
761	18.468	5.0909	0.	1213.8
762	18.468	4.9091	0.	1215.6
763	18.468	4.7273	0.	1217.4
764	18.468	4.5455	0.	1219.1
765	18.468	4.3636	0.	1220.7
766	18.468	4.1818	0.	1222.2
767	18.468	4.	0.	1223.4
768	18.468	3.8182	0.	1224.5
769	18.468	3.6364	0.	1225.4
770	18.468	3.4545	0.	1226.
771	18.468	3.2727	0.	1226.5
772	18.468	3.0909	0.	1226.7
773	18.468	2.9091	0.	1226.7
774	18.468	2.7273	0.	1226.5
775	18.468	2.5455	0.	1226.
776	18.468	2.3636	0.	1225.4
777	18.468	2.1818	0.	1224.5
778	18.468	2.	0.	1223.4
779	18.468	1.8182	0.	1222.2
780	18.468	1.6364	0.	1220.7
781	18.468	1.4545	0.	1219.1
782	18.468	1.2727	0.	1217.4
783	18.468	1.0909	0.	1215.6
784	18.468	0.90909	0.	1213.8
785	18.468	0.72727	0.	1212.
786	18.468	0.54545	0.	1210.3
787	18.468	0.36364	0.	1208.9
788	18.468	0.18182	0.	1210.6
789	18.283	5.8182	0.	1254.4
790	18.283	5.6364	0.	1252.3
791	18.283	5.4545	0.	1253.4
792	18.283	5.2727	0.	1254.8
793	18.283	5.0909	0.	1256.3
794	18.283	4.9091	0.	1257.8
795	18.283	4.7273	0.	1259.3
796	18.283	4.5455	0.	1260.8
797	18.283	4.3636	0.	1262.2
798	18.283	4.1818	0.	1263.4
799	18.283	4.	0.	1264.5
800	18.283	3.8182	0.	1265.5
801	18.283	3.6364	0.	1266.2
802	18.283	3.4545	0.	1266.8
803	18.283	3.2727	0.	1267.2
804	18.283	3.0909	0.	1267.4
805	18.283	2.9091	0.	1267.4
806	18.283	2.7273	0.	1267.2
807	18.283	2.5455	0.	1266.8
808	18.283	2.3636	0.	1266.2
809	18.283	2.1818	0.	1265.5
810	18.283	2.	0.	1264.5
811	18.283	1.8182	0.	1263.4
812	18.283	1.6364	0.	1262.2
813	18.283	1.4545	0.	1260.8
814	18.283	1.2727	0.	1259.3
815	18.283	1.0909	0.	1257.8
816	18.283	0.90909	0.	1256.3
817	18.283	0.72727	0.	1254.8
818	18.283	0.54545	0.	1253.4
819	18.283	0.36364	0.	1252.3
820	18.283	0.18182	0.	1254.4
821	18.098	5.8182	0.	1298.1
822	18.098	5.6364	0.	1295.8
823	18.098	5.4545	0.	1296.6
824	18.098	5.2727	0.	1297.7
825	18.098	5.0909	0.	1299.
826	18.098	4.9091	0.	1300.3
827	18.098	4.7273	0.	1301.5
828	18.098	4.5455	0.	1302.8
829	18.098	4.3636	0.	1304.
830	18.098	4.1818	0.	1305.
831	18.098	4.	0.	1306.
832	18.098	3.8182	0.	1306.8
833	18.098	3.6364	0.	1307.4
834	18.098	3.4545	0.	1307.9
835	18.098	3.2727	0.	1308.3
836	18.098	3.0909	0.	1308.4
837	18.098	2.9091	0.	1308.4
838	18.098	2.7273	0.	1308.3
839	18.098	2.5455	0.	1307.9
840	18.098	2.3636	0.	1307.4
841	18.098	2.1818	0.	1306.8
842	18.098	2.	0.	1306.
843	18.098	1.8182	0.	1305.
844	18.098	1.6364	0.	1304.
845	18.098	1.4545	0.	1302.8
846	18.098	1.2727	0.	1301.5
847	18.098	1.0909	0.	1300.3
848	18.098	0.90909	0.	1299.
849	18.098	0.72727	0.	1297.7
850	18.098	0.54545	0.	1296.6
851	18.098	0.36364	0.	1295.8
852	18.098	0.18182	0.	1298.1
853	17.914	5.8182	0.	1342.
854	17.914	5.6364	0.	1339.4
855	17.914	5.4545	0.	1340.
856	17.914	5.2727	0.	1340.9
857	17.914	5.0909	0.	1341.9
858	17.914	4.9091	0.	1342.9
859	17.914	4.7273	0.	1344.
860	17.914	4.5455	0.	1345.
861	17.914	4.3636	0.	1346.
862	17.914	4.1818	0.	1346.9
863	17.914	4.	0.	1347.7
864	17.914	3.8182	0.	1348.4
865	17.914	3.6364	0.	1349.
866	17.914	3.4545	0.	1349.4
867	17.914	3.2727	0.	1349.7
868	17.914	3.0909	0.	1349.9
869	17.914	2.9091	0.	1349.9
870	17.914	2.7273	0.	1349.7
871	17.914	2.5455	0.	1349.4
872	17.914	2.3636	0.	1349.
873	17.914	2.1818	0.	1348.4
874	17.914	2.	0.	1347.7
875	17.914	1.8182	0.	1346.9
876	17.914	1.6364	0.	1346.
877	17.914	1.4545	0.	1345.
878	17.914	1.2727	0.	1344.
879	17.914	1.0909	0.	1342.9
880	17.914	0.90909	0.	1341.9
881	17.914	0.72727	0.	1340.9
882	17.914	0.54545	0.	1340.
883	17.914	0.36364	0.	1339.4
884	17.914	0.18182	0.	1342.
885	17.729	5.8182	0.	1386.
886	17.729	5.6364	0.	1383.2
887	17.729	5.4545	0.	1383.5
888	17.729	5.2727	0.	1384.2
889	17.729	5.0909	0.	1385.
890	17.729	4.9091	0.	1385.8
891	17.729	4.7273	0.	1386.7
892	17.729	4.5455	0.	1387.6
893	17.729	4.3636	0.	1388.4
894	17.729	4.1818	0.	1389.2
895	17.729	4.	0.	1389.8
896	17.729	3.8182	0.	1390.4
897	17.729	3.6364	0.	1390.9
898	17.729	3.4545	0.	1391.3
899	17.729	3.2727	0.	1391.5
900	17.729	3.0909	0.	1391.7
901	17.729	2.9091	0.	1391.7
902	17.729	2.7273	0.	1391.5
903	17.729	2.5455	0.	1391.3
904	17.729	2.3636	0.	1390.9
905	17.729	2.1818	0.	1390.4
906	17.729	2.	0.	1389.8
907	17.729	1.8182	0.	1389.2
908	17.729	1.6364	0.	1388.4
909	17.729	1.4545	0.	1387.6
910	17.729	1.2727	0.	1386.7
911	17.729	1.0909	0.	1385.8
912	17.729	0.90909	0.	1385.
913	17.729	0.72727	0.	1384.2
914	17.729	0.54545	0.	1383.5
915	17.729	0.36364	0.	1383.2
916	17.729	0.18182	0.	1386.
917	17.544	5.8182	0.	1430.
918	17.544	5.6364	0.	1427.1
919	17.544	5.4545	0.	1427.3
920	17.544	5.2727	0.	1427.7
921	17.544	5.0909	0.	1428.3
922	17.544	4.9091	0.	1429.
923	17.544	4.7273	0.	1429.7
924	17.544	4.5455	0.	1430.4
925	17.544	4.3636	0.	1431.
926	17.544	4.1818	0.	1431.7
927	17.544	4.	0.	1432.2
928	17.544	3.8182	0.	1432.7
929	17.544	3.6364	0.	1433.1
930	17.544	3.4545	0.	1433.5
931	17.544	3.2727	0.	1433.7
932	17.544	3.0909	0.	1433.8
933	17.544	2.9091	0.	1433.8
934	17.544	2.7273	0.	1433.7
935	17.544	2.5455	0.	1433.5
936	17.544	2.3636	0.	1433.1
937	17.544	2.1818	0.	1432.7
938	17.544	2.	0.	1432.2
939	17.544	1.8182	0.	1431.7
940	17.544	1.6364	0.	1431.
941	17.544	1.4545	0.	1430.4
942	17.544	1.2727	0.	1429.7
943	17.544	1.0909	0.	1429.
944	17.544	0.90909	0.	1428.3
945	17.544	0.72727	0.	1427.7
946	17.544	0.54545	0.	1427.3
947	17.544	0.36364	0.	1427.1
948	17.544	0.18182	0.	1430.
949	17.36	5.8182	0.	1474.2
950	17.36	5.6364	0.	1471.1
951	17.36	5.4545	0.	1471.1
952	17.36	5.2727	0.	1471.4
953	17.36	5.0909	0.	1471.8
954	17.36	4.9091	0.	1472.3
955	17.36	4.7273	0.	1472.9
956	17.36	4.5455	0.	1473.4
957	17.36	4.3636	0.	1473.9
958	17.36	4.1818	0.	1474.5
959	17.36	4.	0.	1474.9
960	17.36	3.8182	0.	1475.3
961	17.36	3.6364	0.	1475.7
962	17.36	3.4545	0.	1475.9
963	17.36	3.2727	0.	1476.1
964	17.36	3.0909	0.	1476.2
965	17.36	2.9091	0.	1476.2
966	17.36	2.7273	0.	1476.1
967	17.36	2.5455	0.	1475.9
968	17.36	2.3636	0.	1475.7
969	17.36	2.1818	0.	1475.3
970	17.36	2.	0.	1474.9
971	17.36	1.8182	0.	1474.5
972	17.36	1.6364	0.	1473.9
973	17.36	1.4545	0.	1473.4
974	17.36	1.2727	0.	1472.9
975	17.36	1.0909	0.	1472.3
976	17.36	0.90909	0.	1471.8
977	17.36	0.72727	0.	1471.4
978	17.36	0.54545	0.	1471.1
979	17.36	0.36364	0.	1471.1
980	17.36	0.18182	0.	1474.2
981	17.175	5.8182	0.	1518.6
982	17.175	5.6364	0.	1515.3
983	17.175	5.4545	0.	1515.2
984	17.175	5.2727	0.	1515.3
985	17.175	5.0909	0.	1515.6
986	17.175	4.9091	0.	1515.9
987	17.175	4.7273	0.	1516.3
988	17.175	4.5455	0.	1516.7
989	17.175	4.3636	0.	1517.1
990	17.175	4.1818	0.	1517.5
991	17.175	4.	0.	1517.9
992	17.175	3.8182	0.	1518.2
993	17.175	3.6364	0.	1518.5
994	17.175	3.4545	0.	1518.7
995	17.175	3.2727	0.	1518.9
996	17.175	3.0909	0.	1518.9
997	17.175	2.9091	0.	1518.9
998	17.175	2.7273	0.	1518.9
999	17.175	2.5455	0.	1518.7
1000	17.175	2.3636	0.	1518.5
1001	17.175	2.1818	0.	1518.2
1002	17.175	2.	0.	1517.9
1003	17.175	1.8182	0.	1517.5
1004	17.175	1.6364	0.	1517.1
1005	17.175	1.4545	0.	1516.7
1006	17.175	1.2727	0.	1516.3
1007	17.175	1.0909	0.	1515.9
1008	17.175	0.90909	0.	1515.6
1009	17.175	0.72727	0.	1515.3
1010	17.175	0.54545	0.	1515.2
1011	17.175	0.36364	0.	1515.3
1012	17.175	0.18182	0.	1518.6
1013	16.99	5.8182	0.	1563.
1014	16.99	5.6364	0.	1559.7
1015	16.99	5.4545	0.	1559.4
1016	16.99	5.2727	0.	1559.4
1017	16.99	5.0909	0.	1559.5
1018	16.99	4.9091	0.	1559.7
1019	16.99	4.7273	0.	1560.
1020	16.99	4.5455	0.	1560.3
1021	16.99	4.3636	0.	1560.6
1022	16.99	4.1818	0.	1560.9
1023	16.99	4.	0.	1561.2
1024	16.99	3.8182	0.	1561.4
1025	16.99	3.6364	0.	1561.6
1026	16.99	3.4545	0.	1561.8
1027	16.99	3.2727	0.	1561.9
1028	16.99	3.0909	0.	1562.
1029	16.99	2.9091	0.	1562.
1030	16.99	2.7273	0.	1561.9
1031	16.99	2.5455	0.	1561.8
1032	16.99	2.3636	0.	1561.6
1033	16.99	2.1818	0.	1561.4
1034	16.99	2.	0.	1561.2
1035	16.99	1.8182	0.	1560.9
1036	16.99	1.6364	0.	1560.6
1037	16.99	1.4545	0.	1560.3
1038	16.99	1.2727	0.	1560.
1039	16.99	1.0909	0.	1559.7
1040	16.99	0.90909	0.	1559.5
1041	16.99	0.72727	0.	1559.4
1042	16.99	0.54545	0.	1559.4
1043	16.99	0.36364	0.	1559.7
1044	16.99	0.18182	0.	1563.
1045	16.806	5.8182	0.	1607.7
1046	16.806	5.6364	0.	1604.2
1047	16.806	5.4545	0.	1603.8
1048	16.806	5.2727	0.	1603.7
1049	16.806	5.0909	0.	1603.7
1050	16.806	4.9091	0.	1603.7
1051	16.806	4.7273	0.	1603.9
1052	16.806	4.5455	0.	1604.1
1053	16.806	4.3636	0.	1604.3
1054	16.806	4.1818	0.	1604.5
1055	16.806	4.	0.	1604.7
1056	16.806	3.8182	0.	1604.9
1057	16.806	3.6364	0.	1605.
1058	16.806	3.4545	0.	1605.1
1059	16.806	3.2727	0.	1605.2
1060	16.806	3.0909	0.	1605.3
1061	16.806	2.9091	0.	1605.3
1062	16.806	2.7273	0.	1605.2
1063	16.806	2.5455	0.	1605.1
1064	16.806	2.3636	0.	1605.
1065	16.806	2.1818	0.	1604.9
1066	16.806	2.	0.	1604.7
1067	16.806	1.8182	0.	1604.5
1068	16.806	1.6364	0.	1604.3
1069	16.806	1.4545	0.	1604.1
1070	16.806	1.2727	0.	1603.9
1071	16.806	1.0909	0.	1603.7
1072	16.806	0.90909	0.	1603.7
1073	16.806	0.72727	0.	1603.7
1074	16.806	0.54545	0.	1603.8
1075	16.806	0.36364	0.	1604.2
1076	16.806	0.18182	0.	1607.7
1077	16.621	5.8182	0.	1652.5
1078	16.621	5.6364	0.	1648.9
1079	16.621	5.4545	0.	1648.4
1080	16.621	5.2727	0.	1648.1
1081	16.621	5.0909	0.	1648.
1082	16.621	4.9091	0.	1648.
1083	16.621	4.7273	0.	1648.
1084	16.621	4.5455	0.	1648.1
1085	16.621	4.3636	0.	1648.2
1086	16.621	4.1818	0.	1648.3
1087	16.621	4.	0.	1648.4
1088	16.621	3.8182	0.	1648.6
1089	16.621	3.6364	0.	1648.7
1090	16.621	3.4545	0.	1648.8
1091	16.621	3.2727	0.	1648.8
1092	16.621	3.0909	0.	1648.9
1093	16.621	2.9091	0.	1648.9
1094	16.621	2.7273	0.	1648.8
1095	16.621	2.5455	0.	1648.8
1096	16.621	2.3636	0.	1648.7
1097	16.621	2.1818	0.	1648.6
1098	16.621	2.	0.	1648.4
1099	16.621	1.8182	0.	1648.3
1100	16.621	1.6364	0.	1648.2
1101	16.621	1.4545	0.	1648.1
1102	16.621	1.2727	0.	1648.
1103	16.621	1.0909	0.	1648.
1104	16.621	0.90909	0.	1648.
1105	16.621	0.72727	0.	1648.1
1106	16.621	0.54545	0.	1648.4
1107	16.621	0.36364	0.	1648.9
1108	16.621	0.18182	0.	1652.5
1109	16.436	5.8182	0.	1697.4
1110	16.436	5.6364	0.	1693.8
1111	16.436	5.4545	0.	1693.2
1112	16.436	5.2727	0.	1692.8
1113	16.436	5.0909	0.	1692.6
1114	16.436	4.9091	0.	1692.4
1115	16.436	4.7273	0.	1692.4
1116	16.436	4.5455	0.	1692.3
1117	16.436	4.3636	0.	1692.4
1118	16.436	4.1818	0.	1692.4
1119	16.436	4.	0.	1692.5
1120	16.436	3.8182	0.	1692.5
1121	16.436	3.6364	0.	1692.6
1122	16.436	3.4545	0.	1692.7
1123	16.436	3.2727	0.	1692.7
1124	16.436	3.0909	0.	1692.7
1125	16.436	2.9091	0.	1692.7
1126	16.436	2.7273	0.	1692.7
1127	16.436	2.5455	0.	1692.7
1128	16.436	2.3636	0.	1692.6
1129	16.436	2.1818	0.	1692.5
1130	16.436	2.	0.	1692.5
1131	16.436	1.8182	0.	1692.4
1132	16.436	1.6364	0.	1692.4
1133	16.436	1.4545	0.	1692.3
1134	16.436	1.2727	0.	1692.4
1135	16.436	1.0909	0.	1692.4
1136	16.436	0.90909	0.	1692.6
1137	16.436	0.72727	0.	1692.8
1138	16.436	0.54545	0.	1693.2
1139	16.436	0.36364	0.	1693.8
1140	16.436	0.18182	0.	1697.4
1141	16.252	5.8182	0.	1742.5
1142	16.252	5.6364	0.	1738.9
1143	16.252	5.4545	0.	1738.1
1144	16.252	5.2727	0.	1737.7
1145	16.252	5.0909	0.	1737.3
1146	16.252	4.9091	0.	1737.1
1147	16.252	4.7273	0.	1736.9
1148	16.252	4.5455	0.	1736.8
1149	16.252	4.3636	0.	1736.8
1150	16.252	4.1818	0.	1736.8
1151	16.252	4.	0.	1736.8
1152	16.252	3.8182	0.	1736.8
1153	16.252	3.6364	0.	1736.8
1154	16.252	3.4545	0.	1736.8
1155	16.252	3.2727	0.	1736.8
1156	16.252	3.0909	0.	1736.8
1157	16.252	2.9091	0.	1736.8
1158	16.252	2.7273	0.	1736.8
1159	16.252	2.5455	0.	1736.8
1160	16.252	2.3636	0.	1736.8
1161	16.252	2.1818	0.	1736.8
1162	16.252	2.	0.	1736.8
1163	16.252	1.8182	0.	1736.8
1164	16.252	1.6364	0.	1736.8
1165	16.252	1.4545	0.	1736.8
1166	16.252	1.2727	0.	1736.9
1167	16.252	1.0909	0.	1737.1
1168	16.252	0.90909	0.	1737.3
1169	16.252	0.72727	0.	1737.7
1170	16.252	0.54545	0.	1738.1
1171	16.252	0.36364	0.	1738.9
1172	16.252	0.18182	0.	1742.5
1173	16.067	5.8182	0.	1787.8
1174	16.067	5.6364	0.	1784.1
1175	16.067	5.4545	0.	1783.3
1176	16.067	5.2727	0.	1782.7
1177	16.067	5.0909	0.	1782.3
1178	16.067	4.9091	0.	1782.
1179	16.067	4.7273	0.	1781.7
1180	16.067	4.5455	0.	1781.6
1181	16.067	4.3636	0.	1781.4
1182	16.067	4.1818	0.	1781.3
1183	16.067	4.	0.	1781.3
1184	16.067	3.8182	0.	1781.2
1185	16.067	3.6364	0.	1781.2
1186	16.067	3.4545	0.	1781.2
1187	16.067	3.2727	0.	1781.2
1188	16.067	3.0909	0.	1781.2
1189	16.067	2.9091	0.	1781.2
1190	16.067	2.7273	0.	1781.2
1191	16.067	2.5455	0.	1781.2
1192	16.067	2.3636	0.	1781.2
1193	16.067	2.1818	0.	1781.2
1194	16.067	2.	0.	1781.3
1195	16.067	1.8182	0.	1781.3
1196	16.067	1.6364	0.	1781.4
1197	16.067	1.4545	0.	1781.6
1198	16.067	1.2727	0.	1781.7
1199	16.067	1.0909	0.	1782.
1200	16.067	0.90909	0.	1782.3
1201	16.067	0.72727	0.	1782.7
1202	16.067	0.54545	0.	1783.3
1203	16.067	0.36364	0.	1784.1
1204	16.067	0.18182	0.	1787.8
1205	15.882	5.8182	0.	1833.3
1206	15.882	5.6364	0.	1829.5
1207	15.882	5.4545	0.	1828.6
1208	15.882	5.2727	0.	1828.
1209	15.882	5.0909	0.	1827.5
1210	15.882	4.9091	0.	1827.1
1211	15.882	4.7273	0.	1826.8
1212	15.882	4.5455	0.	1826.5
1213	15.882	4.3636	0.	1826.3
1214	15.882	4.1818	0.	1826.1
1215	15.882	4.	0.	1826.
1216	15.882	3.8182	0.	1825.9
1217	15.882	3.6364	0.	1825.9
1218	15.882	3.4545	0.	1825.8
1219	15.882	3.2727	0.	1825.8
1220	15.882	3.0909	0.	1825.8
1221	15.882	2.9091	0.	1825.8
1222	15.882	2.7273	0.	1825.8
1223	15.882	2.5455	0.	1825.8
1224	15.882	2.3636	0.	1825.9
1225	15.882	2.1818	0.	1825.9
1226	15.882	2.	0.	1826.
1227	15.882	1.8182	0.	1826.1
1228	15.882	1.6364	0.	1826.3
1229	15.882	1.4545	0.	1826.5
1230	15.882	1.2727	0.	1826.8
1231	15.882	1.0909	0.	1827.1
1232	15.882	0.90909	0.	1827.5
1233	15.882	0.72727	0.	1828.
1234	15.882	0.54545	0.	1828.6
1235	15.882	0.36364	0.	1829.5
1236	15.882	0.18182	0.	1833.3
1237	15.698	5.8182	0.	1879.
1238	15.698	5.6364	0.	1875.1
1239	15.698	5.4545	0.	1874.2
1240	15.698	5.2727	0.	1873.5
1241	15.698	5.0909	0.	1872.9
1242	15.698	4.9091	0.	1872.4
1243	15.698	4.7273	0.	1872.
1244	15.698	4.5455	0.	1871.7
1245	15.698	4.3636	0.	1871.4
1246	15.698	4.1818	0.	1871.2
1247	15.698	4.	0.	1871.
1248	15.698	3.8182	0.	1870.9
1249	15.698	3.6364	0.	1870.8
1250	15.698	3.4545	0.	1870.7
1251	15.698	3.2727	0.	1870.7
1252	15.698	3.0909	0.	1870.6
1253	15.698	2.9091	0.	1870.6
1254	15.698	2.7273	0.	1870.7
1255	15.698	2.5455	0.	1870.7
1256	15.698	2.3636	0.	1870.8
1257	15.698	2.1818	0.	1870.9
1258	15.698	2.	0.	1871.
1259	15.698	1.8182	0.	1871.2
1260	15.698	1.6364	0.	1871.4
1261	15.698	1.4545	0.	1871.7
1262	15.698	1.2727	0.	1872.
1263	15.698	1.0909	0.	1872.4
1264	15.698	0.90909	0.	1872.9
1265	15.698	0.72727	0.	1873.5
1266	15.698	0.54545	0.	1874.2
1267	15.698	0.36364	0.	1875.1
1268	15.698	0.18182	0.	1879.
1269	15.513	5.8182	0.	1924.8
1270	15.513	5.6364	0.	1920.9
1271	15.513	5.4545	0.	1919.9
1272	15.513	5.2727	0.	1919.1
1273	15.513	5.0909	0.	1918.5
1274	15.513	4.9091	0.	1917.9
1275	15.513	4.7273	0.	1917.4
1276	15.513	4.5455	0.	1917.
1277	15.513	4.3636	0.	1916.7
1278	15.513	4.1818	0.	1916.4
1279	15.513	4.	0.	1916.2
1280	15.513	3.8182	0.	1916.
1281	15.513	3.6364	0.	1915.9
1282	15.513	3.4545	0.	1915.8
1283	15.513	3.2727	0.	1915.8
1284	15.513	3.0909	0.	1915.7
1285	15.513	2.9091	0.	1915.7
1286	15.513	2.7273	0.	1915.8
1287	15.513	2.5455	0.	1915.8
1288	15.513	2.3636	0.	1915.9
1289	15.513	2.1818	0.	1916.
1290	15.513	2.	0.	1916.2
1291	15.513	1.8182	0.	1916.4
1292	15.513	1.6364	0.	1916.7
1293	15.513	1.4545	0.	1917.
1294	15.513	1.2727	0.	1917.4
1295	15.513	1.0909	0.	1917.9
1296	15.513	0.90909	0.	1918.5
1297	15.513	0.72727	0.	1919.1
1298	15.513	0.54545	0.	1919.9
1299	15.513	0.36364	0.	1920.9
1300	15.513	0.18182	0.	1924.8
1301	15.328	5.8182	0.	1970.8
1302	15.328	5.6364	0.	1966.9
1303	15.328	5.4545	0.	1965.8
1304	15.328	5.2727	0.	1965.
1305	15.328	5.0909	0.	1964.2
1306	15.328	4.9091	0.	1963.6
1307	15.328	4.7273	0.	1963.1
1308	15.328	4.5455	0.	1962.6
1309	15.328	4.3636	0.	1962.2
1310	15.328	4.1818	0.	1961.9
1311	15.328	4.	0.	1961.7
1312	15.328	3.8182	0.	1961.4
1313	15.328	3.6364	0.	1961.3
1314	15.328	3.4545	0.	1961.2
1315	15.328	3.2727	0.	1961.1
1316	15.328	3.0909	0.	1961.
1317	15.328	2.9091	0.	1961.
1318	15.328	2.7273	0.	1961.1
1319	15.328	2.5455	0.	1961.2
1320	15.328	2.3636	0.	1961.3
1321	15.328	2.1818	0.	1961.4
1322	15.328	2.	0.	1961.7
1323	15.328	1.8182	0.	1961.9
1324	15.328	1.6364	0.	1962.2
1325	15.328	1.4545	0.	1962.6
1326	15.328	1.2727	0.	1963.1
1327	15.328	1.0909	0.	1963.6
1328	15.328	0.90909	0.	1964.2
1329	15.328	0.72727	0.	1965.
1330	15.328	0.54545	0.	1965.8
1331	15.328	0.36364	0.	1966.9
1332	15.328	0.18182	0.	1970.8
1333	15.144	5.8182	0.	2017.
1334	15.144	5.6364	0.	2013.1
1335	15.144	5.4545	0.	2011.9
1336	15.144	5.2727	0.	2011.
1337	15.144	5.0909	0.	2010.2
1338	15.144	4.9091	0.	2009.5
1339	15.144	4.7273	0.	2008.9
1340	15.144	4.5455	0.	2008.4
1341	15.144	4.3636	0.	2008.
1342	15.144	4.1818	0.	2007.6
1343	15.144	4.	0.	2007.3
1344	15.144	3.8182	0.	2007.1
1345	15.144	3.6364	0.	2006.9
1346	15.144	3.4545	0.	2006.7
1347	15.144	3.2727	0.	2006.6
1348	15.144	3.0909	0.	2006.6
1349	15.144	2.9091	0.	2006.6
1350	15.144	2.7273	0.	2006.6
1351	15.144	2.5455	0.	2006.7
1352	15.144	2.3636	0.	2006.9
1353	15.144	2.1818	0.	2007.1
1354	15.144	2.	0.	2007.3
1355	15.144	1.8182	0.	2007.6
1356	15.144	1.6364	0.	2008.
1357	15.144	1.4545	0.	2008.4
1358	15.144	1.2727	0.	2008.9
1359	15.144	1.0909	0.	2009.5
1360	15.144	0.90909	0.	2010.2
1361	15.144	0.72727	0.	2011.
1362	15.144	0.54545	0.	2011.9
1363	15.144	0.36364	0.	2013.1
1364	15.144	0.18182	0.	2017.
1365	14.959	5.8182	0.	2063.4
1366	14.959	5.6364	0.	2059.5
1367	14.959	5.4545	0.	2058.2
1368	14.959	5.2727	0.	2057.3
1369	14.959	5.0909	0.	2056.4
1370	14.959	4.9091	0.	2055.7
1371	14.959	4.7273	0.	2055.
1372	14.959	4.5455	0.	2054.4
1373	14.959	4.3636	0.	2053.9
1374	14.959	4.1818	0.	2053.5
1375	14.959	4.	0.	2053.2
1376	14.959	3.8182	0.	2052.9
1377	14.959	3.6364	0.	2052.7
1378	14.959	3.4545	0.	2052.5
1379	14.959	3.2727	0.	2052.4
1380	14.959	3.0909	0.	2052.3
1381	14.959	2.9091	0.	2052.3
1382	14.959	2.7273	0.	2052.4
1383	14.959	2.5455	0.	2052.5
1384	14.959	2.3636	0.	2052.7
1385	14.959	2.1818	0.	2052.9
1386	14.959	2.	0.	2053.2
1387	14.959	1.8182	0.	2053.5
1388	14.959	1.6364	0.	2053.9
1389	14.959	1.4545	0.	2054.4
1390	14.959	1.2727	0.	2055.
1391	14.959	1.0909	0.	2055.7
1392	14.959	0.90909	0.	2056.4
1393	14.959	0.72727	0.	2057.3
1394	14.959	0.54545	0.	2058.2
1395	14.959	0.36364	0.	2059.5
1396	14.959	0.18182	0.	2063.4
1397	14.774	5.8182	0.	2110.
1398	14.774	5.6364	0.	2106.
1399	14.774	5.4545	0.	2104.7
1400	14.774	5.2727	0.	2103.7
1401	14.774	5.0909	0.	2102.8
1402	14.774	4.9091	0.	2102.
1403	14.774	4.7273	0.	2101.3
1404	14.774	4.5455	0.	2100.6
1405	14.774	4.3636	0.	2100.1
1406	14.774	4.1818	0.	2099.6
1407	14.774	4.	0.	2099.2
1408	14.774	3.8182	0.	2098.9
1409	14.774	3.6364	0.	2098.7
1410	14.774	3.4545	0.	2098.5
1411	14.774	3.2727	0.	2098.4
1412	14.774	3.0909	0.	2098.3
1413	14.774	2.9091	0.	2098.3
1414	14.774	2.7273	0.	2098.4
1415	14.774	2.5455	0.	2098.5
1416	14.774	2.3636	0.	2098.7
1417	14.774	2.1818	0.	2098.9
1418	14.774	2.	0.	2099.2
1419	14.774	1.8182	0.	2099.6
1420	14.774	1.6364	0.	2100.1
1421	14.774	1.4545	0.	2100.6
1422	14.774	1.2727	0.	2101.3
1423	14.774	1.0909	0.	2102.
1424	14.774	0.90909	0.	2102.8
1425	14.774	0.72727	0.	2103.7
1426	14.774	0.54545	0.	2104.7
1427	14.774	0.36364	0.	2106.
1428	14.774	0.18182	0.	2110.
1429	14.59	5.8182	0.	2156.8
1430	14.59	5.6364	0.	2152.8
1431	14.59	5.4545	0.	2151.4
1432	14.59	5.2727	0.	2150.4
1433	14.59	5.0909	0.	2149.4
1434	14.59	4.9091	0.	2148.5
1435	14.59	4.7273	0.	2147.7
1436	14.59	4.5455	0.	2147.1
1437	14.59	4.3636	0.	2146.5
1438	14.59	4.1818	0.	2146.
1439	14.59	4.	0.	2145.5
1440	14.59	3.8182	0.	2145.2
1441	14.59	3.6364	0.	2144.9
1442	14.59	3.4545	0.	2144.7
1443	14.59	3.2727	0.	2144.6
1444	14.59	3.0909	0.	2144.5
1445	14.59	2.9091	0.	2144.5
1446	14.59	2.7273	0.	2144.6
1447	14.59	2.5455	0.	2144.7
1448	14.59	2.3636	0.	2144.9
1449	14.59	2.1818	0.	2145.2
1450	14.59	2.	0.	2145.5
1451	14.59	1.8182	0.	2146.
1452	14.59	1.6364	0.	2146.5
1453	14.59	1.4545	0.	2147.1
1454	14.59	1.2727	0.	2147.7
1455	14.59	1.0909	0.	2148.5
1456	14.59	0.90909	0.	2149.4
1457	14.59	0.72727	0.	2150.4
1458	14.59	0.54545	0.	2151.4
1459	14.59	0.36364	0.	2152.8
1460	14.59	0.18182	0.	2156.8
1461	14.405	5.8182	0.	2203.8
1462	14.405	5.6364	0.	2199.7
1463	14.405	5.4545	0.	2198.3
1464	14.405	5.2727	0.	2197.2
1465	14.405	5.0909	0.	2196.2
1466	14.405	4.9091	0.	2195.2
1467	14.405	4.7273	0.	2194.4
1468	14.405	4.5455	0.	2193.7
1469	14.405	4.3636	0.	2193.
1470	14.405	4.1818	0.	2192.5
1471	14.405	4.	0.	2192.
1472	14.405	3.8182	0.	2191.6
1473	14.405	3.6364	0.	2191.3
1474	14.405	3.4545	0.	2191.1
1475	14.405	3.2727	0.	2191.
1476	14.405	3.0909	0.	2190.9
1477	14.405	2.9091	0.	2190.9
1478	14.405	2.7273	0.	2191.
1479	14.405	2.5455	0.	2191.1
1480	14.405	2.3636	0.	2191.3
1481	14.405	2.1818	0.	2191.6
1482	14.405	2.	0.	2192.
1483	14.405	1.8182	0.	2192.5
1484	14.405	1.6364	0.	2193.
1485	14.405	1.4545	0.	2193.7
1486	14.405	1.2727	0.	2194.4
1487	14.405	1.0909	0.	2195.2
1488	14.405	0.90909	0.	2196.2
1489	14.405	0.72727	0.	2197.2
1490	14.405	0.54545	0.	2198.3
1491	14.405	0.36364	0.	2199.7
1492	14.405	0.18182	0.	2203.8
1493	14.22	5.8182	0.	2251.
1494	14.22	5.6364	0.	2246.9
1495	14.22	5.4545	0.	2245.4
1496	14.22	5.2727	0.	2244.2
1497	14.22	5.0909	0.	2243.1
1498	14.22	4.9091	0.	2242.2
1499	14.22	4.7273	0.	2241.3
1500	14.22	4.5455	0.	2240.5
1501	14.22	4.3636	0.	2239.8
1502	14.22	4.1818	0.	2239.2
1503	14.22	4.	0.	2238.7
1504	14.22	3.8182	0.	2238.3
1505	14.22	3.6364	0.	2238.
1506	14.22	3.4545	0.	2237.7
1507	14.22	3.2727	0.	2237.5
1508	14.22	3.0909	0.	2237.5
1509	14.22	2.9091	0.	2237.5
1510	14.22	2.7273	0.	2237.5
1511	14.22	2.5455	0.	2237.7
1512	14.22	2.3636	0.	2238.
1513	14.22	2.1818	0.	2238.3
1514	14.22	2.	0.	2238.7
1515	14.22	1.8182	0.	2239.2
1516	14.22	1.6364	0.	2239.8
1517	14.22	1.4545	0.	2240.5
1518	14.22	1.2727	0.	2241.3
1519	14.22	1.0909	0.	2242.2
1520	14.22	0.90909	0.	2243.1
1521	14.22	0.72727	0.	2244.2
1522	14.22	0.54545	0.	2245.4
1523	14.22	0.36364	0.	2246.9
1524	14.22	0.18182	0.	2251.
1525	14.035	5.8182	0.	2298.3
1526	14.035	5.6364	0.	2294.2
1527	14.035	5.4545	0.	2292.7
1528	14.035	5.2727	0.	2291.5
1529	14.035	5.0909	0.	2290.3
1530	14.035	4.9091	0.	2289.3
1531	14.035	4.7273	0.	2288.3
1532	14.035	4.5455	0.	2287.5
1533	14.035	4.3636	0.	2286.8
1534	14.035	4.1818	0.	2286.1
1535	14.035	4.	0.	2285.6
1536	14.035	3.8182	0.	2285.1
1537	14.035	3.6364	0.	2284.8
1538	14.035	3.4545	0.	2284.5
1539	14.035	3.2727	0.	2284.3
1540	14.035	3.0909	0.	2284.2
1541	14.035	2.9091	0.	2284.2
1542	14.035	2.7273	0.	2284.3
1543	14.035	2.5455	0.	2284.5
1544	14.035	2.3636	0.	2284.8
1545	14.035	2.1818	0.	2285.1
1546	14.035	2.	0.	2285.6
1547	14.035	1.8182	0.	2286.1
1548	14.035	1.6364	0.	2286.8
1549	14.035	1.4545	0.	2287.5
1550	14.035	1.2727	0.	2288.3
1551	14.035	1.0909	0.	2289.3
1552	14.035	0.90909	0.	2290.3
1553	14.035	0.72727	0.	2291.5
1554	14.035	0.54545	0.	2292.7
1555	14.035	0.36364	0.	2294.2
1556	14.035	0.18182	0.	2298.3
1557	13.851	5.8182	0.	2345.9
1558	13.851	5.6364	0.	2341.8
1559	13.851	5.4545	0.	2340.2
1560	13.851	5.2727	0.	2338.9
1561	13.851	5.0909	0.	2337.7
1562	13.851	4.9091	0.	2336.6
1563	13.851	4.7273	0.	2335.6
1564	13.851	4.5455	0.	2334.7
1565	13.851	4.3636	0.	2333.9
1566	13.851	4.1818	0.	2333.2
1567	13.851	4.	0.	2332.7
1568	13.851	3.8182	0.	2332.2
1569	13.851	3.6364	0.	2331.8
1570	13.851	3.4545	0.	2331.5
1571	13.851	3.2727	0.	2331.3
1572	13.851	3.0909	0.	2331.2
1573	13.851	2.9091	0.	2331.2
1574	13.851	2.7273	0.	2331.3
1575	13.851	2.5455	0.	2331.5
1576	13.851	2.3636	0.	2331.8
1577	13.851	2.1818	0.	2332.2
1578	13.851	2.	0.	2332.7
1579	13.851	1.8182	0.	2333.2
1580	13.851	1.6364	0.	2333.9
1581	13.851	1.4545	0.	2334.7
1582	13.851	1.2727	0.	2335.6
1583	13.851	1.0909	0.	2336.6
1584	13.851	0.90909	0.	2337.7
1585	13.851	0.72727	0.	2338.9
1586	13.851	0.54545	0.	2340.2
1587	13.851	0.36364	0.	2341.8
1588	13.851	0.18182	0.	2345.9
1589	13.666	5.8182	0.	2393.7
1590	13.666	5.6364	0.	2389.5
1591	13.666	5.4545	0.	2387.9
1592	13.666	5.2727	0.	2386.5
1593	13.666	5.0909	0.	2385.2
1594	13.666	4.9091	0.	2384.1
1595	13.666	4.7273	0.	2383.
1596	13.666	4.5455	0.	2382.1
1597	13.666	4.3636	0.	2381.3
1598	13.666	4.1818	0.	2380.5
1599	13.666	4.	0.	2379.9
1600	13.666	3.8182	0.	2379.4
1601	13.666	3.6364	0.	2379.
1602	13.666	3.4545	0.	2378.7
1603	13.666	3.2727	0.	2378.5
1604	13.666	3.0909	0.	2378.4
1605	13.666	2.9091	0.	2378.4
1606	13.666	2.7273	0.	2378.5
1607	13.666	2.5455	0.	2378.7
1608	13.666	2.3636	0.	2379.
1609	13.666	2.1818	0.	2379.4
1610	13.666	2.	0.	2379.9
1611	13.666	1.8182	0.	2380.5
1612	13.666	1.6364	0.	2381.3
1613	13.666	1.4545	0.	2382.1
1614	13.666	1.2727	0.	2383.
1615	13.666	1.0909	0.	2384.1
1616	13.666	0.90909	0.	2385.2
1617	13.666	0.72727	0.	2386.5
1618	13.666	0.54545	0.	2387.9
1619	13.666	0.36364	0.	2389.5
1620	13.666	0.18182	0.	2393.7
1621	13.481	5.8182	0.	2441.6
1622	13.481	5.6364	0.	2437.5
1623	13.481	5.4545	0.	2435.8
1624	13.481	5.2727	0.	2434.3
1625	13.481	5.0909	0.	2433.
1626	13.481	4.9091	0.	2431.8
1627	13.481	4.7273	0.	2430.7
1628	13.481	4.5455	0.	2429.7
1629	13.481	4.3636	0.	2428.8
1630	13.481	4.1818	0.	2428.
1631	13.481	4.	0.	2427.4
1632	13.481	3.8182	0.	2426.8
1633	13.481	3.6364	0.	2426.4
1634	13.481	3.4545	0.	2426.1
1635	13.481	3.2727	0.	2425.8
1636	13.481	3.0909	0.	2425.7
1637	13.481	2.9091	0.	2425.7
1638	13.481	2.7273	0.	2425.8
1639	13.481	2.5455	0.	2426.1
1640	13.481	2.3636	0.	2426.4
1641	13.481	2.1818	0.	2426.8
1642	13.481	2.	0.	2427.4
1643	13.481	1.8182	0.	2428.
1644	13.481	1.6364	0.	2428.8
1645	13.481	1.4545	0.	2429.7
1646	13.481	1.2727	0.	2430.7
1647	13.481	1.0909	0.	2431.8
1648	13.481	0.90909	0.	2433.
1649	13.481	0.72727	0.	2434.3
1650	13.481	0.54545	0.	2435.8
1651	13.481	0.36364	0.	2437.5
1652	13.481	0.18182	0.	2441.6
1653	13.297	5.8182	0.	2489.8
1654	13.297	5.6364	0.	2485.6
1655	13.297	5.4545	0.	2483.9
1656	13.297	5.2727	0.	2482.3
1657	13.297	5.0909	0.	2480.9
1658	13.297	4.9091	0.	2479.7
1659	13.297	4.7273	0.	2478.5
1660	13.297	4.5455	0.	2477.5
1661	13.297	4.3636	0.	2476.5
1662	13.297	4.1818	0.	2475.7
1663	13.297	4.	0.	2475.
1664	13.297	3.8182	0.	2474.4
1665	13.297	3.6364	0.	2473.9
1666	13.297	3.4545	0.	2473.6
1667	13.297	3.2727	0.	2473.4
1668	13.297	3.0909	0.	2473.2
1669	13.297	2.9091	0.	2473.2
1670	13.297	2.7273	0.	2473.4
1671	13.297	2.5455	0.	2473.6
1672	13.297	2.3636	0.	2473.9
1673	13.297	2.1818	0.	2474.4
1674	13.297	2.	0.	2475.
1675	13.297	1.8182	0.	2475.7
1676	13.297	1.6364	0.	2476.5
1677	13.297	1.4545	0.	2477.5
1678	13.297	1.2727	0.	2478.5
1679	13.297	1.0909	0.	2479.7
1680	13.297	0.90909	0.	2480.9
1681	13.297	0.72727	0.	2482.3
1682	13.297	0.54545	0.	2483.9
1683	13.297	0.36364	0.	2485.6
1684	13.297	0.18182	0.	2489.8
1685	13.112	5.8182	0.	2538.2
1686	13.112	5.6364	0.	2534.
1687	13.112	5.4545	0.	2532.1
1688	13.112	5.2727	0.	2530.5
1689	13.112	5.0909	0.	2529.1
1690	13.112	4.9091	0.	2527.7
1691	13.112	4.7273	0.	2526.5
1692	13.112	4.5455	0.	2525.4
1693	13.112	4.3636	0.	2524.4
1694	13.112	4.1818	0.	2523.6
1695	13.112	4.	0.	2522.8
1696	13.112	3.8182	0.	2522.2
1697	13.112	3.6364	0.	2521.7
1698	13.112	3.4545	0.	2521.3
1699	13.112	3.2727	0.	2521.1
1700	13.112	3.0909	0.	2520.9
1701	13.112	2.9091	0.	2520.9
1702	13.112	2.7273	0.	2521.1
1703	13.112	2.5455	0.	2521.3
1704	13.112	2.3636	0.	2521.7
1705	13.112	2.1818	0.	2522.2
1706	13.112	2.	0.	2522.8
1707	13.112	1.8182	0.	2523.6
1708	13.112	1.6364	0.	2524.4
1709	13.112	1.4545	0.	2525.4
1710	13.112	1.2727	0.	2526.5
1711	13.112	1.0909	0.	2527.7
1712	13.112	0.90909	0.	2529.1
1713	13.112	0.72727	0.	2530.5
1714	13.112	0.54545	0.	2532.1
1715	13.112	0.36364	0.	2534.
1716	13.112	0.18182	0.	2538.2
1717	12.927	5.8182	0.	2586.8
1718	12.927	5.6364	0.	2582.5
1719	12.927	5.4545	0.	2580.6
1720	12.927	5.2727	0.	2578.9
1721	12.927	5.0909	0.	2577.4
1722	12.927	4.9091	0.	2576.
1723	12.927	4.7273	0.	2574.7
1724	12.927	4.5455	0.	2573.5
1725	12.927	4.3636	0.	2572.5
1726	12.927	4.1818	0.	2571.6
1727	12.927	4.	0.	2570.8
1728	12.927	3.8182	0.	2570.1
1729	12.927	3.6364	0.	2569.6
1730	12.927	3.4545	0.	2569.2
1731	12.927	3.2727	0.	2568.9
1732	12.927	3.0909	0.	2568.8
1733	12.927	2.9091	0.	2568.8
1734	12.927	2.7273	0.	2568.9
1735	12.927	2.5455	0.	2569.2
1736	12.927	2.3636	0.	2569.6
1737	12.927	2.1818	0.	2570.1
1738	12.927	2.	0.	2570.8
1739	12.927	1.8182	0.	2571.6
1740	12.927	1.6364	0.	2572.5
1741	12.927	1.4545	0.	2573.5
1742	12.927	1.2727	0.	2574.7
1743	12.927	1.0909	0.	2576.
1744	12.927	0.90909	0.	2577.4
1745	12.927	0.72727	0.	2578.9
1746	12.927	0.54545	0.	2580.6
1747	12.927	0.36364	0.	2582.5
1748	12.927	0.18182	0.	2586.8
1749	12.743	5.8182	0.	2635.5
1750	12.743	5.6364	0.	2631.2
1751	12.743	5.4545	0.	2629.3
1752	12.743	5.2727	0.	2627.5
1753	12.743	5.0909	0.	2625.9
1754	12.743	4.9091	0.	2624.4
1755	12.743	4.7273	0.	2623.1
1756	12.743	4.5455	0.	2621.8
1757	12.743	4.3636	0.	2620.7
1758	12.743	4.1818	0.	2619.8
1759	12.743	4.	0.	2618.9
1760	12.743	3.8182	0.	2618.2
1761	12.743	3.6364	0.	2617.7
1762	12.743	3.4545	0.	2617.2
1763	12.743	3.2727	0.	2617.
1764	12.743	3.0909	0.	2616.8
1765	12.743	2.9091	0.	2616.8
1766	12.743	2.7273	0.	2617.
1767	12.743	2.5455	0.	2617.2
1768	12.743	2.3636	0.	2617.7
1769	12.743	2.1818	0.	2618.2
1770	12.743	2.	0.	2618.9
1771	12.743	1.8182	0.	2619.8
1772	12.743	1.6364	0.	2620.7
1773	12.743	1.4545	0.	2621.8
1774	12.743	1.2727	0.	2623.1
1775	12.743	1.0909	0.	2624.4
1776	12.743	0.90909	0.	2625.9
1777	12.743	0.72727	0.	2627.5
1778	12.743	0.54545	0.	2629.3
1779	12.743	0.36364	0.	2631.2
1780	12.743	0.18182	0.	2635.5
1781	12.558	5.8182	0.	2684.5
1782	12.558	5.6364	0.	2680.2
1783	12.558	5.4545	0.	2678.1
1784	12.558	5.2727	0.	2676.3
1785	12.558	5.0909	0.	2674.6
1786	12.558	4.9091	0.	2673.
1787	12.558	4.7273	0.	2671.6
1788	12.558	4.5455	0.	2670.3
1789	12.558	4.3636	0.	2669.1
1790	12.558	4.1818	0.	2668.1
1791	12.558	4.	0.	2667.2
1792	12.558	3.8182	0.	2666.5
1793	12.558	3.6364	0.	2665.9
1794	12.558	3.4545	0.	2665.5
1795	12.558	3.2727	0.	2665.2
1796	12.558	3.0909	0.	2665.
1797	12.558	2.9091	0.	2665.
1798	12.558	2.7273	0.	2665.2
1799	12.558	2.5455	0.	2665.5
1800	12.558	2.3636	0.	2665.9
1801	12.558	2.1818	0.	2666.5
1802	12.558	2.	0.	2667.2
1803	12.558	1.8182	0.	2668.1
1804	12.558	1.6364	0.	2669.1
1805	12.558	1.4545	0.	2670.3
1806	12.558	1.2727	0.	2671.6
1807	12.558	1.0909	0.	2673.
1808	12.558	0.90909	0.	2674.6
1809	12.558	0.72727	0.	2676.3
1810	12.558	0.54545	0.	2678.1
1811	12.558	0.36364	0.	2680.2
1812	12.558	0.18182	0.	2684.5
1813	12.373	5.8182	0.	2733.7
1814	12.373	5.6364	0.	2729.3
1815	12.373	5.4545	0.	2727.2
1816	12.373	5.2727	0.	2725.3
1817	12.373	5.0909	0.	2723.5
1818	12.373	4.9091	0.	2721.8
1819	12.373	4.7273	0.	2720.3
1820	12.373	4.5455	0.	2719.
1821	12.373	4.3636	0.	2717.7
1822	12.373	4.1818	0.	2716.6
1823	12.373	4.	0.	2715.7
1824	12.373	3.8182	0.	2714.9
1825	12.373	3.6364	0.	2714.3
1826	12.373	3.4545	0.	2713.8
1827	12.373	3.2727	0.	2713.5
1828	12.373	3.0909	0.	2713.3
1829	12.373	2.9091	0.	2713.3
1830	12.373	2.7273	0.	2713.5
1831	12.373	2.5455	0.	2713.8
1832	12.373	2.3636	0.	2714.3
1833	12.373	2.1818	0.	2714.9
1834	12.373	2.	0.	2715.7
1835	12.373	1.8182	0.	2716.6
1836	12.373	1.6364	0.	2717.7
1837	12.373	1.4545	0.	2719.
1838	12.373	1.2727	0.	2720.3
1839	12.373	1.0909	0.	2721.8
1840	12.373	0.90909	0.	2723.5
1841	12.373	0.72727	0.	2725.3
1842	12.373	0.54545	0.	2727.2
1843	12.373	0.36364	0.	2729.3
1844	12.373	0.18182	0.	2733.7
1845	12.189	5.8182	0.	2783.1
1846	12.189	5.6364	0.	2778.7
1847	12.189	5.4545	0.	2776.4
1848	12.189	5.2727	0.	2774.4
1849	12.189	5.0909	0.	2772.5
1850	12.189	4.9091	0.	2770.8
1851	12.189	4.7273	0.	2769.2
1852	12.189	4.5455	0.	2767.8
1853	12.189	4.3636	0.	2766.5
1854	12.189	4.1818	0.	2765.3
1855	12.189	4.	0.	2764.3
1856	12.189	3.8182	0.	2763.5
1857	12.189	3.6364	0.	2762.8
1858	12.189	3.4545	0.	2762.3
1859	12.189	3.2727	0.	2762.
1860	12.189	3.0909	0.	2761.8
1861	12.189	2.9091	0.	2761.8
1862	12.189	2.7273	0.	2762.
1863	12.189	2.5455	0.	2762.3
1864	12.189	2.3636	0.	2762.8
1865	12.189	2.1818	0.	2763.5
1866	12.189	2.	0.	2764.3
1867	12.189	1.8182	0.	2765.3
1868	12.189	1.6364	0.	2766.5
1869	12.189	1.4545	0.	2767.8
1870	12.189	1.2727	0.	2769.2
1871	12.189	1.0909	0.	2770.8
1872	12.189	0.90909	0.	2772.5
1873	12.189	0.72727	0.	2774.4
1874	12.189	0.54545	0.	2776.4
1875	12.189	0.36364	0.	2778.7
1876	12.189	0.18182	0.	2783.1
1877	12.004	5.8182	0.	2832.7
1878	12.004	5.6364	0.	2828.2
1879	12.004	5.4545	0.	2825.8
1880	12.004	5.2727	0.	2823.7
1881	12.004	5.0909	0.	2821.8
1882	12.004	4.9091	0.	2820.
1883	12.004	4.7273	0.	2818.3
1884	12.004	4.5455	0.	2816.7
1885	12.004	4.3636	0.	2815.4
1886	12.004	4.1818	0.	2814.1
1887	12.004	4.	0.	2813.1
1888	12.004	3.8182	0.	2812.2
1889	12.004	3.6364	0.	2811.5
1890	12.004	3.4545	0.	2811.
1891	12.004	3.2727	0.	2810.6
1892	12.004	3.0909	0.	2810.4
1893	12.004	2.9091	0.	2810.4
1894	12.004	2.7273	0.	2810.6
1895	12.004	2.5455	0.	2811.
1896	12.004	2.3636	0.	2811.5
1897	12.004	2.1818	0.	2812.2
1898	12.004	2.	0.	2813.1
1899	12.004	1.8182	0.	2814.1
1900	12.004	1.6364	0.	2815.4
1901	12.004	1.4545	0.	2816.7
1902	12.004	1.2727	0.	2818.3
1903	12.004	1.0909	0.	2820.
1904	12.004	0.90909	0.	2821.8
1905	12.004	0.72727	0.	2823.7
1906	12.004	0.54545	0.	2825.8
1907	12.004	0.36364	0.	2828.2
1908	12.004	0.18182	0.	2832.7
1909	11.819	5.8182	0.	2882.6
1910	11.819	5.6364	0.	2877.9
1911	11.819	5.4545	0.	2875.5
1912	11.819	5.2727	0.	2873.3
1913	11.819	5.0909	0.	2871.2
1914	11.819	4.9091	0.	2869.3
1915	11.819	4.7273	0.	2867.5
1916	11.819	4.5455	0.	2865.9
1917	11.819	4.3636	0.	2864.4
1918	11.819	4.1818	0.	2863.1
1919	11.819	4.	0.	2862.
1920	11.819	3.8182	0.	2861.1
1921	11.819	3.6364	0.	2860.3
1922	11.819	3.4545	0.	2859.7
1923	11.819	3.2727	0.	2859.4
1924	11.819	3.0909	0.	2859.2
1925	11.819	2.9091	0.	2859.2
1926	11.819	2.7273	0.	2859.4
1927	11.819	2.5455	0.	2859.7
1928	11.819	2.3636	0.	2860.3
1929	11.819	2.1818	0.	2861.1
1930	11.819	2.	0.	2862.
1931	11.819	1.8182	0.	2863.1
1932	11.819	1.6364	0.	2864.4
1933	11.819	1.4545	0.	2865.9
1934	11.819	1.2727	0.	2867.5
1935	11.819	1.0909	0.	2869.3
1936	11.819	0.90909	0.	2871.2
1937	11.819	0.72727	0.	2873.3
1938	11.819	0.54545	0.	2875.5
1939	11.819	0.36364	0.	2877.9
1940	11.819	0.18182	0.	2882.6
1941	11.635	5.8182	0.	2932.6
1942	11.635	5.6364	0.	2927.9
1943	11.635	5.4545	0.	2925.3
1944	11.635	5.2727	0.	2923.
1945	11.635	5.0909	0.	2920.8
1946	11.635	4.9091	0.	2918.8
1947	11.635	4.7273	0.	2916.9
1948	11.635	4.5455	0.	2915.2
1949	11.635	4.3636	0.	2913.6
1950	11.635	4.1818	0.	2912.2
1951	11.635	4.	0.	2911.
1952	11.635	3.8182	0.	2910.1
1953	11.635	3.6364	0.	2909.2
1954	11.635	3.4545	0.	2908.6
1955	11.635	3.2727	0.	2908.2
1956	11.635	3.0909	0.	2908.
1957	11.635	2.9091	0.	2908.
1958	11.635	2.7273	0.	2908.2
1959	11.635	2.5455	0.	2908.6
1960	11.635	2.3636	0.	2909.2
1961	11.635	2.1818	0.	2910.1
1962	11.635	2.	0.	2911.
1963	11.635	1.8182	0.	2912.2
1964	11.635	1.6364	0.	2913.6
1965	11.635	1.4545	0.	2915.2
1966	11.635	1.2727	0.	2916.9
1967	11.635	1.0909	0.	2918.8
1968	11.635	0.90909	0.	2920.8
1969	11.635	0.72727	0.	2923.
1970	11.635	0.54545	0.	2925.3
1971	11.635	0.36364	0.	2927.9
1972	11.635	0.18182	0.	2932.6
1973	11.45	5.8182	0.	2982.8
1974	11.45	5.6364	0.	2978.
1975	11.45	5.4545	0.	2975.3
1976	11.45	5.2727	0.	2972.9
1977	11.45	5.0909	0.	2970.6
1978	11.45	4.9091	0.	2968.4
1979	11.45	4.7273	0.	2966.4
1980	11.45	4.5455	0.	2964.6
1981	11.45	4.3636	0.	2962.9
1982	11.45	4.1818	0.	2961.5
1983	11.45	4.	0.	2960.2
1984	11.45	3.8182	0.	2959.2
1985	11.45	3.6364	0.	2958.3
1986	11.45	3.4545	0.	2957.7
1987	11.45	3.2727	0.	2957.2
1988	11.45	3.0909	0.	2957.
1989	11.45	2.9091	0.	2957.
1990	11.45	2.7273	0.	2957.2
1991	11.45	2.5455	0.	2957.7
1992	11.45	2.3636	0.	2958.3
1993	11.45	2.1818	0.	2959.2
1994	11.45	2.	0.	2960.2
1995	11.45	1.8182	0.	2961.5
1996	11.45	1.6364	0.	2962.9
1997	11.45	1.4545	0.	2964.6
1998	11.45	1.2727	0.	2966.4
1999	11.45	1.0909	0.	2968.4
2000	11.45	0.90909	0.	2970.6
2001	11.45	0.72727	0.	2972.9
2002	11.45	0.54545	0.	2975.3
2003	11.45	0.36364	0.	2978.
2004	11.45	0.18182	0.	2982.8
2005	11.265	5.8182	0.	3033.3
2006	11.265	5.6364	0.	3028.4
2007	11.265	5.4545	0.	3025.5
2008	11.265	5.2727	0.	3022.9
2009	11.265	5.0909	0.	3020.5
2010	11.265	4.9091	0.	3018.2
2011	11.265	4.7273	0.	3016.1
2012	11.265	4.5455	0.	3014.2
2013	11.265	4.3636	0.	3012.4
2014	11.265	4.1818	0.	3010.9
2015	11.265	4.	0.	3009.5
2016	11.265	3.8182	0.	3008.4
2017	11.265	3.6364	0.	3007.5
2018	11.265	3.4545	0.	3006.8
2019	11.265	3.2727	0.	3006.3
2020	11.265	3.0909	0.	3006.1
2021	11.265	2.9091	0.	3006.1
2022	11.265	2.7273	0.	3006.3
2023	11.265	2.5455	0.	3006.8
2024	11.265	2.3636	0.	3007.5
2025	11.265	2.1818	0.	3008.4
2026	11.265	2.	0.	3009.5
2027	11.265	1.8182	0.	3010.9
2028	11.265	1.6364	0.	3012.4
2029	11.265	1.4545	0.	3014.2
2030	11.265	1.2727	0.	3016.1
2031	11.265	1.0909	0.	3018.2
2032	11.265	0.90909	0.	3020.5
2033	11.265	0.72727	0.	3022.9
2034	11.265	0.54545	0.	3025.5
2035	11.265	0.36364	0.	3028.4
2036	11.265	0.18182	0.	3033.3
2037	11.081	5.8182	0.	3083.9
2038	11.081	5.6364	0.	3078.9
2039	11.081	5.4545	0.	3075.9
2040	11.081	5.2727	0.	3073.2
2041	11.081	5.0909	0.	3070.6
2042	11.081	4.9091	0.	3068.2
2043	11.081	4.7273	0.	3065.9
2044	11.081	4.5455	0.	3063.9
2045	11.081	4.3636	0.	3062.
2046	11.081	4.1818	0.	3060.4
2047	11.081	4.	0.	3058.9
2048	11.081	3.8182	0.	3057.7
2049	11.081	3.6364	0.	3056.8
2050	11.081	3.4545	0.	3056.
2051	11.081	3.2727	0.	3055.6
2052	11.081	3.0909	0.	3055.3
2053	11.081	2.9091	0.	3055.3
2054	11.081	2.7273	0.	3055.6
2055	11.081	2.5455	0.	3056.
2056	11.081	2.3636	0.	3056.8
2057	11.081	2.1818	0.	3057.7
2058	11.081	2.	0.	3058.9
2059	11.081	1.8182	0.	3060.4
2060	11.081	1.6364	0.	3062.
2061	11.081	1.4545	0.	3063.9
2062	11.081	1.2727	0.	3065.9
2063	11.081	1.0909	0.	3068.2
2064	11.081	0.90909	0.	3070.6
2065	11.081	0.72727	0.	3073.2
2066	11.081	0.54545	0.	3075.9
2067	11.081	0.36364	0.	3078.9
2068	11.081	0.18182	0.	3083.9
2069	10.896	5.8182	0.	3134.8
2070	10.896	5.6364	0.	3129.7
2071	10.896	5.4545	0.	3126.5
2072	10.896	5.2727	0.	3123.6
2073	10.896	5.0909	0.	3120.9
2074	10.896	4.9091	0.	3118.3
2075	10.896	4.7273	0.	3115.9
2076	10.896	4.5455	0.	3113.7
2077	10.896	4.3636	0.	3111.7
2078	10.896	4.1818	0.	3110.
2079	10.896	4.	0.	3108.5
2080	10.896	3.8182	0.	3107.2
2081	10.896	3.6364	0.	3106.2
2082	10.896	3.4545	0.	3105.4
2083	10.896	3.2727	0.	3104.9
2084	10.896	3.0909	0.	3104.6
2085	10.896	2.9091	0.	3104.6
2086	10.896	2.7273	0.	3104.9
2087	10.896	2.5455	0.	3105.4
2088	10.896	2.3636	0.	3106.2
2089	10.896	2.1818	0.	3107.2
2090	10.896	2.	0.	3108.5
2091	10.896	1.8182	0.	3110.
2092	10.896	1.6364	0.	3111.7
2093	10.896	1.4545	0.	3113.7
2094	10.896	1.2727	0.	3115.9
2095	10.896	1.0909	0.	3118.3
2096	10.896	0.90909	0.	3120.9
2097	10.896	0.72727	0.	3123.6
2098	10.896	0.54545	0.	3126.5
2099	10.896	0.36364	0.	3129.7
2100	10.896	0.18182	0.	3134.8
2101	10.711	5.8182	0.	3185.9
2102	10.711	5.6364	0.	3180.7
2103	10.711	5.4545	0.	3177.3
2104	10.711	5.2727	0.	3174.2
2105	10.711	5.0909	0.	3171.3
2106	10.711	4.9091	0.	3168.6
2107	10.711	4.7273	0.	3166.
2108	10.711	4.5455	0.	3163.7
2109	10.711	4.3636	0.	3161.6
2110	10.711	4.1818	0.	3159.7
2111	10.711	4.	0.	3158.1
2112	10.711	3.8182	0.	3156.7
2113	10.711	3.6364	0.	3155.6
2114	10.711	3.4545	0.	3154.8
2115	10.711	3.2727	0.	3154.2
2116	10.711	3.0909	0.	3154.
2117	10.711	2.9091	0.	3154.
2118	10.711	2.7273	0.	3154.2
2119	10.711	2.5455	0.	3154.8
2120	10.711	2.3636	0.	3155.6
2121	10.711	2.1818	0.	3156.7
2122	10.711	2.	0.	3158.1
2123	10.711	1.8182	0.	3159.7
2124	10.711	1.6364	0.	3161.6
2125	10.711	1.4545	0.	3163.7
2126	10.711	1.2727	0.	3166.
2127	10.711	1.0909	0.	3168.6
2128	10.711	0.90909	0.	3171.3
2129	10.711	0.72727	0.	3174.2
2130	10.711	0.54545	0.	3177.3
2131	10.711	0.36364	0.	3180.7
2132	10.711	0.18182	0.	3185.9
2133	10.527	5.8182	0.	3237.3
2134	10.527	5.6364	0.	3231.8
2135	10.527	5.4545	0.	3228.3
2136	10.527	5.2727	0.	3225.
2137	10.527	5.0909	0.	3221.9
2138	10.527	4.9091	0.	3219.
2139	10.527	4.7273	0.	3216.3
2140	10.527	4.5455	0.	3213.8
2141	10.527	4.3636	0.	3211.5
2142	10.527	4.1818	0.	3209.5
2143	10.527	4.	0.	3207.8
2144	10.527	3.8182	0.	3206.4
2145	10.527	3.6364	0.	3205.2
2146	10.527	3.4545	0.	3204.3
2147	10.527	3.2727	0.	3203.7
2148	10.527	3.0909	0.	3203.4
2149	10.527	2.9091	0.	3203.4
2150	10.527	2.7273	0.	3203.7
2151	10.527	2.5455	0.	3204.3
2152	10.527	2.3636	0.	3205.2
2153	10.527	2.1818	0.	3206.4
2154	10.527	2.	0.	3207.8
2155	10.527	1.8182	0.	3209.5
2156	10.527	1.6364	0.	3211.5
2157	10.527	1.4545	0.	3213.8
2158	10.527	1.2727	0.	3216.3
2159	10.527	1.0909	0.	3219.
2160	10.527	0.90909	0.	3221.9
2161	10.527	0.72727	0.	3225.
2162	10.527	0.54545	0.	3228.3
2163	10.527	0.36364	0.	3231.8
2164	10.527	0.18182	0.	3237.3
2165	10.342	5.8182	0.	3288.8
2166	10.342	5.6364	0.	3283.2
2167	10.342	5.4545	0.	3279.4
2168	10.342	5.2727	0.	3276.
2169	10.342	5.0909	0.	3272.6
2170	10.342	4.9091	0.	3269.5
2171	10.342	4.7273	0.	3266.7
2172	10.342	4.5455	0.	3264.
2173	10.342	4.3636	0.	3261.6
2174	10.342	4.1818	0.	3259.5
2175	10.342	4.	0.	3257.6
2176	10.342	3.8182	0.	3256.1
2177	10.342	3.6364	0.	3254.8
2178	10.342	3.4545	0.	3253.8
2179	10.342	3.2727	0.	3253.2
2180	10.342	3.0909	0.	3252.9
2181	10.342	2.9091	0.	3252.9
2182	10.342	2.7273	0.	3253.2
2183	10.342	2.5455	0.	3253.8
2184	10.342	2.3636	0.	3254.8
2185	10.342	2.1818	0.	3256.1
2186	10.342	2.	0.	3257.6
2187	10.342	1.8182	0.	3259.5
2188	10.342	1.6364	0.	3261.6
2189	10.342	1.4545	0.	3264.
2190	10.342	1.2727	0.	3266.7
2191	10.342	1.0909	0.	3269.5
2192	10.342	0.90909	0.	3272.6
2193	10.342	0.72727	0.	3276.
2194	10.342	0.54545	0.	3279.4
2195	10.342	0.36364	0.	3283.2
2196	10.342	0.18182	0.	3288.8
2197	10.157	5.8182	0.	3340.6
2198	10.157	5.6364	0.	3334.8
2199	10.157	5.4545	0.	3330.8
2200	10.157	5.2727	0.	3327.1
2201	10.157	5.0909	0.	3323.6
2202	10.157	4.9091	0.	3320.2
2203	10.157	4.7273	0.	3317.2
2204	10.157	4.5455	0.	3314.3
2205	10.157	4.3636	0.	3311.8
2206	10.157	4.1818	0.	3309.5
2207	10.157	4.	0.	3307.5
2208	10.157	3.8182	0.	3305.8
2209	10.157	3.6364	0.	3304.5
2210	10.157	3.4545	0.	3303.4
2211	10.157	3.2727	0.	3302.8
2212	10.157	3.0909	0.	3302.4
2213	10.157	2.9091	0.	3302.4
2214	10.157	2.7273	0.	3302.8
2215	10.157	2.5455	0.	3303.4
2216	10.157	2.3636	0.	3304.5
2217	10.157	2.1818	0.	3305.8
2218	10.157	2.	0.	3307.5
2219	10.157	1.8182	0.	3309.5
2220	10.157	1.6364	0.	3311.8
2221	10.157	1.4545	0.	3314.3
2222	10.157	1.2727	0.	3317.2
2223	10.157	1.0909	0.	3320.2
2224	10.157	0.90909	0.	3323.6
2225	10.157	0.72727	0.	3327.1
2226	10.157	0.54545	0.	3330.8
2227	10.157	0.36364	0.	3334.8
2228	10.157	0.18182	0.	3340.6
2229	9.9726	5.8182	0.	3392.6
2230	9.9726	5.6364	0.	3386.6
2231	9.9726	5.4545	0.	3382.3
2232	9.9726	5.2727	0.	3378.4
2233	9.9726	5.0909	0.	3374.6
2234	9.9726	4.9091	0.	3371.1
2235	9.9726	4.7273	0.	3367.8
2236	9.9726	4.5455	0.	3364.7
2237	9.9726	4.3636	0.	3362.
2238	9.9726	4.1818	0.	3359.5
2239	9.9726	4.	0.	3357.4
2240	9.9726	3.8182	0.	3355.6
2241	9.9726	3.6364	0.	3354.2
2242	9.9726	3.4545	0.	3353.1
2243	9.9726	3.2727	0.	3352.3
2244	9.9726	3.0909	0.	3352.
2245	9.9726	2.9091	0.	3352.
2246	9.9726	2.7273	0.	3352.3
2247	9.9726	2.5455	0.	3353.1
2248	9.9726	2.3636	0.	3354.2
2249	9.9726	2.1818	0.	3355.6
2250	9.9726	2.	0.	3357.4
2251	9.9726	1.8182	0.	3359.5
2252	9.9726	1.6364	0.	3362.
2253	9.9726	1.4545	0.	3364.7
2254	9.9726	1.2727	0.	3367.8
2255	9.9726	1.0909	0.	3371.1
2256	9.9726	0.90909	0.	3374.6
2257	9.9726	0.72727	0.	3378.4
2258	9.9726	0.54545	0.	3382.3
2259	9.9726	0.36364	0.	3386.6
2260	9.9726	0.18182	0.	3392.6
2261	9.7879	5.8182	0.	3444.8
2262	9.7879	5.6364	0.	3438.6
2263	9.7879	5.4545	0.	3434.1
2264	9.7879	5.2727	0.	3429.8
2265	9.7879	5.0909	0.	3425.8
2266	9.7879	4.9091	0.	3422.
2267	9.7879	4.7273	0.	3418.5
2268	9.7879	4.5455	0.	3415.2
2269	9.7879	4.3636	0.	3412.3
2270	9.7879	4.1818	0.	3409.7
2271	9.7879	4.	0.	3407.4
2272	9.7879	3.8182	0.	3405.5
2273	9.7879	3.6364	0.	3403.9
2274	9.7879	3.4545	0.	3402.7
2275	9.7879	3.2727	0.	3402.
2276	9.7879	3.0909	0.	3401.6
2277	9.7879	2.9091	0.	3401.6
2278	9.7879	2.7273	0.	3402.
2279	9.7879	2.5455	0.	3402.7
2280	9.7879	2.3636	0.	3403.9
2281	9.7879	2.1818	0.	3405.5
2282	9.7879	2.	0.	3407.4
2283	9.7879	1.8182	0.	3409.7
2284	9.7879	1.6364	0.	3412.3
2285	9.7879	1.4545	0.	3415.2
2286	9.7879	1.2727	0.	3418.5
2287	9.7879	1.0909	0.	3422.
2288	9.7879	0.90909	0.	3425.8
2289	9.7879	0.72727	0.	3429.8
2290	9.7879	0.54545	0.	3434.1
2291	9.7879	0.36364	0.	3438.6
2292	9.7879	0.18182	0.	3444.8
2293	9.6032	5.8182	0.	3497.3
2294	9.6032	5.6364	0.	3490.8
2295	9.6032	5.4545	0.	3486.
2296	9.6032	5.2727	0.	3481.4
2297	9.6032	5.0909	0.	3477.1
2298	9.6032	4.9091	0.	3473.1
2299	9.6032	4.7273	0.	3469.3
2300	9.6032	4.5455	0.	3465.8
2301	9.6032	4.3636	0.	3462.7
2302	9.6032	4.1818	0.	3459.9
2303	9.6032	4.	0.	3457.4
2304	9.6032	3.8182	0.	3455.3
2305	9.6032	3.6364	0.	3453.7
2306	9.6032	3.4545	0.	3452.4
2307	9.6032	3.2727	0.	3451.6
2308	9.6032	3.0909	0.	3451.1
2309	9.6032	2.9091	0.	3451.1
2310	9.6032	2.7273	0.	3451.6
2311	9.6032	2.5455	0.	3452.4
2312	9.6032	2.3636	0.	3453.7
2313	9.6032	2.1818	0.	3455.3
2314	9.6032	2.	0.	3457.4
2315	9.6032	1.8182	0.	3459.9
2316	9.6032	1.6364	0.	3462.7
2317	9.6032	1.4545	0.	3465.8
2318	9.6032	1.2727	0.	3469.3
2319	9.6032	1.0909	0.	3473.1
2320	9.6032	0.90909	0.	3477.1
2321	9.6032	0.72727	0.	3481.4
2322	9.6032	0.54545	0.	3486.
2323	9.6032	0.36364	0.	3490.8
2324	9.6032	0.18182	0.	3497.3
2325	9.4185	5.8182	0.	3550.
2326	9.4185	5.6364	0.	3543.2
2327	9.4185	5.4545	0.	3538.1
2328	9.4185	5.2727	0.	3533.2
2329	9.4185	5.0909	0.	3528.6
2330	9.4185	4.9091	0.	3524.3
2331	9.4185	4.7273	0.	3520.2
2332	9.4185	4.5455	0.	3516.5
2333	9.4185	4.3636	0.	3513.1
2334	9.4185	4.1818	0.	3510.1
2335	9.4185	4.	0.	3507.5
2336	9.4185	3.8182	0.	3505.2
2337	9.4185	3.6364	0.	3503.4
2338	9.4185	3.4545	0.	3502.1
2339	9.4185	3.2727	0.	3501.2
2340	9.4185	3.0909	0.	3500.7
2341	9.4185	2.9091	0.	3500.7
2342	9.4185	2.7273	0.	3501.2
2343	9.4185	2.5455	0.	3502.1
2344	9.4185	2.3636	0.	3503.4
2345	9.4185	2.1818	0.	3505.2
2346	9.4185	2.	0.	3507.5
2347	9.4185	1.8182	0.	3510.1
2348	9.4185	1.6364	0.	3513.1
2349	9.4185	1.4545	0.	3516.5
2350	9.4185	1.2727	0.	3520.2
2351	9.4185	1.0909	0.	3524.3
2352	9.4185	0.90909	0.	3528.6
2353	9.4185	0.72727	0.	3533.2
2354	9.4185	0.54545	0.	3538.1
2355	9.4185	0.36364	0.	3543.2
2356	9.4185	0.18182	0.	3550.
2357	9.2339	5.8182	0.	3602.9
2358	9.2339	5.6364	0.	3595.8
2359	9.2339	5.4545	0.	3590.4
2360	9.2339	5.2727	0.	3585.2
2361	9.2339	5.0909	0.	3580.2
2362	9.2339	4.9091	0.	3575.6
2363	9.2339	4.7273	0.	3571.2
2364	9.2339	4.5455	0.	3567.2
2365	9.2339	4.3636	0.	3563.6
2366	9.2339	4.1818	0.	3560.3
2367	9.2339	4.	0.	3557.5
2368	9.2339	3.8182	0.	3555.1
2369	9.2339	3.6364	0.	3553.2
2370	9.2339	3.4545	0.	3551.7
2371	9.2339	3.2727	0.	3550.7
2372	9.2339	3.0909	0.	3550.3
2373	9.2339	2.9091	0.	3550.3
2374	9.2339	2.7273	0.	3550.7
2375	9.2339	2.5455	0.	3551.7
2376	9.2339	2.3636	0.	3553.2
2377	9.2339	2.1818	0.	3555.1
2378	9.2339	2.	0.	3557.5
2379	9.2339	1.8182	0.	3560.3
2380	9.2339	1.6364	0.	3563.6
2381	9.2339	1.4545	0.	3567.2
2382	9.2339	1.2727	0.	3571.2
2383	9.2339	1.0909	0.	3575.6
2384	9.2339	0.90909	0.	3580.2
2385	9.2339	0.72727	0.	3585.2
2386	9.2339	0.54545	0.	3590.4
2387	9.2339	0.36364	0.	3595.8
2388	9.2339	0.18182	0.	3602.9
2389	9.0492	5.8182	0.	3656.1
2390	9.0492	5.6364	0.	3648.7
2391	9.0492	5.4545	0.	3642.8
2392	9.0492	5.2727	0.	3637.3
2393	9.0492	5.0909	0.	3632.
2394	9.0492	4.9091	0.	3627.
2395	9.0492	4.7273	0.	3622.3
2396	9.0492	4.5455	0.	3618.
2397	9.0492	4.3636	0.	3614.1
2398	9.0492	4.1818	0.	3610.6
2399	9.0492	4.	0.	3607.5
2400	9.0492	3.8182	0.	3605.
2401	9.0492	3.6364	0.	3602.9
2402	9.0492	3.4545	0.	3601.3
2403	9.0492	3.2727	0.	3600.3
2404	9.0492	3.0909	0.	3599.7
2405	9.0492	2.9091	0.	3599.7
2406	9.0492	2.7273	0.	3600.3
2407	9.0492	2.5455	0.	3601.3
2408	9.0492	2.3636	0.	3602.9
2409	9.0492	2.1818	0.	3605.
2410	9.0492	2.	0.	3607.5
2411	9.0492	1.8182	0.	3610.6
2412	9.0492	1.6364	0.	3614.1
2413	9.0492	1.4545	0.	3618.
2414	9.0492	1.2727	0.	3622.3
2415	9.0492	1.0909	0.	3627.
2416	9.0492	0.90909	0.	3632.
2417	9.0492	0.72727	0.	3637.3
2418	9.0492	0.54545	0.	3642.8
2419	9.0492	0.36364	0.	3648.7
2420	9.0492	0.18182	0.	3656.1
2421	8.8645	5.8182	0.	3709.5
2422	8.8645	5.6364	0.	3701.8
2423	8.8645	5.4545	0.	3695.5
2424	8.8645	5.2727	0.	3689.5
2425	8.8645	5.0909	0.	3683.8
2426	8.8645	4.9091	0.	3678.4
2427	8.8645	4.7273	0.	3673.4
2428	8.8645	4.5455	0.	3668.8
2429	8.8645	4.3636	0.	3664.6
2430	8.8645	4.1818	0.	3660.8
2431	8.8645	4.	0.	3657.5
2432	8.8645	3.8182	0.	3654.8
2433	8.8645	3.6364	0.	3652.5
2434	8.8645	3.4545	0.	3650.9
2435	8.8645	3.2727	0.	3649.7
2436	8.8645	3.0909	0.	3649.2
2437	8.8645	2.9091	0.	3649.2
2438	8.8645	2.7273	0.	3649.7
2439	8.8645	2.5455	0.	3650.9
2440	8.8645	2.3636	0.	3652.5
2441	8.8645	2.1818	0.	3654.8
2442	8.8645	2.	0.	3657.5
2443	8.8645	1.8182	0.	3660.8
2444	8.8645	1.6364	0.	3664.6
2445	8.8645	1.4545	0.	3668.8
2446	8.8645	1.2727	0.	3673.4
2447	8.8645	1.0909	0.	3678.4
2448	8.8645	0.90909	0.	3683.8
2449	8.8645	0.72727	0.	3689.5
2450	8.8645	0.54545	0.	3695.5
2451	8.8645	0.36364	0.	3701.8
2452	8.8645	0.18182	0.	3709.5
2453	8.6798	5.8182	0.	3763.2
2454	8.6798	5.6364	0.	3755.1
2455	8.6798	5.4545	0.	3748.3
2456	8.6798	5.2727	0.	3741.9
2457	8.6798	5.0909	0.	3735.8
2458	8.6798	4.9091	0.	3730.
2459	8.6798	4.7273	0.	3724.6
2460	8.6798	4.5455	0.	3719.6
2461	8.6798	4.3636	0.	3715.1
2462	8.6798	4.1818	0.	3711.
2463	8.6798	4.	0.	3707.5
2464	8.6798	3.8182	0.	3704.5
2465	8.6798	3.6364	0.	3702.1
2466	8.6798	3.4545	0.	3700.3
2467	8.6798	3.2727	0.	3699.1
2468	8.6798	3.0909	0.	3698.5
2469	8.6798	2.9091	0.	3698.5
2470	8.6798	2.7273	0.	3699.1
2471	8.6798	2.5455	0.	3700.3
2472	8.6798	2.3636	0.	3702.1
2473	8.6798	2.1818	0.	3704.5
2474	8.6798	2.	0.	3707.5
2475	8.6798	1.8182	0.	3711.
2476	8.6798	1.6364	0.	3715.1
2477	8.6798	1.4545	0.	3719.6
2478	8.6798	1.2727	0.	3724.6
2479	8.6798	1.0909	0.	3730.
2480	8.6798	0.90909	0.	3735.8
2481	8.6798	0.72727	0.	3741.9
2482	8.6798	0.54545	0.	3748.3
2483	8.6798	0.36364	0.	3755.1
2484	8.6798	0.18182	0.	3763.2
2485	8.4952	5.8182	0.	3817.2
2486	8.4952	5.6364	0.	3808.6
2487	8.4952	5.4545	0.	3801.4
2488	8.4952	5.2727	0.	3794.5
2489	8.4952	5.0909	0.	3787.9
2490	8.4952	4.9091	0.	3781.7
2491	8.4952	4.7273	0.	3775.8
2492	8.4952	4.5455	0.	3770.5
2493	8.4952	4.3636	0.	3765.6
2494	8.4952	4.1818	0.	3761.2
2495	8.4952	4.	0.	3757.4
2496	8.4952	3.8182	0.	3754.2
2497	8.4952	3.6364	0.	3751.6
2498	8.4952	3.4545	0.	3749.6
2499	8.4952	3.2727	0.	3748.3
2500	8.4952	3.0909	0.	3747.7
2501	8.4952	2.9091	0.	3747.7
2502	8.4952	2.7273	0.	3748.3
2503	8.4952	2.5455	0.	3749.6
2504	8.4952	2.3636	0.	3751.6
2505	8.4952	2.1818	0.	3754.2
2506	8.4952	2.	0.	3757.4
2507	8.4952	1.8182	0.	3761.2
2508	8.4952	1.6364	0.	3765.6
2509	8.4952	1.4545	0.	3770.5
2510	8.4952	1.2727	0.	3775.8
2511	8.4952	1.0909	0.	3781.7
2512	8.4952	0.90909	0.	3787.9
2513	8.4952	0.72727	0.	3794.5
2514	8.4952	0.54545	0.	3801.4
2515	8.4952	0.36364	0.	3808.6
2516	8.4952	0.18182	0.	3817.2
2517	8.3105	5.8182	0.	3871.4
2518	8.3105	5.6364	0.	3862.3
2519	8.3105	5.4545	0.	3854.6
2520	8.3105	5.2727	0.	3847.2
2521	8.3105	5.0909	0.	3840.1
2522	8.3105	4.9091	0.	3833.4
2523	8.3105	4.7273	0.	3827.1
2524	8.3105	4.5455	0.	3821.3
2525	8.3105	4.3636	0.	3816.1
2526	8.3105	4.1818	0.	3811.4
2527	8.3105	4.	0.	3807.3
2528	8.3105	3.8182	0.	3803.8
2529	8.3105	3.6364	0.	3801.
2530	8.3105	3.4545	0.	3798.9
2531	8.3105	3.2727	0.	3797.4
2532	8.3105	3.0909	0.	3796.7
2533	8.3105	2.9091	0.	3796.7
2534	8.3105	2.7273	0.	3797.4
2535	8.3105	2.5455	0.	3798.9
2536	8.3105	2.3636	0.	3801.
2537	8.3105	2.1818	0.	3803.8
2538	8.3105	2.	0.	3807.3
2539	8.3105	1.8182	0.	3811.4
2540	8.3105	1.6364	0.	3816.1
2541	8.3105	1.4545	0.	3821.3
2542	8.3105	1.2727	0.	3827.1
2543	8.3105	1.0909	0.	3833.4
2544	8.3105	0.90909	0.	3840.1
2545	8.3105	0.72727	0.	3847.2
2546	8.3105	0.54545	0.	3854.6
2547	8.3105	0.36364	0.	3862.3
2548	8.3105	0.18182	0.	3871.4
2549	8.1258	5.8182	0.	3925.9
2550	8.1258	5.6364	0.	3916.3
2551	8.1258	5.4545	0.	3908.
2552	8.1258	5.2727	0.	3900.
2553	8.1258	5.0909	0.	3892.4
2554	8.1258	4.9091	0.	3885.1
2555	8.1258	4.7273	0.	3878.4
2556	8.1258	4.5455	0.	3872.1
2557	8.1258	4.3636	0.	3866.5
2558	8.1258	4.1818	0.	3861.4
2559	8.1258	4.	0.	3857.
2560	8.1258	3.8182	0.	3853.2
2561	8.1258	3.6364	0.	3850.2
2562	8.1258	3.4545	0.	3847.9
2563	8.1258	3.2727	0.	3846.4
2564	8.1258	3.0909	0.	3845.6
2565	8.1258	2.9091	0.	3845.6
2566	8.1258	2.7273	0.	3846.4
2567	8.1258	2.5455	0.	3847.9
2568	8.1258	2.3636	0.	3850.2
2569	8.1258	2.1818	0.	3853.2
2570	8.1258	2.	0.	3857.
2571	8.1258	1.8182	0.	3861.4
2572	8.1258	1.6364	0.	3866.5
2573	8.1258	1.4545	0.	3872.1
2574	8.1258	1.2727	0.	3878.4
2575	8.1258	1.0909	0.	3885.1
2576	8.1258	0.90909	0.	3892.4
2577	8.1258	0.72727	0.	3900.
2578	8.1258	0.54545	0.	3908.
2579	8.1258	0.36364	0.	3916.3
2580	8.1258	0.18182	0.	3925.9
2581	7.9411	5.8182	0.	3980.7
2582	7.9411	5.6364	0.	3970.5
2583	7.9411	5.4545	0.	3961.6
2584	7.9411	5.2727	0.	3953.
2585	7.9411	5.0909	0.	3944.8
2586	7.9411	4.9091	0.	3937.
2587	7.9411	4.7273	0.	3929.7
2588	7.9411	4.5455	0.	3922.9
2589	7.9411	4.3636	0.	3916.8
2590	7.9411	4.1818	0.	3911.3
2591	7.9411	4.	0.	3906.6
2592	7.9411	3.8182	0.	3902.5
2593	7.9411	3.6364	0.	3899.3
2594	7.9411	3.4545	0.	3896.8
2595	7.9411	3.2727	0.	3895.1
2596	7.9411	3.0909	0.	3894.3
2597	7.9411	2.9091	0.	3894.3
2598	7.9411	2.7273	0.	3895.1
2599	7.9411	2.5455	0.	3896.8
2600	7.9411	2.3636	0.	3899.3
2601	7.9411	2.1818	0.	3902.5
2602	7.9411	2.	0.	3906.6
2603	7.9411	1.8182	0.	3911.3
2604	7.9411	1.6364	0.	3916.8
2605	7.9411	1.4545	0.	3922.9
2606	7.9411	1.2727	0.	3929.7
2607	7.9411	1.0909	0.	3937.
2608	7.9411	0.90909	0.	3944.8
2609	7.9411	0.72727	0.	3953.
2610	7.9411	0.54545	0.	3961.6
2611	7.9411	0.36364	0.	3970.5
2612	7.9411	0.18182	0.	3980.7
2613	7.7565	5.8182	0.	4035.8
2614	7.7565	5.6364	0.	4025.
2615	7.7565	5.4545	0.	4015.3
2616	7.7565	5.2727	0.	4006.1
2617	7.7565	5.0909	0.	3997.2
2618	7.7565	4.9091	0.	3988.8
2619	7.7565	4.7273	0.	3981.
2620	7.7565	4.5455	0.	3973.7
2621	7.7565	4.3636	0.	3967.1
2622	7.7565	4.1818	0.	3961.2
2623	7.7565	4.	0.	3956.
2624	7.7565	3.8182	0.	3951.6
2625	7.7565	3.6364	0.	3948.1
2626	7.7565	3.4545	0.	3945.4
2627	7.7565	3.2727	0.	3943.6
2628	7.7565	3.0909	0.	3942.7
2629	7.7565	2.9091	0.	3942.7
2630	7.7565	2.7273	0.	3943.6
2631	7.7565	2.5455	0.	3945.4
2632	7.7565	2.3636	0.	3948.1
2633	7.7565	2.1818	0.	3951.6
2634	7.7565	2.	0.	3956.
2635	7.7565	1.8182	0.	3961.2
2636	7.7565	1.6364	0.	3967.1
2637	7.7565	1.4545	0.	3973.7
2638	7.7565	1.2727	0.	3981.
2639	7.7565	1.0909	0.	3988.8
2640	7.7565	0.90909	0.	3997.2
2641	7.7565	0.72727	0.	4006.1
2642	7.7565	0.54545	0.	4015.3
2643	7.7565	0.36364	0.	4025.
2644	7.7565	0.18182	0.	4035.8
2645	7.5718	5.8182	0.	4091.2
2646	7.5718	5.6364	0.	4079.7
2647	7.5718	5.4545	0.	4069.3
2648	7.5718	5.2727	0.	4059.3
2649	7.5718	5.0909	0.	4049.8
2650	7.5718	4.9091	0.	4040.7
2651	7.5718	4.7273	0.	4032.2
2652	7.5718	4.5455	0.	4024.4
2653	7.5718	4.3636	0.	4017.2
2654	7.5718	4.1818	0.	4010.8
2655	7.5718	4.	0.	4005.3
2656	7.5718	3.8182	0.	4000.5
2657	7.5718	3.6364	0.	3996.7
2658	7.5718	3.4545	0.	3993.8
2659	7.5718	3.2727	0.	3991.9
2660	7.5718	3.0909	0.	3990.9
2661	7.5718	2.9091	0.	3990.9
2662	7.5718	2.7273	0.	3991.9
2663	7.5718	2.5455	0.	3993.8
2664	7.5718	2.3636	0.	3996.7
2665	7.5718	2.1818	0.	4000.5
2666	7.5718	2.	0.	4005.3
2667	7.5718	1.8182	0.	4010.8
2668	7.5718	1.6364	0.	4017.2
2669	7.5718	1.4545	0.	4024.4
2670	7.5718	1.2727	0.	4032.2
2671	7.5718	1.0909	0.	4040.7
2672	7.5718	0.90909	0.	4049.8
2673	7.5718	0.72727	0.	4059.3
2674	7.5718	0.54545	0.	4069.3
2675	7.5718	0.36364	0.	4079.7
2676	7.5718	0.18182	0.	4091.2
2677	7.3871	5.8182	0.	4147.
2678	7.3871	5.6364	0.	4134.7
2679	7.3871	5.4545	0.	4123.5
2680	7.3871	5.2727	0.	4112.7
2681	7.3871	5.0909	0.	4102.4
2682	7.3871	4.9091	0.	4092.6
2683	7.3871	4.7273	0.	4083.5
2684	7.3871	4.5455	0.	4075.
2685	7.3871	4.3636	0.	4067.3
2686	7.3871	4.1818	0.	4060.3
2687	7.3871	4.	0.	4054.3
2688	7.3871	3.8182	0.	4049.2
2689	7.3871	3.6364	0.	4045.1
2690	7.3871	3.4545	0.	4041.9
2691	7.3871	3.2727	0.	4039.8
2692	7.3871	3.0909	0.	4038.8
2693	7.3871	2.9091	0.	4038.8
2694	7.3871	2.7273	0.	4039.8
2695	7.3871	2.5455	0.	4041.9
2696	7.3871	2.3636	0.	4045.1
2697	7.3871	2.1818	0.	4049.2
2698	7.3871	2.	0.	4054.3
2699	7.3871	1.8182	0.	4060.3
2700	7.3871	1.6364	0.	4067.3
2701	7.3871	1.4545	0.	4075.
2702	7.3871	1.2727	0.	4083.5
2703	7.3871	1.0909	0.	4092.6
2704	7.3871	0.90909	0.	4102.4
2705	7.3871	0.72727	0.	4112.7
2706	7.3871	0.54545	0.	4123.5
2707	7.3871	0.36364	0.	4134.7
2708	7.3871	0.18182	0.	4147.
2709	7.2024	5.8182	0.	4203.
2710	7.2024	5.6364	0.	4189.9
2711	7.2024	5.4545	0.	4177.9
2712	7.2024	5.2727	0.	4166.2
2713	7.2024	5.0909	0.	4155.1
2714	7.2024	4.9091	0.	4144.5
2715	7.2024	4.7273	0.	4134.6
2716	7.2024	4.5455	0.	4125.5
2717	7.2024	4.3636	0.	4117.1
2718	7.2024	4.1818	0.	4109.7
2719	7.2024	4.	0.	4103.1
2720	7.2024	3.8182	0.	4097.6
2721	7.2024	3.6364	0.	4093.1
2722	7.2024	3.4545	0.	4089.7
2723	7.2024	3.2727	0.	4087.5
2724	7.2024	3.0909	0.	4086.3
2725	7.2024	2.9091	0.	4086.3
2726	7.2024	2.7273	0.	4087.5
2727	7.2024	2.5455	0.	4089.7
2728	7.2024	2.3636	0.	4093.1
2729	7.2024	2.1818	0.	4097.6
2730	7.2024	2.	0.	4103.1
2731	7.2024	1.8182	0.	4109.7
2732	7.2024	1.6364	0.	4117.1
2733	7.2024	1.4545	0.	4125.5
2734	7.2024	1.2727	0.	4134.6
2735	7.2024	1.0909	0.	4144.5
2736	7.2024	0.90909	0.	4155.1
2737	7.2024	0.72727	0.	4166.2
2738	7.2024	0.54545	0.	4177.9
2739	7.2024	0.36364	0.	4189.9
2740	7.2024	0.18182	0.	4203.
2741	7.0177	5.8182	0.	4259.4
2742	7.0177	5.6364	0.	4245.4
2743	7.0177	5.4545	0.	4232.4
2744	7.0177	5.2727	0.	4219.9
2745	7.0177	5.0909	0.	4207.9
2746	7.0177	4.9091	0.	4196.5
2747	7.0177	4.7273	0.	4185.8
2748	7.0177	4.5455	0.	4175.8
2749	7.0177	4.3636	0.	4166.8
2750	7.0177	4.1818	0.	4158.7
2751	7.0177	4.	0.	4151.7
2752	7.0177	3.8182	0.	4145.7
2753	7.0177	3.6364	0.	4140.8
2754	7.0177	3.4545	0.	4137.2
2755	7.0177	3.2727	0.	4134.7
2756	7.0177	3.0909	0.	4133.5
2757	7.0177	2.9091	0.	4133.5
2758	7.0177	2.7273	0.	4134.7
2759	7.0177	2.5455	0.	4137.2
2760	7.0177	2.3636	0.	4140.8
2761	7.0177	2.1818	0.	4145.7
2762	7.0177	2.	0.	4151.7
2763	7.0177	1.8182	0.	4158.7
2764	7.0177	1.6364	0.	4166.8
2765	7.0177	1.4545	0.	4175.8
2766	7.0177	1.2727	0.	4185.8
2767	7.0177	1.0909	0.	4196.5
2768	7.0177	0.90909	0.	4207.9
2769	7.0177	0.72727	0.	4219.9
2770	7.0177	0.54545	0.	4232.4
2771	7.0177	0.36364	0.	4245.4
2772	7.0177	0.18182	0.	4259.4
2773	6.8331	5.8182	0.	4316.2
2774	6.8331	5.6364	0.	4301.2
2775	6.8331	5.4545	0.	4287.2
2776	6.8331	5.2727	0.	4273.7
2777	6.8331	5.0909	0.	4260.7
2778	6.8331	4.9091	0.	4248.3
2779	6.8331	4.7273	0.	4236.8
2780	6.8331	4.5455	0.	4226.1
2781	6.8331	4.3636	0.	4216.3
2782	6.8331	4.1818	0.	4207.5
2783	6.8331	4.	0.	4199.9
2784	6.8331	3.8182	0.	4193.4
2785	6.8331	3.6364	0.	4188.2
2786	6.8331	3.4545	0.	4184.2
2787	6.8331	3.2727	0.	4181.5
2788	6.8331	3.0909	0.	4180.2
2789	6.8331	2.9091	0.	4180.2
2790	6.8331	2.7273	0.	4181.5
2791	6.8331	2.5455	0.	4184.2
2792	6.8331	2.3636	0.	4188.2
2793	6.8331	2.1818	0.	4193.4
2794	6.8331	2.	0.	4199.9
2795	6.8331	1.8182	0.	4207.5
2796	6.8331	1.6364	0.	4216.3
2797	6.8331	1.4545	0.	4226.1
2798	6.8331	1.2727	0.	4236.8
2799	6.8331	1.0909	0.	4248.3
2800	6.8331	0.90909	0.	4260.7
2801	6.8331	0.72727	0.	4273.7
2802	6.8331	0.54545	0.	4287.2
2803	6.8331	0.36364	0.	4301.2
2804	6.8331	0.18182	0.	4316.2
2805	6.6484	5.8182	0.	4373.3
2806	6.6484	5.6364	0.	4357.3
2807	6.6484	5.4545	0.	4342.2
2808	6.6484	5.2727	0.	4327.6
2809	6.6484	5.0909	0.	4313.5
2810	6.6484	4.9091	0.	4300.2
2811	6.6484	4.7273	0.	4287.7
2812	6.6484	4.5455	0.	4276.1
2813	6.6484	4.3636	0.	4265.5
2814	6.6484	4.1818	0.	4256.1
2815	6.6484	4.	0.	4247.8
2816	6.6484	3.8182	0.	4240.8
2817	6.6484	3.6364	0.	4235.1
2818	6.6484	3.4545	0.	4230.8
2819	6.6484	3.2727	0.	4227.9
2820	6.6484	3.0909	0.	4226.5
2821	6.6484	2.9091	0.	4226.5
2822	6.6484	2.7273	0.	4227.9
2823	6.6484	2.5455	0.	4230.8
2824	6.6484	2.3636	0.	4235.1
2825	6.6484	2.1818	0.	4240.8
2826	6.6484	2.	0.	4247.8
2827	6.6484	1.8182	0.	4256.1
2828	6.6484	1.6364	0.	4265.5
2829	6.6484	1.4545	0.	4276.1
2830	6.6484	1.2727	0.	4287.7
2831	6.6484	1.0909	0.	4300.2
2832	6.6484	0.90909	0.	4313.5
2833	6.6484	0.72727	0.	4327.6
2834	6.6484	0.54545	0.	4342.2
2835	6.6484	0.36364	0.	4357.3
2836	6.6484	0.18182	0.	4373.3
2837	6.4637	5.8182	0.	4430.9
2838	6.4637	5.6364	0.	4413.7
2839	6.4637	5.4545	0.	4397.4
2840	6.4637	5.2727	0.	4381.6
2841	6.4637	5.0909	0.	4366.4
2842	6.4637	4.9091	0.	4352.
2843	6.4637	4.7273	0.	4338.5
2844	6.4637	4.5455	0.	4326.
2845	6.4637	4.3636	0.	4314.5
2846	6.4637	4.1818	0.	4304.3
2847	6.4637	4.	0.	4295.3
2848	6.4637	3.8182	0.	4287.7
2849	6.4637	3.6364	0.	4281.6
2850	6.4637	3.4545	0.	4276.9
2851	6.4637	3.2727	0.	4273.8
2852	6.4637	3.0909	0.	4272.2
2853	6.4637	2.9091	0.	4272.2
2854	6.4637	2.7273	0.	4273.8
2855	6.4637	2.5455	0.	4276.9
2856	6.4637	2.3636	0.	4281.6
2857	6.4637	2.1818	0.	4287.7
2858	6.4637	2.	0.	4295.3
2859	6.4637	1.8182	0.	4304.3
2860	6.4637	1.6364	0.	4314.5
2861	6.4637	1.4545	0.	4326.
2862	6.4637	1.2727	0.	4338.5
2863	6.4637	1.0909	0.	4352.
2864	6.4637	0.90909	0.	4366.4
2865	6.4637	0.72727	0.	4381.6
2866	6.4637	0.54545	0.	4397.4
2867	6.4637	0.36364	0.	4413.7
2868	6.4637	0.18182	0.	4430.9
2869	6.279	5.8182	0.	4488.9
2870	6.279	5.6364	0.	4470.4
2871	6.279	5.4545	0.	4452.8
2872	6.279	5.2727	0.	4435.7
2873	6.279	5.0909	0.	4419.4
2874	6.279	4.9091	0.	4403.8
2875	6.279	4.7273	0.	4389.2
2876	6.279	4.5455	0.	4375.6
2877	6.279	4.3636	0.	4363.2
2878	6.279	4.1818	0.	4352.1
2879	6.279	4.	0.	4342.4
2880	6.279	3.8182	0.	4334.2
2881	6.279	3.6364	0.	4327.6
2882	6.279	3.4545	0.	4322.5
2883	6.279	3.2727	0.	4319.1
2884	6.279	3.0909	0.	4317.4
2885	6.279	2.9091	0.	4317.4
2886	6.279	2.7273	0.	4319.1
2887	6.279	2.5455	0.	4322.5
2888	6.279	2.3636	0.	4327.6
2889	6.279	2.1818	0.	4334.2
2890	6.279	2.	0.	4342.4
2891	6.279	1.8182	0.	4352.1
2892	6.279	1.6364	0.	4363.2
2893	6.279	1.4545	0.	4375.6
2894	6.279	1.2727	0.	4389.2
2895	6.279	1.0909	0.	4403.8
2896	6.279	0.90909	0.	4419.4
2897	6.279	0.72727	0.	4435.7
2898	6.279	0.54545	0.	4452.8
2899	6.279	0.36364	0.	4470.4
2900	6.279	0.18182	0.	4488.9
2901	6.0944	5.8182	0.	4547.3
2902	6.0944	5.6364	0.	4527.5
2903	6.0944	5.4545	0.	4508.4
2904	6.0944	5.2727	0.	4490.
2905	6.0944	5.0909	0.	4472.3
2906	6.0944	4.9091	0.	4455.5
2907	6.0944	4.7273	0.	4439.7
2908	6.0944	4.5455	0.	4425.
2909	6.0944	4.3636	0.	4411.6
2910	6.0944	4.1818	0.	4399.6
2911	6.0944	4.	0.	4389.1
2912	6.0944	3.8182	0.	4380.2
2913	6.0944	3.6364	0.	4373.
2914	6.0944	3.4545	0.	4367.5
2915	6.0944	3.2727	0.	4363.8
2916	6.0944	3.0909	0.	4362.
2917	6.0944	2.9091	0.	4362.
2918	6.0944	2.7273	0.	4363.8
2919	6.0944	2.5455	0.	4367.5
2920	6.0944	2.3636	0.	4373.
2921	6.0944	2.1818	0.	4380.2
2922	6.0944	2.	0.	4389.1
2923	6.0944	1.8182	0.	4399.6
2924	6.0944	1.6364	0.	4411.6
2925	6.0944	1.4545	0.	4425.
2926	6.0944	1.2727	0.	4439.7
2927	6.0944	1.0909	0.	4455.5
2928	6.0944	0.90909	0.	4472.3
2929	6.0944	0.72727	0.	4490.
2930	6.0944	0.54545	0.	4508.4
2931	6.0944	0.36364	0.	4527.5
2932	6.0944	0.18182	0.	4547.3
2933	5.9097	5.8182	0.	4606.2
2934	5.9097	5.6364	0.	4584.9
2935	5.9097	5.4545	0.	4564.3
2936	5.9097	5.2727	0.	4544.4
2937	5.9097	5.0909	0.	4525.3
2938	5.9097	4.9091	0.	4507.1
2939	5.9097	4.7273	0.	4490.
2940	5.9097	4.5455	0.	4474.1
2941	5.9097	4.3636	0.	4459.6
2942	5.9097	4.1818	0.	4446.6
2943	5.9097	4.	0.	4435.3
2944	5.9097	3.8182	0.	4425.6
2945	5.9097	3.6364	0.	4417.8
2946	5.9097	3.4545	0.	4411.9
2947	5.9097	3.2727	0.	4407.9
2948	5.9097	3.0909	0.	4405.9
2949	5.9097	2.9091	0.	4405.9
2950	5.9097	2.7273	0.	4407.9
2951	5.9097	2.5455	0.	4411.9
2952	5.9097	2.3636	0.	4417.8
2953	5.9097	2.1818	0.	4425.6
2954	5.9097	2.	0.	4435.3
2955	5.9097	1.8182	0.	4446.6
2956	5.9097	1.6364	0.	4459.6
2957	5.9097	1.4545	0.	4474.1
2958	5.9097	1.2727	0.	4490.
2959	5.9097	1.0909	0.	4507.1
2960	5.9097	0.90909	0.	4525.3
2961	5.9097	0.72727	0.	4544.4
2962	5.9097	0.54545	0.	4564.3
2963	5.9097	0.36364	0.	4584.9
2964	5.9097	0.18182	0.	4606.2
2965	5.725	5.8182	0.	4665.6
2966	5.725	5.6364	0.	4642.7
2967	5.725	5.4545	0.	4620.5
2968	5.725	5.2727	0.	4598.9
2969	5.725	5.0909	0.	4578.3
2970	5.725	4.9091	0.	4558.6
2971	5.725	4.7273	0.	4540.1
2972	5.725	4.5455	0.	4522.9
2973	5.725	4.3636	0.	4507.3
2974	5.725	4.1818	0.	4493.2
2975	5.725	4.	0.	4480.9
2976	5.725	3.8182	0.	4470.5
2977	5.725	3.6364	0.	4462.
2978	5.725	3.4545	0.	4455.6
2979	5.725	3.2727	0.	4451.3
2980	5.725	3.0909	0.	4449.1
2981	5.725	2.9091	0.	4449.1
2982	5.725	2.7273	0.	4451.3
2983	5.725	2.5455	0.	4455.6
2984	5.725	2.3636	0.	4462.
2985	5.725	2.1818	0.	4470.5
2986	5.725	2.	0.	4480.9
2987	5.725	1.8182	0.	4493.2
2988	5.725	1.6364	0.	4507.3
2989	5.725	1.4545	0.	4522.9
2990	5.725	1.2727	0.	4540.1
2991	5.725	1.0909	0.	4558.6
2992	5.725	0.90909	0.	4578.3
2993	5.725	0.72727	0.	4598.9
2994	5.725	0.54545	0.	4620.5
2995	5.725	0.36364	0.	4642.7
2996	5.725	0.18182	0.	4665.6
2997	5.5403	5.8182	0.	4725.6
2998	5.5403	5.6364	0.	4700.8
2999	5.5403	5.4545	0.	4676.8
3000	5.5403	5.2727	0.	4653.6
3001	5.5403	5.0909	0.	4631.3
3002	5.5403	4.9091	0.	4610.
3003	5.5403	4.7273	0.	4590.
3004	5.5403	4.5455	0.	4571.4
3005	5.5403	4.3636	0.	4554.5
3006	5.5403	4.1818	0.	4539.3
3007	5.5403	4.	0.	4526.
3008	5.5403	3.8182	0.	4514.7
3009	5.5403	3.6364	0.	4505.5
3010	5.5403	3.4545	0.	4498.6
3011	5.5403	3.2727	0.	4493.9
3012	5.5403	3.0909	0.	4491.6
3013	5.5403	2.9091	0.	4491.6
3014	5.5403	2.7273	0.	4493.9
3015	5.5403	2.5455	0.	4498.6
3016	5.5403	2.3636	0.	4505.5
3017	5.5403	2.1818	0.	4514.7
3018	5.5403	2.	0.	4526.
3019	5.5403	1.8182	0.	4539.3
3020	5.5403	1.6364	0.	4554.5
3021	5.5403	1.4545	0.	4571.4
3022	5.5403	1.2727	0.	4590.
3023	5.5403	1.0909	0.	4610.
3024	5.5403	0.90909	0.	4631.3
3025	5.5403	0.72727	0.	4653.6
3026	5.5403	0.54545	0.	4676.8
3027	5.5403	0.36364	0.	4700.8
3028	5.5403	0.18182	0.	4725.6
3029	5.3556	5.8182	0.	4786.1
3030	5.3556	5.6364	0.	4759.4
3031	5.3556	5.4545	0.	4733.5
3032	5.3556	5.2727	0.	4708.4
3033	5.3556	5.0909	0.	4684.2
3034	5.3556	4.9091	0.	4661.3
3035	5.3556	4.7273	0.	4639.6
3036	5.3556	4.5455	0.	4619.6
3037	5.3556	4.3636	0.	4601.2
3038	5.3556	4.1818	0.	4584.8
3039	5.3556	4.	0.	4570.4
3040	5.3556	3.8182	0.	4558.2
3041	5.3556	3.6364	0.	4548.3
3042	5.3556	3.4545	0.	4540.8
3043	5.3556	3.2727	0.	4535.8
3044	5.3556	3.0909	0.	4533.3
3045	5.3556	2.9091	0.	4533.3
3046	5.3556	2.7273	0.	4535.8
3047	5.3556	2.5455	0.	4540.8
3048	5.3556	2.3636	0.	4548.3
3049	5.3556	2.1818	0.	4558.2
3050	5.3556	2.	0.	4570.4
3051	5.3556	1.8182	0.	4584.8
3052	5.3556	1.6364	0.	4601.2
3053	5.3556	1.4545	0.	4619.6
3054	5.3556	1.2727	0.	4639.6
3055	5.3556	1.0909	0.	4661.3
3056	5.3556	0.90909	0.	4684.2
3057	5.3556	0.72727	0.	4708.4
3058	5.3556	0.54545	0.	4733.5
3059	5.3556	0.36364	0.	4759.4
3060	5.3556	0.18182	0.	4786.1
3061	5.171	5.8182	0.	4847.2
3062	5.171	5.6364	0.	4818.3
3063	5.171	5.4545	0.	4790.4
3064	5.171	5.2727	0.	4763.3
3065	5.171	5.0909	0.	4737.2
3066	5.171	4.9091	0.	4712.4
3067	5.171	4.7273	0.	4689.
3068	5.171	4.5455	0.	4667.3
3069	5.171	4.3636	0.	4647.5
3070	5.171	4.1818	0.	4629.8
3071	5.171	4.	0.	4614.2
3072	5.171	3.8182	0.	4601.1
3073	5.171	3.6364	0.	4590.4
3074	5.171	3.4545	0.	4582.3
3075	5.171	3.2727	0.	4576.8
3076	5.171	3.0909	0.	4574.1
3077	5.171	2.9091	0.	4574.1
3078	5.171	2.7273	0.	4576.8
3079	5.171	2.5455	0.	4582.3
3080	5.171	2.3636	0.	4590.4
3081	5.171	2.1818	0.	4601.1
3082	5.171	2.	0.	4614.2
3083	5.171	1.8182	0.	4629.8
3084	5.171	1.6364	0.	4647.5
3085	5.171	1.4545	0.	4667.3
3086	5.171	1.2727	0.	4689.
3087	5.171	1.0909	0.	4712.4
3088	5.171	0.90909	0.	4737.2
3089	5.171	0.72727	0.	4763.3
3090	5.171	0.54545	0.	4790.4
3091	5.171	0.36364	0.	4818.3
3092	5.171	0.18182	0.	4847.2
3093	4.9863	5.8182	0.	4908.9
3094	4.9863	5.6364	0.	4877.7
3095	4.9863	5.4545	0.	4847.6
3096	4.9863	5.2727	0.	4818.3
3097	4.9863	5.0909	0.	4790.2
3098	4.9863	4.9091	0.	4763.3
3099	4.9863	4.7273	0.	4738.1
3100	4.9863	4.5455	0.	4714.7
3101	4.9863	4.3636	0.	4693.3
3102	4.9863	4.1818	0.	4674.1
3103	4.9863	4.	0.	4657.4
3104	4.9863	3.8182	0.	4643.2
3105	4.9863	3.6364	0.	4631.6
3106	4.9863	3.4545	0.	4622.9
3107	4.9863	3.2727	0.	4617.
3108	4.9863	3.0909	0.	4614.
3109	4.9863	2.9091	0.	4614.
3110	4.9863	2.7273	0.	4617.
3111	4.9863	2.5455	0.	4622.9
3112	4.9863	2.3636	0.	4631.6
3113	4.9863	2.1818	0.	4643.2
3114	4.9863	2.	0.	4657.4
3115	4.9863	1.8182	0.	4674.1
3116	4.9863	1.6364	0.	4693.3
3117	4.9863	1.4545	0.	4714.7
3118	4.9863	1.2727	0.	4738.1
3119	4.9863	1.0909	0.	4763.3
3120	4.9863	0.90909	0.	4790.2
3121	4.9863	0.72727	0.	4818.3
3122	4.9863	0.54545	0.	4847.6
3123	4.9863	0.36364	0.	4877.7
3124	4.9863	0.18182	0.	4908.9
3125	4.8016	5.8182	0.	4971.2
3126	4.8016	5.6364	0.	4937.6
3127	4.8016	5.4545	0.	4905.
3128	4.8016	5.2727	0.	4873.4
3129	4.8016	5.0909	0.	4843.1
3130	4.8016	4.9091	0.	4814.1
3131	4.8016	4.7273	0.	4786.9
3132	4.8016	4.5455	0.	4761.6
3133	4.8016	4.3636	0.	4738.6
3134	4.8016	4.1818	0.	4717.9
3135	4.8016	4.	0.	4699.8
3136	4.8016	3.8182	0.	4684.5
3137	4.8016	3.6364	0.	4672.
3138	4.8016	3.4545	0.	4662.6
3139	4.8016	3.2727	0.	4656.3
3140	4.8016	3.0909	0.	4653.1
3141	4.8016	2.9091	0.	4653.1
3142	4.8016	2.7273	0.	4656.3
3143	4.8016	2.5455	0.	4662.6
3144	4.8016	2.3636	0.	4672.
3145	4.8016	2.1818	0.	4684.5
3146	4.8016	2.	0.	4699.8
3147	4.8016	1.8182	0.	4717.9
3148	4.8016	1.6364	0.	4738.6
3149	4.8016	1.4545	0.	4761.6
3150	4.8016	1.2727	0.	4786.9
3151	4.8016	1.0909	0.	4814.1
3152	4.8016	0.90909	0.	4843.1
3153	4.8016	0.72727	0.	4873.4
3154	4.8016	0.54545	0.	4905.
3155	4.8016	0.36364	0.	4937.6
3156	4.8016	0.18182	0.	4971.2
3157	4.6169	5.8182	0.	5034.3
3158	4.6169	5.6364	0.	4997.9
3159	4.6169	5.4545	0.	4962.7
3160	4.6169	5.2727	0.	4928.7
3161	4.6169	5.0909	0.	4895.9
3162	4.6169	4.9091	0.	4864.7
3163	4.6169	4.7273	0.	4835.3
3164	4.6169	4.5455	0.	4808.1
3165	4.6169	4.3636	0.	4783.2
3166	4.6169	4.1818	0.	4761.
3167	4.6169	4.	0.	4741.5
3168	4.6169	3.8182	0.	4725.
3169	4.6169	3.6364	0.	4711.6
3170	4.6169	3.4545	0.	4701.5
3171	4.6169	3.2727	0.	4694.7
3172	4.6169	3.0909	0.	4691.3
3173	4.6169	2.9091	0.	4691.3
3174	4.6169	2.7273	0.	4694.7
3175	4.6169	2.5455	0.	4701.5
3176	4.6169	2.3636	0.	4711.6
3177	4.6169	2.1818	0.	4725.
3178	4.6169	2.	0.	4741.5
3179	4.6169	1.8182	0.	4761.
3180	4.6169	1.6364	0.	4783.2
3181	4.6169	1.4545	0.	4808.1
3182	4.6169	1.2727	0.	4835.3
3183	4.6169	1.0909	0.	4864.7
3184	4.6169	0.90909	0.	4895.9
3185	4.6169	0.72727	0.	4928.7
3186	4.6169	0.54545	0.	4962.7
3187	4.6169	0.36364	0.	4997.9
3188	4.6169	0.18182	0.	5034.3
3189	4.4323	5.8182	0.	5098.
3190	4.4323	5.6364	0.	5058.6
3191	4.4323	5.4545	0.	5020.7
3192	4.4323	5.2727	0.	4984.
3193	4.4323	5.0909	0.	4948.6
3194	4.4323	4.9091	0.	4915.
3195	4.4323	4.7273	0.	4883.4
3196	4.4323	4.5455	0.	4854.
3197	4.4323	4.3636	0.	4827.3
3198	4.4323	4.1818	0.	4803.3
3199	4.4323	4.	0.	4782.4
3200	4.4323	3.8182	0.	4764.7
3201	4.4323	3.6364	0.	4750.4
3202	4.4323	3.4545	0.	4739.5
3203	4.4323	3.2727	0.	4732.2
3204	4.4323	3.0909	0.	4728.5
3205	4.4323	2.9091	0.	4728.5
3206	4.4323	2.7273	0.	4732.2
3207	4.4323	2.5455	0.	4739.5
3208	4.4323	2.3636	0.	4750.4
3209	4.4323	2.1818	0.	4764.7
3210	4.4323	2.	0.	4782.4
3211	4.4323	1.8182	0.	4803.3
3212	4.4323	1.6364	0.	4827.3
3213	4.4323	1.4545	0.	4854.
3214	4.4323	1.2727	0.	4883.4
3215	4.4323	1.0909	0.	4915.
3216	4.4323	0.90909	0.	4948.6
3217	4.4323	0.72727	0.	4984.
3218	4.4323	0.54545	0.	5020.7
3219	4.4323	0.36364	0.	5058.6
3220	4.4323	0.18182	0.	5098.
3221	4.2476	5.8182	0.	5162.4
3222	4.2476	5.6364	0.	5119.8
3223	4.2476	5.4545	0.	5078.9
3224	4.2476	5.2727	0.	5039.3
3225	4.2476	5.0909	0.	5001.2
3226	4.2476	4.9091	0.	4965.
3227	4.2476	4.7273	0.	4931.
3228	4.2476	4.5455	0.	4899.5
3229	4.2476	4.3636	0.	4870.7
3230	4.2476	4.1818	0.	4845.
3231	4.2476	4.	0.	4822.6
3232	4.2476	3.8182	0.	4803.7
3233	4.2476	3.6364	0.	4788.3
3234	4.2476	3.4545	0.	4776.7
3235	4.2476	3.2727	0.	4768.9
3236	4.2476	3.0909	0.	4765.
3237	4.2476	2.9091	0.	4765.
3238	4.2476	2.7273	0.	4768.9
3239	4.2476	2.5455	0.	4776.7
3240	4.2476	2.3636	0.	4788.3
3241	4.2476	2.1818	0.	4803.7
3242	4.2476	2.	0.	4822.6
3243	4.2476	1.8182	0.	4845.
3244	4.2476	1.6364	0.	4870.7
3245	4.2476	1.4545	0.	4899.5
3246	4.2476	1.2727	0.	4931.
3247	4.2476	1.0909	0.	4965.
3248	4.2476	0.90909	0.	5001.2
3249	4.2476	0.72727	0.	5039.3
3250	4.2476	0.54545	0.	5078.9
3251	4.2476	0.36364	0.	5119.8
3252	4.2476	0.18182	0.	5162.4
3253	4.0629	5.8182	0.	5227.5
3254	4.0629	5.6364	0.	5181.4
3255	4.0629	5.4545	0.	5137.3
3256	4.0629	5.2727	0.	5094.7
3257	4.0629	5.0909	0.	5053.7
3258	4.0629	4.9091	0.	5014.7
3259	4.0629	4.7273	0.	4978.2
3260	4.0629	4.5455	0.	4944.3
3261	4.0629	4.3636	0.	4913.5
3262	4.0629	4.1818	0.	4886.
3263	4.0629	4.	0.	4862.1
3264	4.0629	3.8182	0.	4841.8
3265	4.0629	3.6364	0.	4825.5
3266	4.0629	3.4545	0.	4813.1
3267	4.0629	3.2727	0.	4804.8
3268	4.0629	3.0909	0.	4800.6
3269	4.0629	2.9091	0.	4800.6
3270	4.0629	2.7273	0.	4804.8
3271	4.0629	2.5455	0.	4813.1
3272	4.0629	2.3636	0.	4825.5
3273	4.0629	2.1818	0.	4841.8
3274	4.0629	2.	0.	4862.1
3275	4.0629	1.8182	0.	4886.
3276	4.0629	1.6364	0.	4913.5
3277	4.0629	1.4545	0.	4944.3
3278	4.0629	1.2727	0.	4978.2
3279	4.0629	1.0909	0.	5014.7
3280	4.0629	0.90909	0.	5053.7
3281	4.0629	0.72727	0.	5094.7
3282	4.0629	0.54545	0.	5137.3
3283	4.0629	0.36364	0.	5181.4
3284	4.0629	0.18182	0.	5227.5
3285	3.8782	5.8182	0.	5293.3
3286	3.8782	5.6364	0.	5243.3
3287	3.8782	5.4545	0.	5195.8
3288	3.8782	5.2727	0.	5149.9
3289	3.8782	5.0909	0.	5105.9
3290	3.8782	4.9091	0.	5064.
3291	3.8782	4.7273	0.	5024.8
3292	3.8782	4.5455	0.	4988.6
3293	3.8782	4.3636	0.	4955.7
3294	3.8782	4.1818	0.	4926.3
3295	3.8782	4.	0.	4900.8
3296	3.8782	3.8182	0.	4879.3
3297	3.8782	3.6364	0.	4861.9
3298	3.8782	3.4545	0.	4848.8
3299	3.8782	3.2727	0.	4840.
3300	3.8782	3.0909	0.	4835.6
3301	3.8782	2.9091	0.	4835.6
3302	3.8782	2.7273	0.	4840.
3303	3.8782	2.5455	0.	4848.8
3304	3.8782	2.3636	0.	4861.9
3305	3.8782	2.1818	0.	4879.3
3306	3.8782	2.	0.	4900.8
3307	3.8782	1.8182	0.	4926.3
3308	3.8782	1.6364	0.	4955.7
3309	3.8782	1.4545	0.	4988.6
3310	3.8782	1.2727	0.	5024.8
3311	3.8782	1.0909	0.	5064.
3312	3.8782	0.90909	0.	5105.9
3313	3.8782	0.72727	0.	5149.9
3314	3.8782	0.54545	0.	5195.8
3315	3.8782	0.36364	0.	5243.3
3316	3.8782	0.18182	0.	5293.3
3317	3.6935	5.8182	0.	5359.7
3318	3.6935	5.6364	0.	5305.5
3319	3.6935	5.4545	0.	5254.4
3320	3.6935	5.2727	0.	5205.1
3321	3.6935	5.0909	0.	5157.7
3322	3.6935	4.9091	0.	5112.9
3323	3.6935	4.7273	0.	5070.9
3324	3.6935	4.5455	0.	5032.2
3325	3.6935	4.3636	0.	4997.1
3326	3.6935	4.1818	0.	4966.
3327	3.6935	4.	0.	4938.9
3328	3.6935	3.8182	0.	4916.2
3329	3.6935	3.6364	0.	4897.8
3330	3.6935	3.4545	0.	4884.
3331	3.6935	3.2727	0.	4874.8
3332	3.6935	3.0909	0.	4870.2
3333	3.6935	2.9091	0.	4870.2
3334	3.6935	2.7273	0.	4874.8
3335	3.6935	2.5455	0.	4884.
3336	3.6935	2.3636	0.	4897.8
3337	3.6935	2.1818	0.	4916.2
3338	3.6935	2.	0.	4938.9
3339	3.6935	1.8182	0.	4966.
3340	3.6935	1.6364	0.	4997.1
3341	3.6935	1.4545	0.	5032.2
3342	3.6935	1.2727	0.	5070.9
3343	3.6935	1.0909	0.	5112.9
3344	3.6935	0.90909	0.	5157.7
3345	3.6935	0.72727	0.	5205.1
3346	3.6935	0.54545	0.	5254.4
3347	3.6935	0.36364	0.	5305.5
3348	3.6935	0.18182	0.	5359.7
3349	3.5089	5.8182	0.	5426.7
3350	3.5089	5.6364	0.	5367.9
3351	3.5089	5.4545	0.	5312.9
3352	3.5089	5.2727	0.	5259.9
3353	3.5089	5.0909	0.	5209.1
3354	3.5089	4.9091	0.	5161.1
3355	3.5089	4.7273	0.	5116.3
3356	3.5089	4.5455	0.	5075.1
3357	3.5089	4.3636	0.	5037.9
3358	3.5089	4.1818	0.	5004.9
3359	3.5089	4.	0.	4976.4
3360	3.5089	3.8182	0.	4952.5
3361	3.5089	3.6364	0.	4933.4
3362	3.5089	3.4545	0.	4918.9
3363	3.5089	3.2727	0.	4909.3
3364	3.5089	3.0909	0.	4904.5
3365	3.5089	2.9091	0.	4904.5
3366	3.5089	2.7273	0.	4909.3
3367	3.5089	2.5455	0.	4918.9
3368	3.5089	2.3636	0.	4933.4
3369	3.5089	2.1818	0.	4952.5
3370	3.5089	2.	0.	4976.4
3371	3.5089	1.8182	0.	5004.9
3372	3.5089	1.6364	0.	5037.9
3373	3.5089	1.4545	0.	5075.1
3374	3.5089	1.2727	0.	5116.3
3375	3.5089	1.0909	0.	5161.1
3376	3.5089	0.90909	0.	5209.1
3377	3.5089	0.72727	0.	5259.9
3378	3.5089	0.54545	0.	5312.9
3379	3.5089	0.36364	0.	5367.9
3380	3.5089	0.18182	0.	5426.7
3381	3.3242	5.8182	0.	5494.1
3382	3.3242	5.6364	0.	5430.3
3383	3.3242	5.4545	0.	5371.1
3384	3.3242	5.2727	0.	5314.2
3385	3.3242	5.0909	0.	5259.8
3386	3.3242	4.9091	0.	5208.5
3387	3.3242	4.7273	0.	5160.8
3388	3.3242	4.5455	0.	5117.2
3389	3.3242	4.3636	0.	5077.9
3390	3.3242	4.1818	0.	5043.3
3391	3.3242	4.	0.	5013.5
3392	3.3242	3.8182	0.	4988.6
3393	3.3242	3.6364	0.	4968.7
3394	3.3242	3.4545	0.	4953.8
3395	3.3242	3.2727	0.	4943.8
3396	3.3242	3.0909	0.	4938.9
3397	3.3242	2.9091	0.	4938.9
3398	3.3242	2.7273	0.	4943.8
3399	3.3242	2.5455	0.	4953.8
3400	3.3242	2.3636	0.	4968.7
3401	3.3242	2.1818	0.	4988.6
3402	3.3242	2.	0.	5013.5
3403	3.3242	1.8182	0.	5043.3
3404	3.3242	1.6364	0.	5077.9
3405	3.3242	1.4545	0.	5117.2
3406	3.3242	1.2727	0.	5160.8
3407	3.3242	1.0909	0.	5208.5
3408	3.3242	0.90909	0.	5259.8
3409	3.3242	0.72727	0.	5314.2
3410	3.3242	0.54545	0.	5371.1
3411	3.3242	0.36364	0.	5430.3
3412	3.3242	0.18182	0.	5494.1
3413	3.1395	5.8182	0.	5561.6
3414	3.1395	5.6364	0.	5492.4
3415	3.1395	5.4545	0.	5428.7
3416	3.1395	5.2727	0.	5367.7
3417	3.1395	5.0909	0.	5309.6
3418	3.1395	4.9091	0.	5255.
3419	3.1395	4.7273	0.	5204.5
3420	3.1395	4.5455	0.	5158.4
3421	3.1395	4.3636	0.	5117.3
3422	3.1395	4.1818	0.	5081.2
3423	3.1395	4.	0.	5050.3
3424	3.1395	3.8182	0.	5024.7
3425	3.1395	3.6364	0.	5004.2
3426	3.1395	3.4545	0.	4989.
3427	3.1395	3.2727	0.	4978.9
3428	3.1395	3.0909	0.	4973.8
3429	3.1395	2.9091	0.	4973.8
3430	3.1395	2.7273	0.	4978.9
3431	3.1395	2.5455	0.	4989.
3432	3.1395	2.3636	0.	5004.2
3433	3.1395	2.1818	0.	5024.7
3434	3.1395	2.	0.	5050.3
3435	3.1395	1.8182	0.	5081.2
3436	3.1395	1.6364	0.	5117.3
3437	3.1395	1.4545	0.	5158.4
3438	3.1395	1.2727	0.	5204.5
3439	3.1395	1.0909	0.	5255.
3440	3.1395	0.90909	0.	5309.6
3441	3.1395	0.72727	0.	5367.7
3442	3.1395	0.54545	0.	5428.7
3443	3.1395	0.36364	0.	5492.4
3444	3.1395	0.18182	0.	5561.6
3445	2.9548	5.8182	0.	5629.1
3446	2.9548	5.6364	0.	5553.9
3447	2.9548	5.4545	0.	5485.5
3448	2.9548	5.2727	0.	5420.1
3449	2.9548	5.0909	0.	5358.1
3450	2.9548	4.9091	0.	5300.2
3451	2.9548	4.7273	0.	5246.9
3452	2.9548	4.5455	0.	5198.7
3453	2.9548	4.3636	0.	5155.9
3454	2.9548	4.1818	0.	5118.7
3455	2.9548	4.	0.	5087.1
3456	2.9548	3.8182	0.	5061.
3457	2.9548	3.6364	0.	5040.4
3458	2.9548	3.4545	0.	5025.1
3459	2.9548	3.2727	0.	5014.9
3460	2.9548	3.0909	0.	5009.9
3461	2.9548	2.9091	0.	5009.9
3462	2.9548	2.7273	0.	5014.9
3463	2.9548	2.5455	0.	5025.1
3464	2.9548	2.3636	0.	5040.4
3465	2.9548	2.1818	0.	5061.
3466	2.9548	2.	0.	5087.1
3467	2.9548	1.8182	0.	5118.7
3468	2.9548	1.6364	0.	5155.9
3469	2.9548	1.4545	0.	5198.7
3470	2.9548	1.2727	0.	5246.9
3471	2.9548	1.0909	0.	5300.2
3472	2.9548	0.90909	0.	5358.1
3473	2.9548	0.72727	0.	5420.1
3474	2.9548	0.54545	0.	5485.5
3475	2.9548	0.36364	0.	5553.9
3476	2.9548	0.18182	0.	5629.1
3477	2.7702	5.8182	0.	5696.2
3478	2.7702	5.6364	0.	5614.4
3479	2.7702	5.4545	0.	5540.9
3480	2.7702	5.2727	0.	5470.9
3481	2.7702	5.0909	0.	5405.
3482	2.7702	4.9091	0.	5343.8
3483	2.7702	4.7273	0.	5287.9
3484	2.7702	4.5455	0.	5237.9
3485	2.7702	4.3636	0.	5193.8
3486	2.7702	4.1818	0.	5155.9
3487	2.7702	4.	0.	5124.1
3488	2.7702	3.8182	0.	5098.1
3489	2.7702	3.6364	0.	5077.7
3490	2.7702	3.4545	0.	5062.6
3491	2.7702	3.2727	0.	5052.7
3492	2.7702	3.0909	0.	5047.8
3493	2.7702	2.9091	0.	5047.8
3494	2.7702	2.7273	0.	5052.7
3495	2.7702	2.5455	0.	5062.6
3496	2.7702	2.3636	0.	5077.7
3497	2.7702	2.1818	0.	5098.1
3498	2.7702	2.	0.	5124.1
3499	2.7702	1.8182	0.	5155.9
3500	2.7702	1.6364	0.	5193.8
3501	2.7702	1.4545	0.	5237.9
3502	2.7702	1.2727	0.	5287.9
3503	2.7702	1.0909	0.	5343.8
3504	2.7702	0.90909	0.	5405.
3505	2.7702	0.72727	0.	5470.9
3506	2.7702	0.54545	0.	5540.9
3507	2.7702	0.36364	0.	5614.4
3508	2.7702	0.18182	0.	5696.2
3509	2.5855	5.8182	0.	5762.1
3510	2.5855	5.6364	0.	5673.1
3511	2.5855	5.4545	0.	5594.2
3512	2.5855	5.2727	0.	5519.5
3513	2.5855	5.0909	0.	5449.6
3514	2.5855	4.9091	0.	5385.2
3515	2.5855	4.7273	0.	5327.2
3516	2.5855	4.5455	0.	5275.7
3517	2.5855	4.3636	0.	5231.1
3518	2.5855	4.1818	0.	5193.2
3519	2.5855	4.	0.	5161.8
3520	2.5855	3.8182	0.	5136.4
3521	2.5855	3.6364	0.	5116.8
3522	2.5855	3.4545	0.	5102.5
3523	2.5855	3.2727	0.	5093.1
3524	2.5855	3.0909	0.	5088.5
3525	2.5855	2.9091	0.	5088.5
3526	2.5855	2.7273	0.	5093.1
3527	2.5855	2.5455	0.	5102.5
3528	2.5855	2.3636	0.	5116.8
3529	2.5855	2.1818	0.	5136.4
3530	2.5855	2.	0.	5161.8
3531	2.5855	1.8182	0.	5193.2
3532	2.5855	1.6364	0.	5231.1
3533	2.5855	1.4545	0.	5275.7
3534	2.5855	1.2727	0.	5327.2
3535	2.5855	1.0909	0.	5385.2
3536	2.5855	0.90909	0.	5449.6
3537	2.5855	0.72727	0.	5519.5
3538	2.5855	0.54545	0.	5594.2
3539	2.5855	0.36364	0.	5673.1
3540	2.5855	0.18182	0.	5762.1
3541	2.4008	5.8182	0.	5826.3
3542	2.4008	5.6364	0.	5729.2
3543	2.4008	5.4545	0.	5644.5
3544	2.4008	5.2727	0.	5564.9
3545	2.4008	5.0909	0.	5491.1
3546	2.4008	4.9091	0.	5424.
3547	2.4008	4.7273	0.	5364.2
3548	2.4008	4.5455	0.	5312.1
3549	2.4008	4.3636	0.	5267.8
3550	2.4008	4.1818	0.	5230.8
3551	2.4008	4.	0.	5200.6
3552	2.4008	3.8182	0.	5176.8
3553	2.4008	3.6364	0.	5158.7
3554	2.4008	3.4545	0.	5145.6
3555	2.4008	3.2727	0.	5137.2
3556	2.4008	3.0909	0.	5133.
3557	2.4008	2.9091	0.	5133.
3558	2.4008	2.7273	0.	5137.2
3559	2.4008	2.5455	0.	5145.6
3560	2.4008	2.3636	0.	5158.7
3561	2.4008	2.1818	0.	5176.8
3562	2.4008	2.	0.	5200.6
3563	2.4008	1.8182	0.	5230.7
3564	2.4008	1.6364	0.	5267.8
3565	2.4008	1.4545	0.	5312.1
3566	2.4008	1.2727	0.	5364.2
3567	2.4008	1.0909	0.	5424.
3568	2.4008	0.90909	0.	5491.1
3569	2.4008	0.72727	0.	5564.9
3570	2.4008	0.54545	0.	5644.5
3571	2.4008	0.36364	0.	5729.2
3572	2.4008	0.18182	0.	5826.3
3573	2.2161	5.8182	0.	5887.5
3574	2.2161	5.6364	0.	5781.6
3575	2.2161	5.4545	0.	5690.6
3576	2.2161	5.2727	0.	5606.
3577	2.2161	5.0909	0.	5528.5
3578	2.2161	4.9091	0.	5459.1
3579	2.2161	4.7273	0.	5398.5
3580	2.2161	4.5455	0.	5346.9
3581	2.2161	4.3636	0.	5303.9
3582	2.2161	4.1818	0.	5269.1
3583	2.2161	4.	0.	5241.4
3584	2.2161	3.8182	0.	5220.2
3585	2.2161	3.6364	0.	5204.4
3586	2.2161	3.4545	0.	5193.2
3587	2.2161	3.2727	0.	5186.2
3588	2.2161	3.0909	0.	5182.8
3589	2.2161	2.9091	0.	5182.8
3590	2.2161	2.7273	0.	5186.2
3591	2.2161	2.5455	0.	5193.2
3592	2.2161	2.3636	0.	5204.4
3593	2.2161	2.1818	0.	5220.2
3594	2.2161	2.	0.	5241.4
3595	2.2161	1.8182	0.	5269.1
3596	2.2161	1.6364	0.	5303.9
3597	2.2161	1.4545	0.	5346.9
3598	2.2161	1.2727	0.	5398.5
3599	2.2161	1.0909	0.	5459.1
3600	2.2161	0.90909	0.	5528.5
3601	2.2161	0.72727	0.	5606.
3602	2.2161	0.54545	0.	5690.6
3603	2.2161	0.36364	0.	5781.6
3604	2.2161	0.18182	0.	5887.5
3605	2.0315	5.8182	0.	5944.4
3606	2.0315	5.6364	0.	5828.4
3607	2.0315	5.4545	0.	5730.9
3608	2.0315	5.2727	0.	5641.3
3609	2.0315	5.0909	0.	5560.5
3610	2.0315	4.9091	0.	5489.7
3611	2.0315	4.7273	0.	5429.6
3612	2.0315	4.5455	0.	5379.9
3613	2.0315	4.3636	0.	5340.
3614	2.0315	4.1818	0.	5308.8
3615	2.0315	4.	0.	5285.1
3616	2.0315	3.8182	0.	5267.7
3617	2.0315	3.6364	0.	5255.2
3618	2.0315	3.4545	0.	5246.8
3619	2.0315	3.2727	0.	5241.7
3620	2.0315	3.0909	0.	5239.2
3621	2.0315	2.9091	0.	5239.2
3622	2.0315	2.7273	0.	5241.7
3623	2.0315	2.5455	0.	5246.8
3624	2.0315	2.3636	0.	5255.2
3625	2.0315	2.1818	0.	5267.7
3626	2.0315	2.	0.	5285.1
3627	2.0315	1.8182	0.	5308.8
3628	2.0315	1.6364	0.	5340.
3629	2.0315	1.4545	0.	5379.9
3630	2.0315	1.2727	0.	5429.6
3631	2.0315	1.0909	0.	5489.7
3632	2.0315	0.90909	0.	5560.5
3633	2.0315	0.72727	0.	5641.3
3634	2.0315	0.54545	0.	5730.9
3635	2.0315	0.36364	0.	5828.4
3636	2.0315	0.18182	0.	5944.4
3637	1.8468	5.8182	0.	5994.7
3638	1.8468	5.6364	0.	5867.6
3639	1.8468	5.4545	0.	5762.9
3640	1.8468	5.2727	0.	5668.5
3641	1.8468	5.0909	0.	5585.3
3642	1.8468	4.9091	0.	5514.6
3643	1.8468	4.7273	0.	5456.7
3644	1.8468	4.5455	0.	5411.
3645	1.8468	4.3636	0.	5376.3
3646	1.8468	4.1818	0.	5350.9
3647	1.8468	4.	0.	5332.9
3648	1.8468	3.8182	0.	5320.8
3649	1.8468	3.6364	0.	5312.9
3650	1.8468	3.4545	0.	5308.1
3651	1.8468	3.2727	0.	5305.4
3652	1.8468	3.0909	0.	5304.2
3653	1.8468	2.9091	0.	5304.2
3654	1.8468	2.7273	0.	5305.4
3655	1.8468	2.5455	0.	5308.1
3656	1.8468	2.3636	0.	5312.9
3657	1.8468	2.1818	0.	5320.8
3658	1.8468	2.	0.	5332.9
3659	1.8468	1.8182	0.	5350.9
3660	1.8468	1.6364	0.	5376.3
3661	1.8468	1.4545	0.	5411.
3662	1.8468	1.2727	0.	5456.7
3663	1.8468	1.0909	0.	5514.6
3664	1.8468	0.90909	0.	5585.3
3665	1.8468	0.72727	0.	5668.5
3666	1.8468	0.54545	0.	5762.9
3667	1.8468	0.36364	0.	5867.6
3668	1.8468	0.18182	0.	5994.7
3669	1.6621	5.8182	0.	6035.6
3670	1.6621	5.6364	0.	5895.8
3671	1.6621	5.4545	0.	5783.8
3672	1.6621	5.2727	0.	5685.
3673	1.6621	5.0909	0.	5600.8
3674	1.6621	4.9091	0.	5532.3
3675	1.6621	4.7273	0.	5479.4
3676	1.6621	4.5455	0.	5440.7
3677	1.6621	4.3636	0.	5413.9
3678	1.6621	4.1818	0.	5396.7
3679	1.6621	4.	0.	5386.6
3680	1.6621	3.8182	0.	5381.5
3681	1.6621	3.6364	0.	5379.4
3682	1.6621	3.4545	0.	5379.1
3683	1.6621	3.2727	0.	5379.4
3684	1.6621	3.0909	0.	5379.8
3685	1.6621	2.9091	0.	5379.8
3686	1.6621	2.7273	0.	5379.4
3687	1.6621	2.5455	0.	5379.1
3688	1.6621	2.3636	0.	5379.4
3689	1.6621	2.1818	0.	5381.5
3690	1.6621	2.	0.	5386.6
3691	1.6621	1.8182	0.	5396.7
3692	1.6621	1.6364	0.	5413.9
3693	1.6621	1.4545	0.	5440.7
3694	1.6621	1.2727	0.	5479.4
3695	1.6621	1.0909	0.	5532.3
3696	1.6621	0.90909	0.	5600.8
3697	1.6621	0.72727	0.	5685.
3698	1.6621	0.54545	0.	5783.8
3699	1.6621	0.36364	0.	5895.8
3700	1.6621	0.18182	0.	6035.6
3701	1.4774	5.8182	0.	6062.8
3702	1.4774	5.6364	0.	5908.5
3703	1.4774	5.4545	0.	5788.9
3704	1.4774	5.2727	0.	5687.
3705	1.4774	5.0909	0.	5604.2
3706	1.4774	4.9091	0.	5541.5
3707	1.4774	4.7273	0.	5497.5
3708	1.4774	4.5455	0.	5469.6
3709	1.4774	4.3636	0.	5454.3
3710	1.4774	4.1818	0.	5448.3
3711	1.4774	4.	0.	5448.3
3712	1.4774	3.8182	0.	5451.9
3713	1.4774	3.6364	0.	5456.9
3714	1.4774	3.4545	0.	5461.9
3715	1.4774	3.2727	0.	5465.8
3716	1.4774	3.0909	0.	5467.9
3717	1.4774	2.9091	0.	5467.9
3718	1.4774	2.7273	0.	5465.8
3719	1.4774	2.5455	0.	5461.9
3720	1.4774	2.3636	0.	5456.9
3721	1.4774	2.1818	0.	5451.9
3722	1.4774	2.	0.	5448.3
3723	1.4774	1.8182	0.	5448.3
3724	1.4774	1.6364	0.	5454.3
3725	1.4774	1.4545	0.	5469.6
3726	1.4774	1.2727	0.	5497.5
3727	1.4774	1.0909	0.	5541.5
3728	1.4774	0.90909	0.	5604.2
3729	1.4774	0.72727	0.	5687.
3730	1.4774	0.54545	0.	5788.9
3731	1.4774	0.36364	0.	5908.5
3732	1.4774	0.18182	0.	6062.8
3733	1.2927	5.8182	0.	6070.
3734	1.2927	5.6364	0.	5899.2
3735	1.2927	5.4545	0.	5772.5
3736	1.2927	5.2727	0.	5669.8
3737	1.2927	5.0909	0.	5592.9
3738	1.2927	4.9091	0.	5541.3
3739	1.2927	4.7273	0.	5512.
3740	1.2927	4.5455	0.	5500.
3741	1.2927	4.3636	0.	5500.5
3742	1.2927	4.1818	0.	5508.9
3743	1.2927	4.	0.	5521.4
3744	1.2927	3.8182	0.	5535.3
3745	1.2927	3.6364	0.	5548.4
3746	1.2927	3.4545	0.	5559.3
3747	1.2927	3.2727	0.	5567.1
3748	1.2927	3.0909	0.	5571.1
3749	1.2927	2.9091	0.	5571.1
3750	1.2927	2.7273	0.	5567.1
3751	1.2927	2.5455	0.	5559.3
3752	1.2927	2.3636	0.	5548.4
3753	1.2927	2.1818	0.	5535.3
3754	1.2927	2.	0.	5521.4
3755	1.2927	1.8182	0.	5508.9
3756	1.2927	1.6364	0.	5500.5
3757	1.2927	1.4545	0.	5500.
3758	1.2927	1.2727	0.	5512.
3759	1.2927	1.0909	0.	5541.3
3760	1.2927	0.90909	0.	5592.9
3761	1.2927	0.72727	0.	5669.8
3762	1.2927	0.54545	0.	5772.5
3763	1.2927	0.36364	0.	5899.2
3764	1.2927	0.18182	0.	6070.
3765	1.1081	5.8182	0.	6047.2
3766	1.1081	5.6364	0.	5857.5
3767	1.1081	5.4545	0.	5724.9
3768	1.1081	5.2727	0.	5626.4
3769	1.1081	5.0909	0.	5562.8
3770	1.1081	4.9091	0.	5531.
3771	1.1081	4.7273	0.	5524.1
3772	1.1081	4.5455	0.	5534.5
3773	1.1081	4.3636	0.	5555.3
3774	1.1081	4.1818	0.	5581.2
3775	1.1081	4.	0.	5608.2
3776	1.1081	3.8182	0.	5633.5
3777	1.1081	3.6364	0.	5655.3
3778	1.1081	3.4545	0.	5672.5
3779	1.1081	3.2727	0.	5684.3
3780	1.1081	3.0909	0.	5690.3
3781	1.1081	2.9091	0.	5690.3
3782	1.1081	2.7273	0.	5684.3
3783	1.1081	2.5455	0.	5672.5
3784	1.1081	2.3636	0.	5655.3
3785	1.1081	2.1818	0.	5633.5
3786	1.1081	2.	0.	5608.2
3787	1.1081	1.8182	0.	5581.2
3788	1.1081	1.6364	0.	5555.3
3789	1.1081	1.4545	0.	5534.5
3790	1.1081	1.2727	0.	5524.1
3791	1.1081	1.0909	0.	5531.
3792	1.1081	0.90909	0.	5562.8
3793	1.1081	0.72727	0.	5626.4
3794	1.1081	0.54545	0.	5724.9
3795	1.1081	0.36364	0.	5857.5
3796	1.1081	0.18182	0.	6047.2
3797	0.92339	5.8182	0.	5979.7
3798	0.92339	5.6364	0.	5770.1
3799	0.92339	5.4545	0.	5637.2
3800	0.92339	5.2727	0.	5553.9
3801	0.92339	5.0909	0.	5517.5
3802	0.92339	4.9091	0.	5518.5
3803	0.92339	4.7273	0.	5544.6
3804	0.92339	4.5455	0.	5584.6
3805	0.92339	4.3636	0.	5630.3
3806	0.92339	4.1818	0.	5676.1
3807	0.92339	4.	0.	5718.7
3808	0.92339	3.8182	0.	5755.8
3809	0.92339	3.6364	0.	5786.3
3810	0.92339	3.4545	0.	5809.6
3811	0.92339	3.2727	0.	5825.2
3812	0.92339	3.0909	0.	5833.
3813	0.92339	2.9091	0.	5833.
3814	0.92339	2.7273	0.	5825.2
3815	0.92339	2.5455	0.	5809.6
3816	0.92339	2.3636	0.	5786.3
3817	0.92339	2.1818	0.	5755.8
3818	0.92339	2.	0.	5718.7
3819	0.92339	1.8182	0.	5676.1
3820	0.92339	1.6364	0.	5630.3
3821	0.92339	1.4545	0.	5584.6
3822	0.92339	1.2727	0.	5544.6
3823	0.92339	1.0909	0.	5518.5
3824	0.92339	0.90909	0.	5517.5
3825	0.92339	0.72727	0.	5553.9
3826	0.92339	0.54545	0.	5637.2
3827	0.92339	0.36364	0.	5770.1
3828	0.92339	0.18182	0.	5979.7
3829	0.73871	5.8182	0.	5836.2
3830	0.73871	5.6364	0.	5602.4
3831	0.73871	5.4545	0.	5478.8
3832	0.73871	5.2727	0.	5431.1
3833	0.73871	5.0909	0.	5443.7
3834	0.73871	4.9091	0.	5494.8
3835	0.73871	4.7273	0.	5564.5
3836	0.73871	4.5455	0.	5639.8
3837	0.73871	4.3636	0.	5712.6
3838	0.73871	4.1818	0.	5778.7
3839	0.73871	4.	0.	5836.1
3840	0.73871	3.8182	0.	5883.9
3841	0.73871	3.6364	0.	5921.9
3842	0.73871	3.4545	0.	5950.2
3843	0.73871	3.2727	0.	5968.9
3844	0.73871	3.0909	0.	5978.2
3845	0.73871	2.9091	0.	5978.2
3846	0.73871	2.7273	0.	5968.9
3847	0.73871	2.5455	0.	5950.2
3848	0.73871	2.3636	0.	5921.9
3849	0.73871	2.1818	0.	5883.9
3850	0.73871	2.	0.	5836.1
3851	0.73871	1.8182	0.	5778.7
3852	0.73871	1.6364	0.	5712.6
3853	0.73871	1.4545	0.	5639.8
3854	0.73871	1.2727	0.	5564.5
3855	0.73871	1.0909	0.	5494.8
3856	0.73871	0.90909	0.	5443.7
3857	0.73871	0.72727	0.	5431.1
3858	0.73871	0.54545	0.	5478.8
3859	0.73871	0.36364	0.	5602.4
3860	0.73871	0.18182	0.	5836.2
3861	0.55403	5.8182	0.	5578.5
3862	0.55403	5.6364	0.	5350.1
3863	0.55403	5.4545	0.	5286.4
3864	0.55403	5.2727	0.	5328.6
3865	0.55403	5.0909	0.	5431.9
3866	0.55403	4.9091	0.	5557.4
3867	0.55403	4.7273	0.	5682.7
3868	0.55403	4.5455	0.	5797.4
3869	0.55403	4.3636	0.	5897.7
3870	0.55403	4.1818	0.	5982.7
3871	0.55403	4.	0.	6053.1
3872	0.55403	3.8182	0.	6109.7
3873	0.55403	3.6364	0.	6153.6
3874	0.55403	3.4545	0.	6185.7
3875	0.55403	3.2727	0.	6206.7
3876	0.55403	3.0909	0.	6217.1
3877	0.55403	2.9091	0.	6217.1
3878	0.55403	2.7273	0.	6206.7
3879	0.55403	2.5455	0.	6185.7
3880	0.55403	2.3636	0.	6153.6
3881	0.55403	2.1818	0.	6109.7
3882	0.55403	2.	0.	6053.1
3883	0.55403	1.8182	0.	5982.7
3884	0.55403	1.6364	0.	5897.7
3885	0.55403	1.4545	0.	5797.4
3886	0.55403	1.2727	0.	5682.7
3887	0.55403	1.0909	0.	5557.4
3888	0.55403	0.90909	0.	5431.9
3889	0.55403	0.72727	0.	5328.6
3890	0.55403	0.54545	0.	5286.4
3891	0.55403	0.36364	0.	5350.1
3892	0.55403	0.18182	0.	5578.5
3893	0.36935	5.8182	0.	5039.6
3894	0.36935	5.6364	0.	4784.3
3895	0.36935	5.4545	0.	4836.4
3896	0.36935	5.2727	0.	5024.6
3897	0.36935	5.0909	0.	5237.6
3898	0.36935	4.9091	0.	5433.9
3899	0.36935	4.7273	0.	5602.5
3900	0.36935	4.5455	0.	5742.8
3901	0.36935	4.3636	0.	5857.9
3902	0.36935	4.1818	0.	5951.3
3903	0.36935	4.	0.	6026.1
3904	0.36935	3.8182	0.	6084.9
3905	0.36935	3.6364	0.	6129.7
3906	0.36935	3.4545	0.	6162.
3907	0.36935	3.2727	0.	6183.1
3908	0.36935	3.0909	0.	6193.4
3909	0.36935	2.9091	0.	6193.4
3910	0.36935	2.7273	0.	6183.1
3911	0.36935	2.5455	0.	6162.
3912	0.36935	2.3636	0.	6129.7
3913	0.36935	2.1818	0.	6084.9
3914	0.36935	2.	0.	6026.1
3915	0.36935	1.8182	0.	5951.3
3916	0.36935	1.6364	0.	5857.9
3917	0.36935	1.4545	0.	5742.8
3918	0.36935	1.2727	0.	5602.5
3919	0.36935	1.0909	0.	5433.9
3920	0.36935	0.90909	0.	5237.6
3921	0.36935	0.72727	0.	5024.6
3922	0.36935	0.54545	0.	4836.4
3923	0.36935	0.36364	0.	4784.3
3924	0.36935	0.18182	0.	5039.6
3925	0.18468	5.8182	0.	4059.4
3926	0.18468	5.6364	0.	4554.6
3927	0.18468	5.4545	0.	5218.
3928	0.18468	5.2727	0.	5737.5
3929	0.18468	5.0909	0.	6127.
3930	0.18468	4.9091	0.	6420.8
3931	0.18468	4.7273	0.	6645.6
3932	0.18468	4.5455	0.	6819.7
3933	0.18468	4.3636	0.	6955.9
3934	0.18468	4.1818	0.	7062.6
3935	0.18468	4.	0.	7146.
3936	0.18468	3.8182	0.	7210.4
3937	0.18468	3.6364	0.	7258.9
3938	0.18468	3.4545	0.	7293.6
3939	0.18468	3.2727	0.	7315.9
3940	0.18468	3.0909	0.	7326.9
3941	0.18468	2.9091	0.	7326.9
3942	0.18468	2.7273	0.	7315.9
3943	0.18468	2.5455	0.	7293.6
3944	0.18468	2.3636	0.	7258.9
3945	0.18468	2.1818	0.	7210.4
3946	0.18468	2.	0.	7146.
3947	0.18468	1.8182	0.	7062.6
3948	0.18468	1.6364	0.	6955.9
3949	0.18468	1.4545	0.	6819.7
3950	0.18468	1.2727	0.	6645.6
3951	0.18468	1.0909	0.	6420.8
3952	0.18468	0.90909	0.	6127.
3953	0.18468	0.72727	0.	5737.5
3954	0.18468	0.54545	0.	5218.
3955	0.18468	0.36364	0.	4554.6
3956	0.18468	0.18182	0.	4059.4
3957	23.067	2.1818	0.	1034.9
3958	23.067	2.3636	0.	690.37
3959	23.067	2.5455	0.	557.37
3960	23.067	2.7273	0.	493.67
3961	23.067	2.9091	0.	466.47
3962	23.067	3.0909	0.	466.47
3963	23.067	3.2727	0.	493.67
3964	23.067	3.4545	0.	557.37
3965	23.067	3.6364	0.	690.37
3966	23.067	3.8182	0.	1034.9
3967	23.222	2.1818	0.	761.47
3968	23.222	2.3636	0.	593.71
3969	23.222	2.5455	0.	482.85
3970	23.222	2.7273	0.	423.85
3971	23.222	2.9091	0.	397.54
3972	23.222	3.0909	0.	397.54
3973	23.222	3.2727	0.	423.85
3974	23.222	3.4545	0.	482.85
3975	23.222	3.6364	0.	593.71
3976	23.222	3.8182	0.	761.47
3977	23.378	2.1818	0.	548.61
3978	23.378	2.3636	0.	468.87
3979	23.378	2.5455	0.	392.54
3980	23.378	2.7273	0.	340.47
3981	23.378	2.9091	0.	315.45
3982	23.378	3.0909	0.	315.45
3983	23.378	3.2727	0.	340.47
3984	23.378	3.4545	0.	392.54
3985	23.378	3.6364	0.	468.87
3986	23.378	3.8182	0.	548.61
3987	23.533	2.1818	0.	422.58
3988	23.533	2.3636	0.	370.19
3989	23.533	2.5455	0.	306.17
3990	23.533	2.7273	0.	256.
3991	23.533	2.9091	0.	228.8
3992	23.533	3.0909	0.	228.8
3993	23.533	3.2727	0.	256.
3994	23.533	3.4545	0.	306.17
3995	23.533	3.6364	0.	370.19
3996	23.533	3.8182	0.	422.58
3997	23.689	2.1818	0.	353.03
3998	23.689	2.3636	0.	304.9
3999	23.689	2.5455	0.	242.59
4000	23.689	2.7273	0.	185.45
4001	23.689	2.9091	0.	149.51
4002	23.689	3.0909	0.	149.51
4003	23.689	3.2727	0.	185.45
4004	23.689	3.4545	0.	242.59
4005	23.689	3.6364	0.	304.9
4006	23.689	3.8182	0.	353.03
4007	23.844	2.1818	0.	331.46
4008	23.844	2.3636	0.	284.5
4009	23.844	2.5455	0.	220.41
4010	23.844	2.7273	0.	153.78
4011	23.844	2.9091	0.	103.54
4012	23.844	3.0909	0.	103.54
4013	23.844	3.2727	0.	153.78
4014	23.844	3.4545	0.	220.41
4015	23.844	3.6364	0.	284.5
4016	23.844	3.8182	0.	331.46
4017	23.844	4.1818	0.	337.77
4018	23.689	4.1818	0.	348.1
4019	23.533	4.1818	0.	387.76
4020	23.378	4.1818	0.	454.53
4021	23.222	4.1818	0.	586.82
4022	23.844	4.3636	0.	303.48
4023	23.689	4.3636	0.	304.58
4024	23.533	4.3636	0.	324.21
4025	23.378	4.3636	0.	354.16
4026	23.222	4.3636	0.	402.39
4027	23.844	4.5455	0.	258.87
4028	23.689	4.5455	0.	254.05
4029	23.533	4.5455	0.	262.77
4030	23.378	4.5455	0.	277.8
4031	23.222	4.5455	0.	301.1
4032	23.844	4.7273	0.	212.66
4033	23.689	4.7273	0.	205.06
4034	23.533	4.7273	0.	208.68
4035	23.378	4.7273	0.	216.3
4036	23.222	4.7273	0.	229.03
4037	23.844	4.9091	0.	169.4
4038	23.689	4.9091	0.	160.65
4039	23.533	4.9091	0.	161.68
4040	23.378	4.9091	0.	165.51
4041	23.222	4.9091	0.	172.96
4042	23.844	5.0909	0.	131.14
4043	23.689	5.0909	0.	121.95
4044	23.533	5.0909	0.	121.48
4045	23.378	5.0909	0.	123.21
4046	23.222	5.0909	0.	127.92
4047	23.844	5.2727	0.	98.789
4048	23.689	5.2727	0.	89.574
4049	23.533	5.2727	0.	88.037
4050	23.378	5.2727	0.	88.432
4051	23.222	5.2727	0.	91.502
4052	23.844	5.4545	0.	72.671
4053	23.689	5.4545	0.	63.943
4054	23.533	5.4545	0.	61.507
4055	23.378	5.4545	0.	60.679
4056	23.222	5.4545	0.	62.373
4057	23.844	5.6364	0.	52.345
4058	23.689	5.6364	0.	45.446
4059	23.533	5.6364	0.	42.496
4060	23.378	5.6364	0.	39.969
4061	23.222	5.6364	0.	39.563
4062	23.844	5.8182	0.	36.849
4063	23.689	5.8182	0.	35.568
4064	23.533	5.8182	0.	33.476
4065	23.378	5.8182	0.	28.519
4066	23.222	5.8182	0.	23.015
4067	23.222	1.8182	0.	586.82
4068	23.378	1.8182	0.	454.53
4069	23.533	1.8182	0.	387.76
4070	23.689	1.8182	0.	348.1
4071	23.844	1.8182	0.	337.77
4072	23.222	1.6364	0.	402.39
4073	23.378	1.6364	0.	354.16
4074	23.533	1.6364	0.	324.21
4075	23.689	1.6364	0.	304.58
4076	23.844	1.6364	0.	303.48
4077	23.222	1.4545	0.	301.1
4078	23.378	1.4545	0.	277.8
4079	23.533	1.4545	0.	262.77
4080	23.689	1.4545	0.	254.05
4081	23.844	1.4545	0.	258.87
4082	23.222	1.2727	0.	229.03
4083	23.378	1.2727	0.	216.3
4084	23.533	1.2727	0.	208.68
4085	23.689	1.2727	0.	205.06
4086	23.844	1.2727	0.	212.66
4087	23.222	1.0909	0.	172.96
4088	23.378	1.0909	0.	165.51
4089	23.533	1.0909	0.	161.68
4090	23.689	1.0909	0.	160.65
4091	23.844	1.0909	0.	169.4
4092	23.222	0.90909	0.	127.92
4093	23.378	0.90909	0.	123.21
4094	23.533	0.90909	0.	121.48
4095	23.689	0.90909	0.	121.95
4096	23.844	0.90909	0.	131.14
4097	23.222	0.72727	0.	91.502
4098	23.378	0.72727	0.	88.432
4099	23.533	0.72727	0.	88.037
4100	23.689	0.72727	0.	89.574
4101	23.844	0.72727	0.	98.789
4102	23.222	0.54545	0.	62.373
4103	23.378	0.54545	0.	60.679
4104	23.533	0.54545	0.	61.507
4105	23.689	0.54545	0.	63.943
4106	23.844	0.54545	0.	72.671
4107	23.222	0.36364	0.	39.563
4108	23.378	0.36364	0.	39.969
4109	23.533	0.36364	0.	42.496
4110	23.689	0.36364	0.	45.446
4111	23.844	0.36364	0.	52.345
4112	23.222	0.18182	0.	23.015
4113	23.378	0.18182	0.	28.519
4114	23.533	0.18182	0.	33.476
4115	23.689	0.18182	0.	35.568
4116	23.844	0.18182	0.	36.849
4117	23.844	0.18182	0.1	36.849
4118	23.689	0.18182	0.1	35.568
4119	23.533	0.18182	0.1	33.476
4120	23.378	0.18182	0.1	28.519
4121	23.222	0.18182	0.1	23.015
4122	23.844	0.36364	0.1	52.345
4123	23.689	0.36364	0.1	45.446
4124	23.533	0.36364	0.1	42.496
4125	23.378	0.36364	0.1	39.969
4126	23.222	0.36364	0.1	39.563
4127	23.844	0.54545	0.1	72.671
4128	23.689	0.54545	0.1	63.943
4129	23.533	0.54545	0.1	61.507
4130	23.378	0.54545	0.1	60.679
4131	23.222	0.54545	0.1	62.373
4132	23.844	0.72727	0.1	98.789
4133	23.689	0.72727	0.1	89.574
4134	23.533	0.72727	0.1	88.037
4135	23.378	0.72727	0.1	88.432
4136	23.222	0.72727	0.1	91.502
4137	23.844	0.90909	0.1	131.14
4138	23.689	0.90909	0.1	121.95
4139	23.533	0.90909	0.1	121.48
4140	23.378	0.90909	0.1	123.21
4141	23.222	0.90909	0.1	127.92
4142	23.844	1.0909	0.1	169.4
4143	23.689	1.0909	0.1	160.65
4144	23.533	1.0909	0.1	161.68
4145	23.378	1.0909	0.1	165.51
4146	23.222	1.0909	0.1	172.96
4147	23.844	1.2727	0.1	212.66
4148	23.689	1.2727	0.1	205.06
4149	23.533	1.2727	0.1	208.68
4150	23.378	1.2727	0.1	216.3
4151	23.222	1.2727	0.1	229.03
4152	23.844	1.4545	0.1	258.87
4153	23.689	1.4545	0.1	254.05
4154	23.533	1.4545	0.1	262.77
4155	23.378	1.4545	0.1	277.8
4156	23.222	1.4545	0.1	301.1
4157	23.844	1.6364	0.1	303.48
4158	23.689	1.6364	0.1	304.58
4159	23.533	1.6364	0.1	324.21
4160	23.378	1.6364	0.1	354.16
4161	23.222	1.6364	0.1	402.39
4162	23.844	1.8182	0.1	337.77
4163	23.689	1.8182	0.1	348.1
4164	23.533	1.8182	0.1	387.76
4165	23.378	1.8182	0.1	454.53
4166	23.222	1.8182	0.1	586.82
4167	23.222	5.8182	0.1	23.015
4168	23.378	5.8182	0.1	28.519
4169	23.533	5.8182	0.1	33.476
4170	23.689	5.8182	0.1	35.568
4171	23.844	5.8182	0.1	36.849
4172	23.222	5.6364	0.1	39.563
4173	23.378	5.6364	0.1	39.969
4174	23.533	5.6364	0.1	42.496
4175	23.689	5.6364	0.1	45.446
4176	23.844	5.6364	0.1	52.345
4177	23.222	5.4545	0.1	62.373
4178	23.378	5.4545	0.1	60.679
4179	23.533	5.4545	0.1	61.507
4180	23.689	5.4545	0.1	63.943
4181	23.844	5.4545	0.1	72.671
4182	23.222	5.2727	0.1	91.502
4183	23.378	5.2727	0.1	88.432
4184	23.533	5.2727	0.1	88.037
4185	23.689	5.2727	0.1	89.574
4186	23.844	5.2727	0.1	98.789
4187	23.222	5.0909	0.1	127.92
4188	23.378	5.0909	0.1	123.21
4189	23.533	5.0909	0.1	121.48
4190	23.689	5.0909	0.1	121.95
4191	23.844	5.0909	0.1	131.14
4192	23.222	4.9091	0.1	172.96
4193	23.378	4.9091	0.1	165.51
4194	23.533	4.9091	0.1	161.68
4195	23.689	4.9091	0.1	160.65
4196	23.844	4.9091	0.1	169.4
4197	23.222	4.7273	0.1	229.03
4198	23.378	4.7273	0.1	216.3
4199	23.533	4.7273	0.1	208.68
4200	23.689	4.7273	0.1	205.06
4201	23.844	4.7273	0.1	212.66
4202	23.222	4.5455	0.1	301.1
4203	23.378	4.5455	0.1	277.8
4204	23.533	4.5455	0.1	262.77
4205	23.689	4.5455	0.1	254.05
4206	23.844	4.5455	0.1	258.87
4207	23.222	4.3636	0.1	402.39
4208	23.378	4.3636	0.1	354.16
4209	23.533	4.3636	0.1	324.21
4210	23.689	4.3636	0.1	304.58
4211	23.844	4.3636	0.1	303.48
4212	23.222	4.1818	0.1	586.82
4213	23.378	4.1818	0.1	454.53
4214	23.533	4.1818	0.1	387.76
4215	23.689	4.1818	0.1	348.1
4216	23.844	4.1818	0.1	337.77
4217	23.844	3.8182	0.1	331.46
4218	23.844	3.6364	0.1	284.5
4219	23.844	3.4545	0.1	220.41
4220	23.844	3.2727	0.1	153.78
4221	23.844	3.0909	0.1	103.54
4222	23.844	2.9091	0.1	103.54
4223	23.844	2.7273	0.1	153.78
4224	23.844	2.5455	0.1	220.41
4225	23.844	2.3636	0.1	284.5
4226	23.844	2.1818	0.1	331.46
4227	23.689	3.8182	0.1	353.03
4228	23.689	3.6364	0.1	304.9
4229	23.689	3.4545	0.1	242.59
4230	23.689	3.2727	0.1	185.45
4231	23.689	3.0909	0.1	149.51
4232	23.689	2.9091	0.1	149.51
4233	23.689	2.7273	0.1	185.45
4234	23.689	2.5455	0.1	242.59
4235	23.689	2.3636	0.1	304.9
4236	23.689	2.1818	0.1	353.03
4237	23.533	3.8182	0.1	422.58
4238	23.533	3.6364	0.1	370.19
4239	23.533	3.4545	0.1	306.17
4240	23.533	3.2727	0.1	256.
4241	23.533	3.0909	0.1	228.8
4242	23.533	2.9091	0.1	228.8
4243	23.533	2.7273	0.1	256.
4244	23.533	2.5455	0.1	306.17
4245	23.533	2.3636	0.1	370.19
4246	23.533	2.1818	0.1	422.58
4247	23.378	3.8182	0.1	548.61
4248	23.378	3.6364	0.1	468.87
4249	23.378	3.4545	0.1	392.54
4250	23.378	3.2727	0.1	340.47
4251	23.378	3.0909	0.1	315.45
4252	23.378	2.9091	0.1	315.45
4253	23.378	2.7273	0.1	340.47
4254	23.378	2.5455	0.1	392.54
4255	23.378	2.3636	0.1	468.87
4256	23.378	2.1818	0.1	548.61
4257	23.222	3.8182	0.1	761.47
4258	23.222	3.6364	0.1	593.71
4259	23.222	3.4545	0.1	482.85
4260	23.222	3.2727	0.1	423.85
4261	23.222	3.0909	0.1	397.54
4262	23.222	2.9091	0.1	397.54
4263	23.222	2.7273	0.1	423.85
4264	23.222	2.5455	0.1	482.85
4265	23.222	2.3636	0.1	593.71
4266	23.222	2.1818	0.1	761.47
4267	23.067	3.8182	0.1	1034.9
4268	23.067	3.6364	0.1	690.37
4269	23.067	3.4545	0.1	557.37
4270	23.067	3.2727	0.1	493.67
4271	23.067	3.0909	0.1	466.47
4272	23.067	2.9091	0.1	466.47
4273	23.067	2.7273	0.1	493.67
4274	23.067	2.5455	0.1	557.37
4275	23.067	2.3636	0.1	690.37
4276	23.067	2.1818	0.1	1034.9
4277	0.18468	0.18182	0.1	4059.4
4278	0.18468	0.36364	0.1	4554.6
4279	0.18468	0.54545	0.1	5218.
4280	0.18468	0.72727	0.1	5737.5
4281	0.18468	0.90909	0.1	6127.
4282	0.18468	1.0909	0.1	6420.8
4283	0.18468	1.2727	0.1	6645.6
4284	0.18468	1.4545	0.1	6819.7
4285	0.18468	1.6364	0.1	6955.9
4286	0.18468	1.8182	0.1	7062.6
4287	0.18468	2.	0.1	7146.
4288	0.18468	2.1818	0.1	7210.4
4289	0.18468	2.3636	0.1	7258.9
4290	0.18468	2.5455	0.1	7293.6
4291	0.18468	2.7273	0.1	7315.9
4292	0.18468	2.9091	0.1	7326.9
4293	0.18468	3.0909	0.1	7326.9
4294	0.18468	3.2727	0.1	7315.9
4295	0.18468	3.4545	0.1	7293.6
4296	0.18468	3.6364	0.1	7258.9
4297	0.18468	3.8182	0.1	7210.4
4298	0.18468	4.	0.1	7146.
4299	0.18468	4.1818	0.1	7062.6
4300	0.18468	4.3636	0.1	6955.9
4301	0.18468	4.5455	0.1	6819.7
4302	0.18468	4.7273	0.1	6645.6
4303	0.18468	4.9091	0.1	6420.8
4304	0.18468	5.0909	0.1	6127.
4305	0.18468	5.2727	0.1	5737.5
4306	0.18468	5.4545	0.1	5218.
4307	0.18468	5.6364	0.1	4554.6
4308	0.18468	5.8182	0.1	4059.4
4309	0.36935	0.18182	0.1	5039.6
4310	0.36935	0.36364	0.1	4784.3
4311	0.36935	0.54545	0.1	4836.4
4312	0.36935	0.72727	0.1	5024.6
4313	0.36935	0.90909	0.1	5237.6
4314	0.36935	1.0909	0.1	5433.9
4315	0.36935	1.2727	0.1	5602.5
4316	0.36935	1.4545	0.1	5742.8
4317	0.36935	1.6364	0.1	5857.9
4318	0.36935	1.8182	0.1	5951.3
4319	0.36935	2.	0.1	6026.1
4320	0.36935	2.1818	0.1	6084.9
4321	0.36935	2.3636	0.1	6129.7
4322	0.36935	2.5455	0.1	6162.
4323	0.36935	2.7273	0.1	6183.1
4324	0.36935	2.9091	0.1	6193.4
4325	0.36935	3.0909	0.1	6193.4
4326	0.36935	3.2727	0.1	6183.1
4327	0.36935	3.4545	0.1	6162.
4328	0.36935	3.6364	0.1	6129.7
4329	0.36935	3.8182	0.1	6084.9
4330	0.36935	4.	0.1	6026.1
4331	0.36935	4.1818	0.1	5951.3
4332	0.36935	4.3636	0.1	5857.9
4333	0.36935	4.5455	0.1	5742.8
4334	0.36935	4.7273	0.1	5602.5
4335	0.36935	4.9091	0.1	5433.9
4336	0.36935	5.0909	0.1	5237.6
4337	0.36935	5.2727	0.1	5024.6
4338	0.36935	5.4545	0.1	4836.4
4339	0.36935	5.6364	0.1	4784.3
4340	0.36935	5.8182	0.1	5039.6
4341	0.55403	0.18182	0.1	5578.5
4342	0.55403	0.36364	0.1	5350.1
4343	0.55403	0.54545	0.1	5286.4
4344	0.55403	0.72727	0.1	5328.6
4345	0.55403	0.90909	0.1	5431.9
4346	0.55403	1.0909	0.1	5557.4
4347	0.55403	1.2727	0.1	5682.7
4348	0.55403	1.4545	0.1	5797.4
4349	0.55403	1.6364	0.1	5897.7
4350	0.55403	1.8182	0.1	5982.7
4351	0.55403	2.	0.1	6053.1
4352	0.55403	2.1818	0.1	6109.7
4353	0.55403	2.3636	0.1	6153.6
4354	0.55403	2.5455	0.1	6185.7
4355	0.55403	2.7273	0.1	6206.7
4356	0.55403	2.9091	0.1	6217.1
4357	0.55403	3.0909	0.1	6217.1
4358	0.55403	3.2727	0.1	6206.7
4359	0.55403	3.4545	0.1	6185.7
4360	0.55403	3.6364	0.1	6153.6
4361	0.55403	3.8182	0.1	6109.7
4362	0.55403	4.	0.1	6053.1
4363	0.55403	4.1818	0.1	5982.7
4364	0.55403	4.3636	0.1	5897.7
4365	0.55403	4.5455	0.1	5797.4
4366	0.55403	4.7273	0.1	5682.7
4367	0.55403	4.9091	0.1	5557.4
4368	0.55403	5.0909	0.1	5431.9
4369	0.55403	5.2727	0.1	5328.6
4370	0.55403	5.4545	0.1	5286.4
4371	0.55403	5.6364	0.1	5350.1
4372	0.55403	5.8182	0.1	5578.5
4373	0.73871	0.18182	0.1	5836.2
4374	0.73871	0.36364	0.1	5602.4
4375	0.73871	0.54545	0.1	5478.8
4376	0.73871	0.72727	0.1	5431.1
4377	0.73871	0.90909	0.1	5443.7
4378	0.73871	1.0909	0.1	5494.8
4379	0.73871	1.2727	0.1	5564.5
4380	0.73871	1.4545	0.1	5639.8
4381	0.73871	1.6364	0.1	5712.6
4382	0.73871	1.8182	0.1	5778.7
4383	0.73871	2.	0.1	5836.1
4384	0.73871	2.1818	0.1	5883.9
4385	0.73871	2.3636	0.1	5921.9
4386	0.73871	2.5455	0.1	5950.2
4387	0.73871	2.7273	0.1	5968.9
4388	0.73871	2.9091	0.1	5978.2
4389	0.73871	3.0909	0.1	5978.2
4390	0.73871	3.2727	0.1	5968.9
4391	0.73871	3.4545	0.1	5950.2
4392	0.73871	3.6364	0.1	5921.9
4393	0.73871	3.8182	0.1	5883.9
4394	0.73871	4.	0.1	5836.1
4395	0.73871	4.1818	0.1	5778.7
4396	0.73871	4.3636	0.1	5712.6
4397	0.73871	4.5455	0.1	5639.8
4398	0.73871	4.7273	0.1	5564.5
4399	0.73871	4.9091	0.1	5494.8
4400	0.73871	5.0909	0.1	5443.7
4401	0.73871	5.2727	0.1	5431.1
4402	0.73871	5.4545	0.1	5478.8
4403	0.73871	5.6364	0.1	5602.4
4404	0.73871	5.8182	0.1	5836.2
4405	0.92339	0.18182	0.1	5979.7
4406	0.92339	0.36364	0.1	5770.1
4407	0.92339	0.54545	0.1	5637.2
4408	0.92339	0.72727	0.1	5553.9
4409	0.92339	0.90909	0.1	5517.5
4410	0.92339	1.0909	0.1	5518.5
4411	0.92339	1.2727	0.1	5544.6
4412	0.92339	1.4545	0.1	5584.6
4413	0.92339	1.6364	0.1	5630.3
4414	0.92339	1.8182	0.1	5676.1
4415	0.92339	2.	0.1	5718.7
4416	0.92339	2.1818	0.1	5755.8
4417	0.92339	2.3636	0.1	5786.3
4418	0.92339	2.5455	0.1	5809.6
4419	0.92339	2.7273	0.1	5825.2
4420	0.92339	2.9091	0.1	5833.
4421	0.92339	3.0909	0.1	5833.
4422	0.92339	3.2727	0.1	5825.2
4423	0.92339	3.4545	0.1	5809.6
4424	0.92339	3.6364	0.1	5786.3
4425	0.92339	3.8182	0.1	5755.8
4426	0.92339	4.	0.1	5718.7
4427	0.92339	4.1818	0.1	5676.1
4428	0.92339	4.3636	0.1	5630.3
4429	0.92339	4.5455	0.1	5584.6
4430	0.92339	4.7273	0.1	5544.6
4431	0.92339	4.9091	0.1	5518.5
4432	0.92339	5.0909	0.1	5517.5
4433	0.92339	5.2727	0.1	5553.9
4434	0.92339	5.4545	0.1	5637.2
4435	0.92339	5.6364	0.1	5770.1
4436	0.92339	5.8182	0.1	5979.7
4437	1.1081	0.18182	0.1	6047.2
4438	1.1081	0.36364	0.1	5857.5
4439	1.1081	0.54545	0.1	5724.9
4440	1.1081	0.72727	0.1	5626.4
4441	1.1081	0.90909	0.1	5562.8
4442	1.1081	1.0909	0.1	5531.
4443	1.1081	1.2727	0.1	5524.1
4444	1.1081	1.4545	0.1	5534.5
4445	1.1081	1.6364	0.1	5555.3
4446	1.1081	1.8182	0.1	5581.2
4447	1.1081	2.	0.1	5608.2
4448	1.1081	2.1818	0.1	5633.5
4449	1.1081	2.3636	0.1	5655.3
4450	1.1081	2.5455	0.1	5672.5
4451	1.1081	2.7273	0.1	5684.3
4452	1.1081	2.9091	0.1	5690.3
4453	1.1081	3.0909	0.1	5690.3
4454	1.1081	3.2727	0.1	5684.3
4455	1.1081	3.4545	0.1	5672.5
4456	1.1081	3.6364	0.1	5655.3
4457	1.1081	3.8182	0.1	5633.5
4458	1.1081	4.	0.1	5608.2
4459	1.1081	4.1818	0.1	5581.2
4460	1.1081	4.3636	0.1	5555.3
4461	1.1081	4.5455	0.1	5534.5
4462	1.1081	4.7273	0.1	5524.1
4463	1.1081	4.9091	0.1	5531.
4464	1.1081	5.0909	0.1	5562.8
4465	1.1081	5.2727	0.1	5626.4
4466	1.1081	5.4545	0.1	5724.9
4467	1.1081	5.6364	0.1	5857.5
4468	1.1081	5.8182	0.1	6047.2
4469	1.2927	0.18182	0.1	6070.
4470	1.2927	0.36364	0.1	5899.2
4471	1.2927	0.54545	0.1	5772.5
4472	1.2927	0.72727	0.1	5669.8
4473	1.2927	0.90909	0.1	5592.9
4474	1.2927	1.0909	0.1	5541.3
4475	1.2927	1.2727	0.1	5512.
4476	1.2927	1.4545	0.1	5500.
4477	1.2927	1.6364	0.1	5500.5
4478	1.2927	1.8182	0.1	5508.9
4479	1.2927	2.	0.1	5521.4
4480	1.2927	2.1818	0.1	5535.3
4481	1.2927	2.3636	0.1	5548.4
4482	1.2927	2.5455	0.1	5559.3
4483	1.2927	2.7273	0.1	5567.1
4484	1.2927	2.9091	0.1	5571.1
4485	1.2927	3.0909	0.1	5571.1
4486	1.2927	3.2727	0.1	5567.1
4487	1.2927	3.4545	0.1	5559.3
4488	1.2927	3.6364	0.1	5548.4
4489	1.2927	3.8182	0.1	5535.3
4490	1.2927	4.	0.1	5521.4
4491	1.2927	4.1818	0.1	5508.9
4492	1.2927	4.3636	0.1	5500.5
4493	1.2927	4.5455	0.1	5500.
4494	1.2927	4.7273	0.1	5512.
4495	1.2927	4.9091	0.1	5541.3
4496	1.2927	5.0909	0.1	5592.9
4497	1.2927	5.2727	0.1	5669.8
4498	1.2927	5.4545	0.1	5772.5
4499	1.2927	5.6364	0.1	5899.2
4500	1.2927	5.8182	0.1	6070.
4501	1.4774	0.18182	0.1	6062.8
4502	1.4774	0.36364	0.1	5908.5
4503	1.4774	0.54545	0.1	5788.9
4504	1.4774	0.72727	0.1	5687.
4505	1.4774	0.90909	0.1	5604.2
4506	1.4774	1.0909	0.1	5541.5
4507	1.4774	1.2727	0.1	5497.5
4508	1.4774	1.4545	0.1	5469.6
4509	1.4774	1.6364	0.1	5454.3
4510	1.4774	1.8182	0.1	5448.3
4511	1.4774	2.	0.1	5448.3
4512	1.4774	2.1818	0.1	5451.9
4513	1.4774	2.3636	0.1	5456.9
4514	1.4774	2.5455	0.1	5461.9
4515	1.4774	2.7273	0.1	5465.8
4516	1.4774	2.9091	0.1	5467.9
4517	1.4774	3.0909	0.1	5467.9
4518	1.4774	3.2727	0.1	5465.8
4519	1.4774	3.4545	0.1	5461.9
4520	1.4774	3.6364	0.1	5456.9
4521	1.4774	3.8182	0.1	5451.9
4522	1.4774	4.	0.1	5448.3
4523	1.4774	4.1818	0.1	5448.3
4524	1.4774	4.3636	0.1	5454.3
4525	1.4774	4.5455	0.1	5469.6
4526	1.4774	4.7273	0.1	5497.5
4527	1.4774	4.9091	0.1	5541.5
4528	1.4774	5.0909	0.1	5604.2
4529	1.4774	5.2727	0.1	5687.
4530	1.4774	5.4545	0.1	5788.9
4531	1.4774	5.6364	0.1	5908.5
4532	1.4774	5.8182	0.1	6062.8
4533	1.6621	0.18182	0.1	6035.6
4534	1.6621	0.36364	0.1	5895.8
4535	1.6621	0.54545	0.1	5783.8
4536	1.6621	0.72727	0.1	5685.
4537	1.6621	0.90909	0.1	5600.8
4538	1.6621	1.0909	0.1	5532.3
4539	1.6621	1.2727	0.1	5479.4
4540	1.6621	1.4545	0.1	5440.7
4541	1.6621	1.6364	0.1	5413.9
4542	1.6621	1.8182	0.1	5396.7
4543	1.6621	2.	0.1	5386.6
4544	1.6621	2.1818	0.1	5381.5
4545	1.6621	2.3636	0.1	5379.4
4546	1.6621	2.5455	0.1	5379.1
4547	1.6621	2.7273	0.1	5379.4
4548	1.6621	2.9091	0.1	5379.8
4549	1.6621	3.0909	0.1	5379.8
4550	1.6621	3.2727	0.1	5379.4
4551	1.6621	3.4545	0.1	5379.1
4552	1.6621	3.6364	0.1	5379.4
4553	1.6621	3.8182	0.1	5381.5
4554	1.6621	4.	0.1	5386.6
4555	1.6621	4.1818	0.1	5396.7
4556	1.6621	4.3636	0.1	5413.9
4557	1.6621	4.5455	0.1	5440.7
4558	1.6621	4.7273	0.1	5479.4
4559	1.6621	4.9091	0.1	5532.3
4560	1.6621	5.0909	0.1	5600.8
4561	1.6621	5.2727	0.1	5685.
4562	1.6621	5.4545	0.1	5783.8
4563	1.6621	5.6364	0.1	5895.8
4564	1.6621	5.8182	0.1	6035.6
4565	1.8468	0.18182	0.1	5994.7
4566	1.8468	0.36364	0.1	5867.6
4567	1.8468	0.54545	0.1	5762.9
4568	1.8468	0.72727	0.1	5668.5
4569	1.8468	0.90909	0.1	5585.3
4570	1.8468	1.0909	0.1	5514.6
4571	1.8468	1.2727	0.1	5456.7
4572	1.8468	1.4545	0.1	5411.
4573	1.8468	1.6364	0.1	5376.3
4574	1.8468	1.8182	0.1	5350.9
4575	1.8468	2.	0.1	5332.9
4576	1.8468	2.1818	0.1	5320.8
4577	1.8468	2.3636	0.1	5312.9
4578	1.8468	2.5455	0.1	5308.1
4579	1.8468	2.7273	0.1	5305.4
4580	1.8468	2.9091	0.1	5304.2
4581	1.8468	3.0909	0.1	5304.2
4582	1.8468	3.2727	0.1	5305.4
4583	1.8468	3.4545	0.1	5308.1
4584	1.8468	3.6364	0.1	5312.9
4585	1.8468	3.8182	0.1	5320.8
4586	1.8468	4.	0.1	5332.9
4587	1.8468	4.1818	0.1	5350.9
4588	1.8468	4.3636	0.1	5376.3
4589	1.8468	4.5455	0.1	5411.
4590	1.8468	4.7273	0.1	5456.7
4591	1.8468	4.9091	0.1	5514.6
4592	1.8468	5.0909	0.1	5585.3
4593	1.8468	5.2727	0.1	5668.5
4594	1.8468	5.4545	0.1	5762.9
4595	1.8468	5.6364	0.1	5867.6
4596	1.8468	5.8182	0.1	5994.7
4597	2.0315	0.18182	0.1	5944.4
4598	2.0315	0.36364	0.1	5828.4
4599	2.0315	0.54545	0.1	5730.9
4600	2.0315	0.72727	0.1	5641.3
4601	2.0315	0.90909	0.1	5560.5
4602	2.0315	1.0909	0.1	5489.7
4603	2.0315	1.2727	0.1	5429.6
4604	2.0315	1.4545	0.1	5379.9
4605	2.0315	1.6364	0.1	5340.
4606	2.0315	1.8182	0.1	5308.8
4607	2.0315	2.	0.1	5285.1
4608	2.0315	2.1818	0.1	5267.7
4609	2.0315	2.3636	0.1	5255.2
4610	2.0315	2.5455	0.1	5246.8
4611	2.0315	2.7273	0.1	5241.7
4612	2.0315	2.9091	0.1	5239.2
4613	2.0315	3.0909	0.1	5239.2
4614	2.0315	3.2727	0.1	5241.7
4615	2.0315	3.4545	0.1	5246.8
4616	2.0315	3.6364	0.1	5255.2
4617	2.0315	3.8182	0.1	5267.7
4618	2.0315	4.	0.1	5285.1
4619	2.0315	4.1818	0.1	5308.8
4620	2.0315	4.3636	0.1	5340.
4621	2.0315	4.5455	0.1	5379.9
4622	2.0315	4.7273	0.1	5429.6
4623	2.0315	4.9091	0.1	5489.7
4624	2.0315	5.0909	0.1	5560.5
4625	2.0315	5.2727	0.1	5641.3
4626	2.0315	5.4545	0.1	5730.9
4627	2.0315	5.6364	0.1	5828.4
4628	2.0315	5.8182	0.1	5944.4
4629	2.2161	0.18182	0.1	5887.5
4630	2.2161	0.36364	0.1	5781.6
4631	2.2161	0.54545	0.1	5690.6
4632	2.2161	0.72727	0.1	5606.
4633	2.2161	0.90909	0.1	5528.5
4634	2.2161	1.0909	0.1	5459.1
4635	2.2161	1.2727	0.1	5398.5
4636	2.2161	1.4545	0.1	5346.9
4637	2.2161	1.6364	0.1	5303.9
4638	2.2161	1.8182	0.1	5269.1
4639	2.2161	2.	0.1	5241.4
4640	2.2161	2.1818	0.1	5220.2
4641	2.2161	2.3636	0.1	5204.4
4642	2.2161	2.5455	0.1	5193.2
4643	2.2161	2.7273	0.1	5186.2
4644	2.2161	2.9091	0.1	5182.8
4645	2.2161	3.0909	0.1	5182.8
4646	2.2161	3.2727	0.1	5186.2
4647	2.2161	3.4545	0.1	5193.2
4648	2.2161	3.6364	0.1	5204.4
4649	2.2161	3.8182	0.1	5220.2
4650	2.2161	4.	0.1	5241.4
4651	2.2161	4.1818	0.1	5269.1
4652	2.2161	4.3636	0.1	5303.9
4653	2.2161	4.5455	0.1	5346.9
4654	2.2161	4.7273	0.1	5398.5
4655	2.2161	4.9091	0.1	5459.1
4656	2.2161	5.0909	0.1	5528.5
4657	2.2161	5.2727	0.1	5606.
4658	2.2161	5.4545	0.1	5690.6
4659	2.2161	5.6364	0.1	5781.6
4660	2.2161	5.8182	0.1	5887.5
4661	2.4008	0.18182	0.1	5826.3
4662	2.4008	0.36364	0.1	5729.2
4663	2.4008	0.54545	0.1	5644.5
4664	2.4008	0.72727	0.1	5564.9
4665	2.4008	0.90909	0.1	5491.1
4666	2.4008	1.0909	0.1	5424.
4667	2.4008	1.2727	0.1	5364.2
4668	2.4008	1.4545	0.1	5312.1
4669	2.4008	1.6364	0.1	5267.8
4670	2.4008	1.8182	0.1	5230.7
4671	2.4008	2.	0.1	5200.6
4672	2.4008	2.1818	0.1	5176.8
4673	2.4008	2.3636	0.1	5158.7
4674	2.4008	2.5455	0.1	5145.6
4675	2.4008	2.7273	0.1	5137.2
4676	2.4008	2.9091	0.1	5133.
4677	2.4008	3.0909	0.1	5133.
4678	2.4008	3.2727	0.1	5137.2
4679	2.4008	3.4545	0.1	5145.6
4680	2.4008	3.6364	0.1	5158.7
4681	2.4008	3.8182	0.1	5176.8
4682	2.4008	4.	0.1	5200.6
4683	2.4008	4.1818	0.1	5230.7
4684	2.4008	4.3636	0.1	5267.8
4685	2.4008	4.5455	0.1	5312.1
4686	2.4008	4.7273	0.1	5364.2
4687	2.4008	4.9091	0.1	5424.
4688	2.4008	5.0909	0.1	5491.1
4689	2.4008	5.2727	0.1	5564.9
4690	2.4008	5.4545	0.1	5644.5
4691	2.4008	5.6364	0.1	5729.2
4692	2.4008	5.8182	0.1	5826.3
4693	2.5855	0.18182	0.1	5762.1
4694	2.5855	0.36364	0.1	5673.1
4695	2.5855	0.54545	0.1	5594.2
4696	2.5855	0.72727	0.1	5519.5
4697	2.5855	0.90909	0.1	5449.6
4698	2.5855	1.0909	0.1	5385.2
4699	2.5855	1.2727	0.1	5327.2
4700	2.5855	1.4545	0.1	5275.7
4701	2.5855	1.6364	0.1	5231.1
4702	2.5855	1.8182	0.1	5193.2
4703	2.5855	2.	0.1	5161.8
4704	2.5855	2.1818	0.1	5136.4
4705	2.5855	2.3636	0.1	5116.8
4706	2.5855	2.5455	0.1	5102.5
4707	2.5855	2.7273	0.1	5093.1
4708	2.5855	2.9091	0.1	5088.5
4709	2.5855	3.0909	0.1	5088.5
4710	2.5855	3.2727	0.1	5093.1
4711	2.5855	3.4545	0.1	5102.5
4712	2.5855	3.6364	0.1	5116.8
4713	2.5855	3.8182	0.1	5136.4
4714	2.5855	4.	0.1	5161.8
4715	2.5855	4.1818	0.1	5193.2
4716	2.5855	4.3636	0.1	5231.1
4717	2.5855	4.5455	0.1	5275.7
4718	2.5855	4.7273	0.1	5327.2
4719	2.5855	4.9091	0.1	5385.2
4720	2.5855	5.0909	0.1	5449.6
4721	2.5855	5.2727	0.1	5519.5
4722	2.5855	5.4545	0.1	5594.2
4723	2.5855	5.6364	0.1	5673.1
4724	2.5855	5.8182	0.1	5762.1
4725	2.7702	0.18182	0.1	5696.2
4726	2.7702	0.36364	0.1	5614.4
4727	2.7702	0.54545	0.1	5540.9
4728	2.7702	0.72727	0.1	5470.9
4729	2.7702	0.90909	0.1	5405.
4730	2.7702	1.0909	0.1	5343.8
4731	2.7702	1.2727	0.1	5287.9
4732	2.7702	1.4545	0.1	5237.9
4733	2.7702	1.6364	0.1	5193.8
4734	2.7702	1.8182	0.1	5155.9
4735	2.7702	2.	0.1	5124.1
4736	2.7702	2.1818	0.1	5098.1
4737	2.7702	2.3636	0.1	5077.7
4738	2.7702	2.5455	0.1	5062.6
4739	2.7702	2.7273	0.1	5052.7
4740	2.7702	2.9091	0.1	5047.8
4741	2.7702	3.0909	0.1	5047.8
4742	2.7702	3.2727	0.1	5052.7
4743	2.7702	3.4545	0.1	5062.6
4744	2.7702	3.6364	0.1	5077.7
4745	2.7702	3.8182	0.1	5098.1
4746	2.7702	4.	0.1	5124.1
4747	2.7702	4.1818	0.1	5155.9
4748	2.7702	4.3636	0.1	5193.8
4749	2.7702	4.5455	0.1	5237.9
4750	2.7702	4.7273	0.1	5287.9
4751	2.7702	4.9091	0.1	5343.8
4752	2.7702	5.0909	0.1	5405.
4753	2.7702	5.2727	0.1	5470.9
4754	2.7702	5.4545	0.1	5540.9
4755	2.7702	5.6364	0.1	5614.4
4756	2.7702	5.8182	0.1	5696.2
4757	2.9548	0.18182	0.1	5629.1
4758	2.9548	0.36364	0.1	5553.9
4759	2.9548	0.54545	0.1	5485.5
4760	2.9548	0.72727	0.1	5420.1
4761	2.9548	0.90909	0.1	5358.1
4762	2.9548	1.0909	0.1	5300.2
4763	2.9548	1.2727	0.1	5246.9
4764	2.9548	1.4545	0.1	5198.7
4765	2.9548	1.6364	0.1	5155.9
4766	2.9548	1.8182	0.1	5118.7
4767	2.9548	2.	0.1	5087.1
4768	2.9548	2.1818	0.1	5061.
4769	2.9548	2.3636	0.1	5040.4
4770	2.9548	2.5455	0.1	5025.1
4771	2.9548	2.7273	0.1	5014.9
4772	2.9548	2.9091	0.1	5009.9
4773	2.9548	3.0909	0.1	5009.9
4774	2.9548	3.2727	0.1	5014.9
4775	2.9548	3.4545	0.1	5025.1
4776	2.9548	3.6364	0.1	5040.4
4777	2.9548	3.8182	0.1	5061.
4778	2.9548	4.	0.1	5087.1
4779	2.9548	4.1818	0.1	5118.7
4780	2.9548	4.3636	0.1	5155.9
4781	2.9548	4.5455	0.1	5198.7
4782	2.9548	4.7273	0.1	5246.9
4783	2.9548	4.9091	0.1	5300.2
4784	2.9548	5.0909	0.1	5358.1
4785	2.9548	5.2727	0.1	5420.1
4786	2.9548	5.4545	0.1	5485.5
4787	2.9548	5.6364	0.1	5553.9
4788	2.9548	5.8182	0.1	5629.1
4789	3.1395	0.18182	0.1	5561.6
4790	3.1395	0.36364	0.1	5492.4
4791	3.1395	0.54545	0.1	5428.7
4792	3.1395	0.72727	0.1	5367.7
4793	3.1395	0.90909	0.1	5309.6
4794	3.1395	1.0909	0.1	5255.
4795	3.1395	1.2727	0.1	5204.5
4796	3.1395	1.4545	0.1	5158.4
4797	3.1395	1.6364	0.1	5117.3
4798	3.1395	1.8182	0.1	5081.2
4799	3.1395	2.	0.1	5050.3
4800	3.1395	2.1818	0.1	5024.7
4801	3.1395	2.3636	0.1	5004.2
4802	3.1395	2.5455	0.1	4989.
4803	3.1395	2.7273	0.1	4978.9
4804	3.1395	2.9091	0.1	4973.8
4805	3.1395	3.0909	0.1	4973.8
4806	3.1395	3.2727	0.1	4978.9
4807	3.1395	3.4545	0.1	4989.
4808	3.1395	3.6364	0.1	5004.2
4809	3.1395	3.8182	0.1	5024.7
4810	3.1395	4.	0.1	5050.3
4811	3.1395	4.1818	0.1	5081.2
4812	3.1395	4.3636	0.1	5117.3
4813	3.1395	4.5455	0.1	5158.4
4814	3.1395	4.7273	0.1	5204.5
4815	3.1395	4.9091	0.1	5255.
4816	3.1395	5.0909	0.1	5309.6
4817	3.1395	5.2727	0.1	5367.7
4818	3.1395	5.4545	0.1	5428.7
4819	3.1395	5.6364	0.1	5492.4
4820	3.1395	5.8182	0.1	5561.6
4821	3.3242	0.18182	0.1	5494.1
4822	3.3242	0.36364	0.1	5430.3
4823	3.3242	0.54545	0.1	5371.1
4824	3.3242	0.72727	0.1	5314.2
4825	3.3242	0.90909	0.1	5259.8
4826	3.3242	1.0909	0.1	5208.5
4827	3.3242	1.2727	0.1	5160.8
4828	3.3242	1.4545	0.1	5117.2
4829	3.3242	1.6364	0.1	5077.9
4830	3.3242	1.8182	0.1	5043.3
4831	3.3242	2.	0.1	5013.5
4832	3.3242	2.1818	0.1	4988.6
4833	3.3242	2.3636	0.1	4968.7
4834	3.3242	2.5455	0.1	4953.8
4835	3.3242	2.7273	0.1	4943.8
4836	3.3242	2.9091	0.1	4938.9
4837	3.3242	3.0909	0.1	4938.9
4838	3.3242	3.2727	0.1	4943.8
4839	3.3242	3.4545	0.1	4953.8
4840	3.3242	3.6364	0.1	4968.7
4841	3.3242	3.8182	0.1	4988.6
4842	3.3242	4.	0.1	5013.5
4843	3.3242	4.1818	0.1	5043.3
4844	3.3242	4.3636	0.1	5077.9
4845	3.3242	4.5455	0.1	5117.2
4846	3.3242	4.7273	0.1	5160.8
4847	3.3242	4.9091	0.1	5208.5
4848	3.3242	5.0909	0.1	5259.8
4849	3.3242	5.2727	0.1	5314.2
4850	3.3242	5.4545	0.1	5371.1
4851	3.3242	5.6364	0.1	5430.3
4852	3.3242	5.8182	0.1	5494.1
4853	3.5089	0.18182	0.1	5426.7
4854	3.5089	0.36364	0.1	5367.9
4855	3.5089	0.54545	0.1	5312.9
4856	3.5089	0.72727	0.1	5259.9
4857	3.5089	0.90909	0.1	5209.1
4858	3.5089	1.0909	0.1	5161.1
4859	3.5089	1.2727	0.1	5116.3
4860	3.5089	1.4545	0.1	5075.1
4861	3.5089	1.6364	0.1	5037.9
4862	3.5089	1.8182	0.1	5004.9
4863	3.5089	2.	0.1	4976.4
4864	3.5089	2.1818	0.1	4952.5
4865	3.5089	2.3636	0.1	4933.4
4866	3.5089	2.5455	0.1	4918.9
4867	3.5089	2.7273	0.1	4909.3
4868	3.5089	2.9091	0.1	4904.5
4869	3.5089	3.0909	0.1	4904.5
4870	3.5089	3.2727	0.1	4909.3
4871	3.5089	3.4545	0.1	4918.9
4872	3.5089	3.6364	0.1	4933.4
4873	3.5089	3.8182	0.1	4952.5
4874	3.5089	4.	0.1	4976.4
4875	3.5089	4.1818	0.1	5004.9
4876	3.5089	4.3636	0.1	5037.9
4877	3.5089	4.5455	0.1	5075.1
4878	3.5089	4.7273	0.1	5116.3
4879	3.5089	4.9091	0.1	5161.1
4880	3.5089	5.0909	0.1	5209.1
4881	3.5089	5.2727	0.1	5259.9
4882	3.5089	5.4545	0.1	5312.9
4883	3.5089	5.6364	0.1	5367.9
4884	3.5089	5.8182	0.1	5426.7
4885	3.6935	0.18182	0.1	5359.7
4886	3.6935	0.36364	0.1	5305.5
4887	3.6935	0.54545	0.1	5254.4
4888	3.6935	0.72727	0.1	5205.1
4889	3.6935	0.90909	0.1	5157.7
4890	3.6935	1.0909	0.1	5112.9
4891	3.6935	1.2727	0.1	5070.9
4892	3.6935	1.4545	0.1	5032.2
4893	3.6935	1.6364	0.1	4997.1
4894	3.6935	1.8182	0.1	4966.
4895	3.6935	2.	0.1	4938.9
4896	3.6935	2.1818	0.1	4916.2
4897	3.6935	2.3636	0.1	4897.8
4898	3.6935	2.5455	0.1	4884.
4899	3.6935	2.7273	0.1	4874.8
4900	3.6935	2.9091	0.1	4870.2
4901	3.6935	3.0909	0.1	4870.2
4902	3.6935	3.2727	0.1	4874.8
4903	3.6935	3.4545	0.1	4884.
4904	3.6935	3.6364	0.1	4897.8
4905	3.6935	3.8182	0.1	4916.2
4906	3.6935	4.	0.1	4938.9
4907	3.6935	4.1818	0.1	4966.
4908	3.6935	4.3636	0.1	4997.1
4909	3.6935	4.5455	0.1	5032.2
4910	3.6935	4.7273	0.1	5070.9
4911	3.6935	4.9091	0.1	5112.9
4912	3.6935	5.0909	0.1	5157.7
4913	3.6935	5.2727	0.1	5205.1
4914	3.6935	5.4545	0.1	5254.4
4915	3.6935	5.6364	0.1	5305.5
4916	3.6935	5.8182	0.1	5359.7
4917	3.8782	0.18182	0.1	5293.3
4918	3.8782	0.36364	0.1	5243.3
4919	3.8782	0.54545	0.1	5195.8
4920	3.8782	0.72727	0.1	5149.9
4921	3.8782	0.90909	0.1	5105.9
4922	3.8782	1.0909	0.1	5064.
4923	3.8782	1.2727	0.1	5024.8
4924	3.8782	1.4545	0.1	4988.6
4925	3.8782	1.6364	0.1	4955.7
4926	3.8782	1.8182	0.1	4926.3
4927	3.8782	2.	0.1	4900.8
4928	3.8782	2.1818	0.1	4879.3
4929	3.8782	2.3636	0.1	4861.9
4930	3.8782	2.5455	0.1	4848.8
4931	3.8782	2.7273	0.1	4840.
4932	3.8782	2.9091	0.1	4835.6
4933	3.8782	3.0909	0.1	4835.6
4934	3.8782	3.2727	0.1	4840.
4935	3.8782	3.4545	0.1	4848.8
4936	3.8782	3.6364	0.1	4861.9
4937	3.8782	3.8182	0.1	4879.3
4938	3.8782	4.	0.1	4900.8
4939	3.8782	4.1818	0.1	4926.3
4940	3.8782	4.3636	0.1	4955.7
4941	3.8782	4.5455	0.1	4988.6
4942	3.8782	4.7273	0.1	5024.8
4943	3.8782	4.9091	0.1	5064.
4944	3.8782	5.0909	0.1	5105.9
4945	3.8782	5.2727	0.1	5149.9
4946	3.8782	5.4545	0.1	5195.8
4947	3.8782	5.6364	0.1	5243.3
4948	3.8782	5.8182	0.1	5293.3
4949	4.0629	0.18182	0.1	5227.5
4950	4.0629	0.36364	0.1	5181.4
4951	4.0629	0.54545	0.1	5137.3
4952	4.0629	0.72727	0.1	5094.7
4953	4.0629	0.90909	0.1	5053.7
4954	4.0629	1.0909	0.1	5014.7
4955	4.0629	1.2727	0.1	4978.2
4956	4.0629	1.4545	0.1	4944.3
4957	4.0629	1.6364	0.1	4913.5
4958	4.0629	1.8182	0.1	4886.
4959	4.0629	2.	0.1	4862.1
4960	4.0629	2.1818	0.1	4841.8
4961	4.0629	2.3636	0.1	4825.5
4962	4.0629	2.5455	0.1	4813.1
4963	4.0629	2.7273	0.1	4804.8
4964	4.0629	2.9091	0.1	4800.6
4965	4.0629	3.0909	0.1	4800.6
4966	4.0629	3.2727	0.1	4804.8
4967	4.0629	3.4545	0.1	4813.1
4968	4.0629	3.6364	0.1	4825.5
4969	4.0629	3.8182	0.1	4841.8
4970	4.0629	4.	0.1	4862.1
4971	4.0629	4.1818	0.1	4886.
4972	4.0629	4.3636	0.1	4913.5
4973	4.0629	4.5455	0.1	4944.3
4974	4.0629	4.7273	0.1	4978.2
4975	4.0629	4.9091	0.1	5014.7
4976	4.0629	5.0909	0.1	5053.7
4977	4.0629	5.2727	0.1	5094.7
4978	4.0629	5.4545	0.1	5137.3
4979	4.0629	5.6364	0.1	5181.4
4980	4.0629	5.8182	0.1	5227.5
4981	4.2476	0.18182	0.1	5162.4
4982	4.2476	0.36364	0.1	5119.8
4983	4.2476	0.54545	0.1	5078.9
4984	4.2476	0.72727	0.1	5039.3
4985	4.2476	0.90909	0.1	5001.2
4986	4.2476	1.0909	0.1	4965.
4987	4.2476	1.2727	0.1	4931.
4988	4.2476	1.4545	0.1	4899.5
4989	4.2476	1.6364	0.1	4870.7
4990	4.2476	1.8182	0.1	4845.
4991	4.2476	2.	0.1	4822.6
4992	4.2476	2.1818	0.1	4803.7
4993	4.2476	2.3636	0.1	4788.3
4994	4.2476	2.5455	0.1	4776.7
4995	4.2476	2.7273	0.1	4768.9
4996	4.2476	2.9091	0.1	4765.
4997	4.2476	3.0909	0.1	4765.
4998	4.2476	3.2727	0.1	4768.9
4999	4.2476	3.4545	0.1	4776.7
5000	4.2476	3.6364	0.1	4788.3
5001	4.2476	3.8182	0.1	4803.7
5002	4.2476	4.	0.1	4822.6
5003	4.2476	4.1818	0.1	4845.
5004	4.2476	4.3636	0.1	4870.7
5005	4.2476	4.5455	0.1	4899.5
5006	4.2476	4.7273	0.1	4931.
5007	4.2476	4.9091	0.1	4965.
5008	4.2476	5.0909	0.1	5001.2
5009	4.2476	5.2727	0.1	5039.3
5010	4.2476	5.4545	0.1	5078.9
5011	4.2476	5.6364	0.1	5119.8
5012	4.2476	5.8182	0.1	5162.4
5013	4.4323	0.18182	0.1	5098.
5014	4.4323	0.36364	0.1	5058.6
5015	4.4323	0.54545	0.1	5020.7
5016	4.4323	0.72727	0.1	4984.
5017	4.4323	0.90909	0.1	4948.6
5018	4.4323	1.0909	0.1	4915.
5019	4.4323	1.2727	0.1	4883.4
5020	4.4323	1.4545	0.1	4854.
5021	4.4323	1.6364	0.1	4827.3
5022	4.4323	1.8182	0.1	4803.3
5023	4.4323	2.	0.1	4782.4
5024	4.4323	2.1818	0.1	4764.7
5025	4.4323	2.3636	0.1	4750.4
5026	4.4323	2.5455	0.1	4739.5
5027	4.4323	2.7273	0.1	4732.2
5028	4.4323	2.9091	0.1	4728.5
5029	4.4323	3.0909	0.1	4728.5
5030	4.4323	3.2727	0.1	4732.2
5031	4.4323	3.4545	0.1	4739.5
5032	4.4323	3.6364	0.1	4750.4
5033	4.4323	3.8182	0.1	4764.7
5034	4.4323	4.	0.1	4782.4
5035	4.4323	4.1818	0.1	4803.3
5036	4.4323	4.3636	0.1	4827.3
5037	4.4323	4.5455	0.1	4854.
5038	4.4323	4.7273	0.1	4883.4
5039	4.4323	4.9091	0.1	4915.
5040	4.4323	5.0909	0.1	4948.6
5041	4.4323	5.2727	0.1	4984.
5042	4.4323	5.4545	0.1	5020.7
5043	4.4323	5.6364	0.1	5058.6
5044	4.4323	5.8182	0.1	5098.
5045	4.6169	0.18182	0.1	5034.3
5046	4.6169	0.36364	0.1	4997.9
5047	4.6169	0.54545	0.1	4962.7
5048	4.6169	0.72727	0.1	4928.7
5049	4.6169	0.90909	0.1	4895.9
5050	4.6169	1.0909	0.1	4864.7
5051	4.6169	1.2727	0.1	4835.3
5052	4.6169	1.4545	0.1	4808.1
5053	4.6169	1.6364	0.1	4783.2
5054	4.6169	1.8182	0.1	4761.
5055	4.6169	2.	0.1	4741.5
5056	4.6169	2.1818	0.1	4725.
5057	4.6169	2.3636	0.1	4711.6
5058	4.6169	2.5455	0.1	4701.5
5059	4.6169	2.7273	0.1	4694.7
5060	4.6169	2.9091	0.1	4691.3
5061	4.6169	3.0909	0.1	4691.3
5062	4.6169	3.2727	0.1	4694.7
5063	4.6169	3.4545	0.1	4701.5
5064	4.6169	3.6364	0.1	4711.6
5065	4.6169	3.8182	0.1	4725.
5066	4.6169	4.	0.1	4741.5
5067	4.6169	4.1818	0.1	4761.
5068	4.6169	4.3636	0.1	4783.2
5069	4.6169	4.5455	0.1	4808.1
5070	4.6169	4.7273	0.1	4835.3
5071	4.6169	4.9091	0.1	4864.7
5072	4.6169	5.0909	0.1	4895.9
5073	4.6169	5.2727	0.1	4928.7
5074	4.6169	5.4545	0.1	4962.7
5075	4.6169	5.6364	0.1	4997.9
5076	4.6169	5.8182	0.1	5034.3
5077	4.8016	0.18182	0.1	4971.2
5078	4.8016	0.36364	0.1	4937.6
5079	4.8016	0.54545	0.1	4905.
5080	4.8016	0.72727	0.1	4873.4
5081	4.8016	0.90909	0.1	4843.1
5082	4.8016	1.0909	0.1	4814.1
5083	4.8016	1.2727	0.1	4786.9
5084	4.8016	1.4545	0.1	4761.6
5085	4.8016	1.6364	0.1	4738.6
5086	4.8016	1.8182	0.1	4717.9
5087	4.8016	2.	0.1	4699.8
5088	4.8016	2.1818	0.1	4684.5
5089	4.8016	2.3636	0.1	4672.
5090	4.8016	2.5455	0.1	4662.6
5091	4.8016	2.7273	0.1	4656.3
5092	4.8016	2.9091	0.1	4653.1
5093	4.8016	3.0909	0.1	4653.1
5094	4.8016	3.2727	0.1	4656.3
5095	4.8016	3.4545	0.1	4662.6
5096	4.8016	3.6364	0.1	4672.
5097	4.8016	3.8182	0.1	4684.5
5098	4.8016	4.	0.1	4699.8
5099	4.8016	4.1818	0.1	4717.9
5100	4.8016	4.3636	0.1	4738.6
5101	4.8016	4.5455	0.1	4761.6
5102	4.8016	4.7273	0.1	4786.9
5103	4.8016	4.9091	0.1	4814.1
5104	4.8016	5.0909	0.1	4843.1
5105	4.8016	5.2727	0.1	4873.4
5106	4.8016	5.4545	0.1	4905.
5107	4.8016	5.6364	0.1	4937.6
5108	4.8016	5.8182	0.1	4971.2
5109	4.9863	0.18182	0.1	4908.9
5110	4.9863	0.36364	0.1	4877.7
5111	4.9863	0.54545	0.1	4847.6
5112	4.9863	0.72727	0.1	4818.3
5113	4.9863	0.90909	0.1	4790.2
5114	4.9863	1.0909	0.1	4763.3
5115	4.9863	1.2727	0.1	4738.1
5116	4.9863	1.4545	0.1	4714.7
5117	4.9863	1.6364	0.1	4693.3
5118	4.9863	1.8182	0.1	4674.1
5119	4.9863	2.	0.1	4657.4
5120	4.9863	2.1818	0.1	4643.2
5121	4.9863	2.3636	0.1	4631.6
5122	4.9863	2.5455	0.1	4622.9
5123	4.9863	2.7273	0.1	4617.
5124	4.9863	2.9091	0.1	4614.
5125	4.9863	3.0909	0.1	4614.
5126	4.9863	3.2727	0.1	4617.
5127	4.9863	3.4545	0.1	4622.9
5128	4.9863	3.6364	0.1	4631.6
5129	4.9863	3.8182	0.1	4643.2
5130	4.9863	4.	0.1	4657.4
5131	4.9863	4.1818	0.1	4674.1
5132	4.9863	4.3636	0.1	4693.3
5133	4.9863	4.5455	0.1	4714.7
5134	4.9863	4.7273	0.1	4738.1
5135	4.9863	4.9091	0.1	4763.3
5136	4.9863	5.0909	0.1	4790.2
5137	4.9863	5.2727	0.1	4818.3
5138	4.9863	5.4545	0.1	4847.6
5139	4.9863	5.6364	0.1	4877.7
5140	4.9863	5.8182	0.1	4908.9
5141	5.171	0.18182	0.1	4847.2
5142	5.171	0.36364	0.1	4818.3
5143	5.171	0.54545	0.1	4790.4
5144	5.171	0.72727	0.1	4763.3
5145	5.171	0.90909	0.1	4737.2
5146	5.171	1.0909	0.1	4712.4
5147	5.171	1.2727	0.1	4689.
5148	5.171	1.4545	0.1	4667.3
5149	5.171	1.6364	0.1	4647.5
5150	5.171	1.8182	0.1	4629.8
5151	5.171	2.	0.1	4614.2
5152	5.171	2.1818	0.1	4601.1
5153	5.171	2.3636	0.1	4590.4
5154	5.171	2.5455	0.1	4582.3
5155	5.171	2.7273	0.1	4576.8
5156	5.171	2.9091	0.1	4574.1
5157	5.171	3.0909	0.1	4574.1
5158	5.171	3.2727	0.1	4576.8
5159	5.171	3.4545	0.1	4582.3
5160	5.171	3.6364	0.1	4590.4
5161	5.171	3.8182	0.1	4601.1
5162	5.171	4.	0.1	4614.2
5163	5.171	4.1818	0.1	4629.8
5164	5.171	4.3636	0.1	4647.5
5165	5.171	4.5455	0.1	4667.3
5166	5.171	4.7273	0.1	4689.
5167	5.171	4.9091	0.1	4712.4
5168	5.171	5.0909	0.1	4737.2
5169	5.171	5.2727	0.1	4763.3
5170	5.171	5.4545	0.1	4790.4
5171	5.171	5.6364	0.1	4818.3
5172	5.171	5.8182	0.1	4847.2
5173	5.3556	0.18182	0.1	4786.1
5174	5.3556	0.36364	0.1	4759.4
5175	5.3556	0.54545	0.1	4733.5
5176	5.3556	0.72727	0.1	4708.4
5177	5.3556	0.90909	0.1	4684.2
5178	5.3556	1.0909	0.1	4661.3
5179	5.3556	1.2727	0.1	4639.6
5180	5.3556	1.4545	0.1	4619.6
5181	5.3556	1.6364	0.1	4601.2
5182	5.3556	1.8182	0.1	4584.8
5183	5.3556	2.	0.1	4570.4
5184	5.3556	2.1818	0.1	4558.2
5185	5.3556	2.3636	0.1	4548.3
5186	5.3556	2.5455	0.1	4540.8
5187	5.3556	2.7273	0.1	4535.8
5188	5.3556	2.9091	0.1	4533.3
5189	5.3556	3.0909	0.1	4533.3
5190	5.3556	3.2727	0.1	4535.8
5191	5.3556	3.4545	0.1	4540.8
5192	5.3556	3.6364	0.1	4548.3
5193	5.3556	3.8182	0.1	4558.2
5194	5.3556	4.	0.1	4570.4
5195	5.3556	4.1818	0.1	4584.8
5196	5.3556	4.3636	0.1	4601.2
5197	5.3556	4.5455	0.1	4619.6
5198	5.3556	4.7273	0.1	4639.6
5199	5.3556	4.9091	0.1	4661.3
5200	5.3556	5.0909	0.1	4684.2
5201	5.3556	5.2727	0.1	4708.4
5202	5.3556	5.4545	0.1	4733.5
5203	5.3556	5.6364	0.1	4759.4
5204	5.3556	5.8182	0.1	4786.1
5205	5.5403	0.18182	0.1	4725.6
5206	5.5403	0.36364	0.1	4700.8
5207	5.5403	0.54545	0.1	4676.8
5208	5.5403	0.72727	0.1	4653.6
5209	5.5403	0.90909	0.1	4631.3
5210	5.5403	1.0909	0.1	4610.
5211	5.5403	1.2727	0.1	4590.
5212	5.5403	1.4545	0.1	4571.4
5213	5.5403	1.6364	0.1	4554.5
5214	5.5403	1.8182	0.1	4539.3
5215	5.5403	2.	0.1	4526.
5216	5.5403	2.1818	0.1	4514.7
5217	5.5403	2.3636	0.1	4505.5
5218	5.5403	2.5455	0.1	4498.6
5219	5.5403	2.7273	0.1	4493.9
5220	5.5403	2.9091	0.1	4491.6
5221	5.5403	3.0909	0.1	4491.6
5222	5.5403	3.2727	0.1	4493.9
5223	5.5403	3.4545	0.1	4498.6
5224	5.5403	3.6364	0.1	4505.5
5225	5.5403	3.8182	0.1	4514.7
5226	5.5403	4.	0.1	4526.
5227	5.5403	4.1818	0.1	4539.3
5228	5.5403	4.3636	0.1	4554.5
5229	5.5403	4.5455	0.1	4571.4
5230	5.5403	4.7273	0.1	4590.
5231	5.5403	4.9091	0.1	4610.
5232	5.5403	5.0909	0.1	4631.3
5233	5.5403	5.2727	0.1	4653.6
5234	5.5403	5.4545	0.1	4676.8
5235	5.5403	5.6364	0.1	4700.8
5236	5.5403	5.8182	0.1	4725.6
5237	5.725	0.18182	0.1	4665.6
5238	5.725	0.36364	0.1	4642.7
5239	5.725	0.54545	0.1	4620.5
5240	5.725	0.72727	0.1	4598.9
5241	5.725	0.90909	0.1	4578.3
5242	5.725	1.0909	0.1	4558.6
5243	5.725	1.2727	0.1	4540.1
5244	5.725	1.4545	0.1	4522.9
5245	5.725	1.6364	0.1	4507.3
5246	5.725	1.8182	0.1	4493.2
5247	5.725	2.	0.1	4480.9
5248	5.725	2.1818	0.1	4470.5
5249	5.725	2.3636	0.1	4462.
5250	5.725	2.5455	0.1	4455.6
5251	5.725	2.7273	0.1	4451.3
5252	5.725	2.9091	0.1	4449.1
5253	5.725	3.0909	0.1	4449.1
5254	5.725	3.2727	0.1	4451.3
5255	5.725	3.4545	0.1	4455.6
5256	5.725	3.6364	0.1	4462.
5257	5.725	3.8182	0.1	4470.5
5258	5.725	4.	0.1	4480.9
5259	5.725	4.1818	0.1	4493.2
5260	5.725	4.3636	0.1	4507.3
5261	5.725	4.5455	0.1	4522.9
5262	5.725	4.7273	0.1	4540.1
5263	5.725	4.9091	0.1	4558.6
5264	5.725	5.0909	0.1	4578.3
5265	5.725	5.2727	0.1	4598.9
5266	5.725	5.4545	0.1	4620.5
5267	5.725	5.6364	0.1	4642.7
5268	5.725	5.8182	0.1	4665.6
5269	5.9097	0.18182	0.1	4606.2
5270	5.9097	0.36364	0.1	4584.9
5271	5.9097	0.54545	0.1	4564.3
5272	5.9097	0.72727	0.1	4544.4
5273	5.9097	0.90909	0.1	4525.3
5274	5.9097	1.0909	0.1	4507.1
5275	5.9097	1.2727	0.1	4490.
5276	5.9097	1.4545	0.1	4474.1
5277	5.9097	1.6364	0.1	4459.6
5278	5.9097	1.8182	0.1	4446.6
5279	5.9097	2.	0.1	4435.3
5280	5.9097	2.1818	0.1	4425.6
5281	5.9097	2.3636	0.1	4417.8
5282	5.9097	2.5455	0.1	4411.9
5283	5.9097	2.7273	0.1	4407.9
5284	5.9097	2.9091	0.1	4405.9
5285	5.9097	3.0909	0.1	4405.9
5286	5.9097	3.2727	0.1	4407.9
5287	5.9097	3.4545	0.1	4411.9
5288	5.9097	3.6364	0.1	4417.8
5289	5.9097	3.8182	0.1	4425.6
5290	5.9097	4.	0.1	4435.3
5291	5.9097	4.1818	0.1	4446.6
5292	5.9097	4.3636	0.1	4459.6
5293	5.9097	4.5455	0.1	4474.1
5294	5.9097	4.7273	0.1	4490.
5295	5.9097	4.9091	0.1	4507.1
5296	5.9097	5.0909	0.1	4525.3
5297	5.9097	5.2727	0.1	4544.4
5298	5.9097	5.4545	0.1	4564.3
5299	5.9097	5.6364	0.1	4584.9
5300	5.9097	5.8182	0.1	4606.2
5301	6.0944	0.18182	0.1	4547.3
5302	6.0944	0.36364	0.1	4527.5
5303	6.0944	0.54545	0.1	4508.4
5304	6.0944	0.72727	0.1	4490.
5305	6.0944	0.90909	0.1	4472.3
5306	6.0944	1.0909	0.1	4455.5
5307	6.0944	1.2727	0.1	4439.7
5308	6.0944	1.4545	0.1	4425.
5309	6.0944	1.6364	0.1	4411.6
5310	6.0944	1.8182	0.1	4399.6
5311	6.0944	2.	0.1	4389.1
5312	6.0944	2.1818	0.1	4380.2
5313	6.0944	2.3636	0.1	4373.
5314	6.0944	2.5455	0.1	4367.5
5315	6.0944	2.7273	0.1	4363.8
5316	6.0944	2.9091	0.1	4362.
5317	6.0944	3.0909	0.1	4362.
5318	6.0944	3.2727	0.1	4363.8
5319	6.0944	3.4545	0.1	4367.5
5320	6.0944	3.6364	0.1	4373.
5321	6.0944	3.8182	0.1	4380.2
5322	6.0944	4.	0.1	4389.1
5323	6.0944	4.1818	0.1	4399.6
5324	6.0944	4.3636	0.1	4411.6
5325	6.0944	4.5455	0.1	4425.
5326	6.0944	4.7273	0.1	4439.7
5327	6.0944	4.9091	0.1	4455.5
5328	6.0944	5.0909	0.1	4472.3
5329	6.0944	5.2727	0.1	4490.
5330	6.0944	5.4545	0.1	4508.4
5331	6.0944	5.6364	0.1	4527.5
5332	6.0944	5.8182	0.1	4547.3
5333	6.279	0.18182	0.1	4488.9
5334	6.279	0.36364	0.1	4470.4
5335	6.279	0.54545	0.1	4452.8
5336	6.279	0.72727	0.1	4435.7
5337	6.279	0.90909	0.1	4419.4
5338	6.279	1.0909	0.1	4403.8
5339	6.279	1.2727	0.1	4389.2
5340	6.279	1.4545	0.1	4375.6
5341	6.279	1.6364	0.1	4363.2
5342	6.279	1.8182	0.1	4352.1
5343	6.279	2.	0.1	4342.4
5344	6.279	2.1818	0.1	4334.2
5345	6.279	2.3636	0.1	4327.6
5346	6.279	2.5455	0.1	4322.5
5347	6.279	2.7273	0.1	4319.1
5348	6.279	2.9091	0.1	4317.4
5349	6.279	3.0909	0.1	4317.4
5350	6.279	3.2727	0.1	4319.1
5351	6.279	3.4545	0.1	4322.5
5352	6.279	3.6364	0.1	4327.6
5353	6.279	3.8182	0.1	4334.2
5354	6.279	4.	0.1	4342.4
5355	6.279	4.1818	0.1	4352.1
5356	6.279	4.3636	0.1	4363.2
5357	6.279	4.5455	0.1	4375.6
5358	6.279	4.7273	0.1	4389.2
5359	6.279	4.9091	0.1	4403.8
5360	6.279	5.0909	0.1	4419.4
5361	6.279	5.2727	0.1	4435.7
5362	6.279	5.4545	0.1	4452.8
5363	6.279	5.6364	0.1	4470.4
5364	6.279	5.8182	0.1	4488.9
5365	6.4637	0.18182	0.1	4430.9
5366	6.4637	0.36364	0.1	4413.7
5367	6.4637	0.54545	0.1	4397.4
5368	6.4637	0.72727	0.1	4381.6
5369	6.4637	0.90909	0.1	4366.4
5370	6.4637	1.0909	0.1	4352.
5371	6.4637	1.2727	0.1	4338.5
5372	6.4637	1.4545	0.1	4326.
5373	6.4637	1.6364	0.1	4314.5
5374	6.4637	1.8182	0.1	4304.3
5375	6.4637	2.	0.1	4295.3
5376	6.4637	2.1818	0.1	4287.7
5377	6.4637	2.3636	0.1	4281.6
5378	6.4637	2.5455	0.1	4276.9
5379	6.4637	2.7273	0.1	4273.8
5380	6.4637	2.9091	0.1	4272.2
5381	6.4637	3.0909	0.1	4272.2
5382	6.4637	3.2727	0.1	4273.8
5383	6.4637	3.4545	0.1	4276.9
5384	6.4637	3.6364	0.1	4281.6
5385	6.4637	3.8182	0.1	4287.7
5386	6.4637	4.	0.1	4295.3
5387	6.4637	4.1818	0.1	4304.3
5388	6.4637	4.3636	0.1	4314.5
5389	6.4637	4.5455	0.1	4326.
5390	6.4637	4.7273	0.1	4338.5
5391	6.4637	4.9091	0.1	4352.
5392	6.4637	5.0909	0.1	4366.4
5393	6.4637	5.2727	0.1	4381.6
5394	6.4637	5.4545	0.1	4397.4
5395	6.4637	5.6364	0.1	4413.7
5396	6.4637	5.8182	0.1	4430.9
5397	6.6484	0.18182	0.1	4373.3
5398	6.6484	0.36364	0.1	4357.3
5399	6.6484	0.54545	0.1	4342.2
5400	6.6484	0.72727	0.1	4327.6
5401	6.6484	0.90909	0.1	4313.5
5402	6.6484	1.0909	0.1	4300.2
5403	6.6484	1.2727	0.1	4287.7
5404	6.6484	1.4545	0.1	4276.1
5405	6.6484	1.6364	0.1	4265.5
5406	6.6484	1.8182	0.1	4256.1
5407	6.6484	2.	0.1	4247.8
5408	6.6484	2.1818	0.1	4240.8
5409	6.6484	2.3636	0.1	4235.1
5410	6.6484	2.5455	0.1	4230.8
5411	6.6484	2.7273	0.1	4227.9
5412	6.6484	2.9091	0.1	4226.5
5413	6.6484	3.0909	0.1	4226.5
5414	6.6484	3.2727	0.1	4227.9
5415	6.6484	3.4545	0.1	4230.8
5416	6.6484	3.6364	0.1	4235.1
5417	6.6484	3.8182	0.1	4240.8
5418	6.6484	4.	0.1	4247.8
5419	6.6484	4.1818	0.1	4256.1
5420	6.6484	4.3636	0.1	4265.5
5421	6.6484	4.5455	0.1	4276.1
5422	6.6484	4.7273	0.1	4287.7
5423	6.6484	4.9091	0.1	4300.2
5424	6.6484	5.0909	0.1	4313.5
5425	6.6484	5.2727	0.1	4327.6
5426	6.6484	5.4545	0.1	4342.2
5427	6.6484	5.6364	0.1	4357.3
5428	6.6484	5.8182	0.1	4373.3
5429	6.8331	0.18182	0.1	4316.2
5430	6.8331	0.36364	0.1	4301.2
5431	6.8331	0.54545	0.1	4287.2
5432	6.8331	0.72727	0.1	4273.7
5433	6.8331	0.90909	0.1	4260.7
5434	6.8331	1.0909	0.1	4248.3
5435	6.8331	1.2727	0.1	4236.8
5436	6.8331	1.4545	0.1	4226.1
5437	6.8331	1.6364	0.1	4216.3
5438	6.8331	1.8182	0.1	4207.5
5439	6.8331	2.	0.1	4199.9
5440	6.8331	2.1818	0.1	4193.4
5441	6.8331	2.3636	0.1	4188.2
5442	6.8331	2.5455	0.1	4184.2
5443	6.8331	2.7273	0.1	4181.5
5444	6.8331	2.9091	0.1	4180.2
5445	6.8331	3.0909	0.1	4180.2
5446	6.8331	3.2727	0.1	4181.5
5447	6.8331	3.4545	0.1	4184.2
5448	6.8331	3.6364	0.1	4188.2
5449	6.8331	3.8182	0.1	4193.4
5450	6.8331	4.	0.1	4199.9
5451	6.8331	4.1818	0.1	4207.5
5452	6.8331	4.3636	0.1	4216.3
5453	6.8331	4.5455	0.1	4226.1
5454	6.8331	4.7273	0.1	4236.8
5455	6.8331	4.9091	0.1	4248.3
5456	6.8331	5.0909	0.1	4260.7
5457	6.8331	5.2727	0.1	4273.7
5458	6.8331	5.4545	0.1	4287.2
5459	6.8331	5.6364	0.1	4301.2
5460	6.8331	5.8182	0.1	4316.2
5461	7.0177	0.18182	0.1	4259.4
5462	7.0177	0.36364	0.1	4245.4
5463	7.0177	0.54545	0.1	4232.4
5464	7.0177	0.72727	0.1	4219.9
5465	7.0177	0.90909	0.1	4207.9
5466	7.0177	1.0909	0.1	4196.5
5467	7.0177	1.2727	0.1	4185.8
5468	7.0177	1.4545	0.1	4175.8
5469	7.0177	1.6364	0.1	4166.8
5470	7.0177	1.8182	0.1	4158.7
5471	7.0177	2.	0.1	4151.7
5472	7.0177	2.1818	0.1	4145.7
5473	7.0177	2.3636	0.1	4140.8
5474	7.0177	2.5455	0.1	4137.2
5475	7.0177	2.7273	0.1	4134.7
5476	7.0177	2.9091	0.1	4133.5
5477	7.0177	3.0909	0.1	4133.5
5478	7.0177	3.2727	0.1	4134.7
5479	7.0177	3.4545	0.1	4137.2
5480	7.0177	3.6364	0.1	4140.8
5481	7.0177	3.8182	0.1	4145.7
5482	7.0177	4.	0.1	4151.7
5483	7.0177	4.1818	0.1	4158.7
5484	7.0177	4.3636	0.1	4166.8
5485	7.0177	4.5455	0.1	4175.8
5486	7.0177	4.7273	0.1	4185.8
5487	7.0177	4.9091	0.1	4196.5
5488	7.0177	5.0909	0.1	4207.9
5489	7.0177	5.2727	0.1	4219.9
5490	7.0177	5.4545	0.1	4232.4
5491	7.0177	5.6364	0.1	4245.4
5492	7.0177	5.8182	0.1	4259.4
5493	7.2024	0.18182	0.1	4203.
5494	7.2024	0.36364	0.1	4189.9
5495	7.2024	0.54545	0.1	4177.9
5496	7.2024	0.72727	0.1	4166.2
5497	7.2024	0.90909	0.1	4155.1
5498	7.2024	1.0909	0.1	4144.5
5499	7.2024	1.2727	0.1	4134.6
5500	7.2024	1.4545	0.1	4125.5
5501	7.2024	1.6364	0.1	4117.1
5502	7.2024	1.8182	0.1	4109.7
5503	7.2024	2.	0.1	4103.1
5504	7.2024	2.1818	0.1	4097.6
5505	7.2024	2.3636	0.1	4093.1
5506	7.2024	2.5455	0.1	4089.7
5507	7.2024	2.7273	0.1	4087.5
5508	7.2024	2.9091	0.1	4086.3
5509	7.2024	3.0909	0.1	4086.3
5510	7.2024	3.2727	0.1	4087.5
5511	7.2024	3.4545	0.1	4089.7
5512	7.2024	3.6364	0.1	4093.1
5513	7.2024	3.8182	0.1	4097.6
5514	7.2024	4.	0.1	4103.1
5515	7.2024	4.1818	0.1	4109.7
5516	7.2024	4.3636	0.1	4117.1
5517	7.2024	4.5455	0.1	4125.5
5518	7.2024	4.7273	0.1	4134.6
5519	7.2024	4.9091	0.1	4144.5
5520	7.2024	5.0909	0.1	4155.1
5521	7.2024	5.2727	0.1	4166.2
5522	7.2024	5.4545	0.1	4177.9
5523	7.2024	5.6364	0.1	4189.9
5524	7.2024	5.8182	0.1	4203.
5525	7.3871	0.18182	0.1	4147.
5526	7.3871	0.36364	0.1	4134.7
5527	7.3871	0.54545	0.1	4123.5
5528	7.3871	0.72727	0.1	4112.7
5529	7.3871	0.90909	0.1	4102.4
5530	7.3871	1.0909	0.1	4092.6
5531	7.3871	1.2727	0.1	4083.5
5532	7.3871	1.4545	0.1	4075.
5533	7.3871	1.6364	0.1	4067.3
5534	7.3871	1.8182	0.1	4060.3
5535	7.3871	2.	0.1	4054.3
5536	7.3871	2.1818	0.1	4049.2
5537	7.3871	2.3636	0.1	4045.1
5538	7.3871	2.5455	0.1	4041.9
5539	7.3871	2.7273	0.1	4039.8
5540	7.3871	2.9091	0.1	4038.8
5541	7.3871	3.0909	0.1	4038.8
5542	7.3871	3.2727	0.1	4039.8
5543	7.3871	3.4545	0.1	4041.9
5544	7.3871	3.6364	0.1	4045.1
5545	7.3871	3.8182	0.1	4049.2
5546	7.3871	4.	0.1	4054.3
5547	7.3871	4.1818	0.1	4060.3
5548	7.3871	4.3636	0.1	4067.3
5549	7.3871	4.5455	0.1	4075.
5550	7.3871	4.7273	0.1	4083.5
5551	7.3871	4.9091	0.1	4092.6
5552	7.3871	5.0909	0.1	4102.4
5553	7.3871	5.2727	0.1	4112.7
5554	7.3871	5.4545	0.1	4123.5
5555	7.3871	5.6364	0.1	4134.7
5556	7.3871	5.8182	0.1	4147.
5557	7.5718	0.18182	0.1	4091.2
5558	7.5718	0.36364	0.1	4079.7
5559	7.5718	0.54545	0.1	4069.3
5560	7.5718	0.72727	0.1	4059.3
5561	7.5718	0.90909	0.1	4049.8
5562	7.5718	1.0909	0.1	4040.7
5563	7.5718	1.2727	0.1	4032.2
5564	7.5718	1.4545	0.1	4024.4
5565	7.5718	1.6364	0.1	4017.2
5566	7.5718	1.8182	0.1	4010.8
5567	7.5718	2.	0.1	4005.3
5568	7.5718	2.1818	0.1	4000.5
5569	7.5718	2.3636	0.1	3996.7
5570	7.5718	2.5455	0.1	3993.8
5571	7.5718	2.7273	0.1	3991.9
5572	7.5718	2.9091	0.1	3990.9
5573	7.5718	3.0909	0.1	3990.9
5574	7.5718	3.2727	0.1	3991.9
5575	7.5718	3.4545	0.1	3993.8
5576	7.5718	3.6364	0.1	3996.7
5577	7.5718	3.8182	0.1	4000.5
5578	7.5718	4.	0.1	4005.3
5579	7.5718	4.1818	0.1	4010.8
5580	7.5718	4.3636	0.1	4017.2
5581	7.5718	4.5455	0.1	4024.4
5582	7.5718	4.7273	0.1	4032.2
5583	7.5718	4.9091	0.1	4040.7
5584	7.5718	5.0909	0.1	4049.8
5585	7.5718	5.2727	0.1	4059.3
5586	7.5718	5.4545	0.1	4069.3
5587	7.5718	5.6364	0.1	4079.7
5588	7.5718	5.8182	0.1	4091.2
5589	7.7565	0.18182	0.1	4035.8
5590	7.7565	0.36364	0.1	4025.
5591	7.7565	0.54545	0.1	4015.3
5592	7.7565	0.72727	0.1	4006.1
5593	7.7565	0.90909	0.1	3997.2
5594	7.7565	1.0909	0.1	3988.8
5595	7.7565	1.2727	0.1	3981.
5596	7.7565	1.4545	0.1	3973.7
5597	7.7565	1.6364	0.1	3967.1
5598	7.7565	1.8182	0.1	3961.2
5599	7.7565	2.	0.1	3956.
5600	7.7565	2.1818	0.1	3951.6
5601	7.7565	2.3636	0.1	3948.1
5602	7.7565	2.5455	0.1	3945.4
5603	7.7565	2.7273	0.1	3943.6
5604	7.7565	2.9091	0.1	3942.7
5605	7.7565	3.0909	0.1	3942.7
5606	7.7565	3.2727	0.1	3943.6
5607	7.7565	3.4545	0.1	3945.4
5608	7.7565	3.6364	0.1	3948.1
5609	7.7565	3.8182	0.1	3951.6
5610	7.7565	4.	0.1	3956.
5611	7.7565	4.1818	0.1	3961.2
5612	7.7565	4.3636	0.1	3967.1
5613	7.7565	4.5455	0.1	3973.7
5614	7.7565	4.7273	0.1	3981.
5615	7.7565	4.9091	0.1	3988.8
5616	7.7565	5.0909	0.1	3997.2
5617	7.7565	5.2727	0.1	4006.1
5618	7.7565	5.4545	0.1	4015.3
5619	7.7565	5.6364	0.1	4025.
5620	7.7565	5.8182	0.1	4035.8
5621	7.9411	0.18182	0.1	3980.7
5622	7.9411	0.36364	0.1	3970.5
5623	7.9411	0.54545	0.1	3961.6
5624	7.9411	0.72727	0.1	3953.
5625	7.9411	0.90909	0.1	3944.8
5626	7.9411	1.0909	0.1	3937.
5627	7.9411	1.2727	0.1	3929.7
5628	7.9411	1.4545	0.1	3922.9
5629	7.9411	1.6364	0.1	3916.8
5630	7.9411	1.8182	0.1	3911.3
5631	7.9411	2.	0.1	3906.6
5632	7.9411	2.1818	0.1	3902.5
5633	7.9411	2.3636	0.1	3899.3
5634	7.9411	2.5455	0.1	3896.8
5635	7.9411	2.7273	0.1	3895.1
5636	7.9411	2.9091	0.1	3894.3
5637	7.9411	3.0909	0.1	3894.3
5638	7.9411	3.2727	0.1	3895.1
5639	7.9411	3.4545	0.1	3896.8
5640	7.9411	3.6364	0.1	3899.3
5641	7.9411	3.8182	0.1	3902.5
5642	7.9411	4.	0.1	3906.6
5643	7.9411	4.1818	0.1	3911.3
5644	7.9411	4.3636	0.1	3916.8
5645	7.9411	4.5455	0.1	3922.9
5646	7.9411	4.7273	0.1	3929.7
5647	7.9411	4.9091	0.1	3937.
5648	7.9411	5.0909	0.1	3944.8
5649	7.9411	5.2727	0.1	3953.
5650	7.9411	5.4545	0.1	3961.6
5651	7.9411	5.6364	0.1	3970.5
5652	7.9411	5.8182	0.1	3980.7
5653	8.1258	0.18182	0.1	3925.9
5654	8.1258	0.36364	0.1	3916.3
5655	8.1258	0.54545	0.1	3908.
5656	8.1258	0.72727	0.1	3900.
5657	8.1258	0.90909	0.1	3892.4
5658	8.1258	1.0909	0.1	3885.1
5659	8.1258	1.2727	0.1	3878.4
5660	8.1258	1.4545	0.1	3872.1
5661	8.1258	1.6364	0.1	3866.5
5662	8.1258	1.8182	0.1	3861.4
5663	8.1258	2.	0.1	3857.
5664	8.1258	2.1818	0.1	3853.2
5665	8.1258	2.3636	0.1	3850.2
5666	8.1258	2.5455	0.1	3847.9
5667	8.1258	2.7273	0.1	3846.4
5668	8.1258	2.9091	0.1	3845.6
5669	8.1258	3.0909	0.1	3845.6
5670	8.1258	3.2727	0.1	3846.4
5671	8.1258	3.4545	0.1	3847.9
5672	8.1258	3.6364	0.1	3850.2
5673	8.1258	3.8182	0.1	3853.2
5674	8.1258	4.	0.1	3857.
5675	8.1258	4.1818	0.1	3861.4
5676	8.1258	4.3636	0.1	3866.5
5677	8.1258	4.5455	0.1	3872.1
5678	8.1258	4.7273	0.1	3878.4
5679	8.1258	4.9091	0.1	3885.1
5680	8.1258	5.0909	0.1	3892.4
5681	8.1258	5.2727	0.1	3900.
5682	8.1258	5.4545	0.1	3908.
5683	8.1258	5.6364	0.1	3916.3
5684	8.1258	5.8182	0.1	3925.9
5685	8.3105	0.18182	0.1	3871.4
5686	8.3105	0.36364	0.1	3862.3
5687	8.3105	0.54545	0.1	3854.6
5688	8.3105	0.72727	0.1	3847.2
5689	8.3105	0.90909	0.1	3840.1
5690	8.3105	1.0909	0.1	3833.4
5691	8.3105	1.2727	0.1	3827.1
5692	8.3105	1.4545	0.1	3821.3
5693	8.3105	1.6364	0.1	3816.1
5694	8.3105	1.8182	0.1	3811.4
5695	8.3105	2.	0.1	3807.3
5696	8.3105	2.1818	0.1	3803.8
5697	8.3105	2.3636	0.1	3801.
5698	8.3105	2.5455	0.1	3798.9
5699	8.3105	2.7273	0.1	3797.4
5700	8.3105	2.9091	0.1	3796.7
5701	8.3105	3.0909	0.1	3796.7
5702	8.3105	3.2727	0.1	3797.4
5703	8.3105	3.4545	0.1	3798.9
5704	8.3105	3.6364	0.1	3801.
5705	8.3105	3.8182	0.1	3803.8
5706	8.3105	4.	0.1	3807.3
5707	8.3105	4.1818	0.1	3811.4
5708	8.3105	4.3636	0.1	3816.1
5709	8.3105	4.5455	0.1	3821.3
5710	8.3105	4.7273	0.1	3827.1
5711	8.3105	4.9091	0.1	3833.4
5712	8.3105	5.0909	0.1	3840.1
5713	8.3105	5.2727	0.1	3847.2
5714	8.3105	5.4545	0.1	3854.6
5715	8.3105	5.6364	0.1	3862.3
5716	8.3105	5.8182	0.1	3871.4
5717	8.4952	0.18182	0.1	3817.2
5718	8.4952	0.36364	0.1	3808.6
5719	8.4952	0.54545	0.1	3801.4
5720	8.4952	0.72727	0.1	3794.5
5721	8.4952	0.90909	0.1	3787.9
5722	8.4952	1.0909	0.1	3781.7
5723	8.4952	1.2727	0.1	3775.8
5724	8.4952	1.4545	0.1	3770.5
5725	8.4952	1.6364	0.1	3765.6
5726	8.4952	1.8182	0.1	3761.2
5727	8.4952	2.	0.1	3757.4
5728	8.4952	2.1818	0.1	3754.2
5729	8.4952	2.3636	0.1	3751.6
5730	8.4952	2.5455	0.1	3749.6
5731	8.4952	2.7273	0.1	3748.3
5732	8.4952	2.9091	0.1	3747.7
5733	8.4952	3.0909	0.1	3747.7
5734	8.4952	3.2727	0.1	3748.3
5735	8.4952	3.4545	0.1	3749.6
5736	8.4952	3.6364	0.1	3751.6
5737	8.4952	3.8182	0.1	3754.2
5738	8.4952	4.	0.1	3757.4
5739	8.4952	4.1818	0.1	3761.2
5740	8.4952	4.3636	0.1	3765.6
5741	8.4952	4.5455	0.1	3770.5
5742	8.4952	4.7273	0.1	3775.8
5743	8.4952	4.9091	0.1	3781.7
5744	8.4952	5.0909	0.1	3787.9
5745	8.4952	5.2727	0.1	3794.5
5746	8.4952	5.4545	0.1	3801.4
5747	8.4952	5.6364	0.1	3808.6
5748	8.4952	5.8182	0.1	3817.2
5749	8.6798	0.18182	0.1	3763.2
5750	8.6798	0.36364	0.1	3755.1
5751	8.6798	0.54545	0.1	3748.3
5752	8.6798	0.72727	0.1	3741.9
5753	8.6798	0.90909	0.1	3735.8
5754	8.6798	1.0909	0.1	3730.
5755	8.6798	1.2727	0.1	3724.6
5756	8.6798	1.4545	0.1	3719.6
5757	8.6798	1.6364	0.1	3715.1
5758	8.6798	1.8182	0.1	3711.
5759	8.6798	2.	0.1	3707.5
5760	8.6798	2.1818	0.1	3704.5
5761	8.6798	2.3636	0.1	3702.1
5762	8.6798	2.5455	0.1	3700.3
5763	8.6798	2.7273	0.1	3699.1
5764	8.6798	2.9091	0.1	3698.5
5765	8.6798	3.0909	0.1	3698.5
5766	8.6798	3.2727	0.1	3699.1
5767	8.6798	3.4545	0.1	3700.3
5768	8.6798	3.6364	0.1	3702.1
5769	8.6798	3.8182	0.1	3704.5
5770	8.6798	4.	0.1	3707.5
5771	8.6798	4.1818	0.1	3711.
5772	8.6798	4.3636	0.1	3715.1
5773	8.6798	4.5455	0.1	3719.6
5774	8.6798	4.7273	0.1	3724.6
5775	8.6798	4.9091	0.1	3730.
5776	8.6798	5.0909	0.1	3735.8
5777	8.6798	5.2727	0.1	3741.9
5778	8.6798	5.4545	0.1	3748.3
5779	8.6798	5.6364	0.1	3755.1
5780	8.6798	5.8182	0.1	3763.2
5781	8.8645	0.18182	0.1	3709.5
5782	8.8645	0.36364	0.1	3701.8
5783	8.8645	0.54545	0.1	3695.5
5784	8.8645	0.72727	0.1	3689.5
5785	8.8645	0.90909	0.1	3683.8
5786	8.8645	1.0909	0.1	3678.4
5787	8.8645	1.2727	0.1	3673.4
5788	8.8645	1.4545	0.1	3668.8
5789	8.8645	1.6364	0.1	3664.6
5790	8.8645	1.8182	0.1	3660.8
5791	8.8645	2.	0.1	3657.5
5792	8.8645	2.1818	0.1	3654.8
5793	8.8645	2.3636	0.1	3652.5
5794	8.8645	2.5455	0.1	3650.9
5795	8.8645	2.7273	0.1	3649.7
5796	8.8645	2.9091	0.1	3649.2
5797	8.8645	3.0909	0.1	3649.2
5798	8.8645	3.2727	0.1	3649.7
5799	8.8645	3.4545	0.1	3650.9
5800	8.8645	3.6364	0.1	3652.5
5801	8.8645	3.8182	0.1	3654.8
5802	8.8645	4.	0.1	3657.5
5803	8.8645	4.1818	0.1	3660.8
5804	8.8645	4.3636	0.1	3664.6
5805	8.8645	4.5455	0.1	3668.8
5806	8.8645	4.7273	0.1	3673.4
5807	8.8645	4.9091	0.1	3678.4
5808	8.8645	5.0909	0.1	3683.8
5809	8.8645	5.2727	0.1	3689.5
5810	8.8645	5.4545	0.1	3695.5
5811	8.8645	5.6364	0.1	3701.8
5812	8.8645	5.8182	0.1	3709.5
5813	9.0492	0.18182	0.1	3656.1
5814	9.0492	0.36364	0.1	3648.7
5815	9.0492	0.54545	0.1	3642.8
5816	9.0492	0.72727	0.1	3637.3
5817	9.0492	0.90909	0.1	3632.
5818	9.0492	1.0909	0.1	3627.
5819	9.0492	1.2727	0.1	3622.3
5820	9.0492	1.4545	0.1	3618.
5821	9.0492	1.6364	0.1	3614.1
5822	9.0492	1.8182	0.1	3610.6
5823	9.0492	2.	0.1	3607.5
5824	9.0492	2.1818	0.1	3605.
5825	9.0492	2.3636	0.1	3602.9
5826	9.0492	2.5455	0.1	3601.3
5827	9.0492	2.7273	0.1	3600.3
5828	9.0492	2.9091	0.1	3599.7
5829	9.0492	3.0909	0.1	3599.7
5830	9.0492	3.2727	0.1	3600.3
5831	9.0492	3.4545	0.1	3601.3
5832	9.0492	3.6364	0.1	3602.9
5833	9.0492	3.8182	0.1	3605.
5834	9.0492	4.	0.1	3607.5
5835	9.0492	4.1818	0.1	3610.6
5836	9.0492	4.3636	0.1	3614.1
5837	9.0492	4.5455	0.1	3618.
5838	9.0492	4.7273	0.1	3622.3
5839	9.0492	4.9091	0.1	3627.
5840	9.0492	5.0909	0.1	3632.
5841	9.0492	5.2727	0.1	3637.3
5842	9.0492	5.4545	0.1	3642.8
5843	9.0492	5.6364	0.1	3648.7
5844	9.0492	5.8182	0.1	3656.1
5845	9.2339	0.18182	0.1	3602.9
5846	9.2339	0.36364	0.1	3595.8
5847	9.2339	0.54545	0.1	3590.4
5848	9.2339	0.72727	0.1	3585.2
5849	9.2339	0.90909	0.1	3580.2
5850	9.2339	1.0909	0.1	3575.6
5851	9.2339	1.2727	0.1	3571.2
5852	9.2339	1.4545	0.1	3567.2
5853	9.2339	1.6364	0.1	3563.6
5854	9.2339	1.8182	0.1	3560.3
5855	9.2339	2.	0.1	3557.5
5856	9.2339	2.1818	0.1	3555.1
5857	9.2339	2.3636	0.1	3553.2
5858	9.2339	2.5455	0.1	3551.7
5859	9.2339	2.7273	0.1	3550.7
5860	9.2339	2.9091	0.1	3550.3
5861	9.2339	3.0909	0.1	3550.3
5862	9.2339	3.2727	0.1	3550.7
5863	9.2339	3.4545	0.1	3551.7
5864	9.2339	3.6364	0.1	3553.2
5865	9.2339	3.8182	0.1	3555.1
5866	9.2339	4.	0.1	3557.5
5867	9.2339	4.1818	0.1	3560.3
5868	9.2339	4.3636	0.1	3563.6
5869	9.2339	4.5455	0.1	3567.2
5870	9.2339	4.7273	0.1	3571.2
5871	9.2339	4.9091	0.1	3575.6
5872	9.2339	5.0909	0.1	3580.2
5873	9.2339	5.2727	0.1	3585.2
5874	9.2339	5.4545	0.1	3590.4
5875	9.2339	5.6364	0.1	3595.8
5876	9.2339	5.8182	0.1	3602.9
5877	9.4185	0.18182	0.1	3550.
5878	9.4185	0.36364	0.1	3543.2
5879	9.4185	0.54545	0.1	3538.1
5880	9.4185	0.72727	0.1	3533.2
5881	9.4185	0.90909	0.1	3528.6
5882	9.4185	1.0909	0.1	3524.3
5883	9.4185	1.2727	0.1	3520.2
5884	9.4185	1.4545	0.1	3516.5
5885	9.4185	1.6364	0.1	3513.1
5886	9.4185	1.8182	0.1	3510.1
5887	9.4185	2.	0.1	3507.5
5888	9.4185	2.1818	0.1	3505.2
5889	9.4185	2.3636	0.1	3503.4
5890	9.4185	2.5455	0.1	3502.1
5891	9.4185	2.7273	0.1	3501.2
5892	9.4185	2.9091	0.1	3500.7
5893	9.4185	3.0909	0.1	3500.7
5894	9.4185	3.2727	0.1	3501.2
5895	9.4185	3.4545	0.1	3502.1
5896	9.4185	3.6364	0.1	3503.4
5897	9.4185	3.8182	0.1	3505.2
5898	9.4185	4.	0.1	3507.5
5899	9.4185	4.1818	0.1	3510.1
5900	9.4185	4.3636	0.1	3513.1
5901	9.4185	4.5455	0.1	3516.5
5902	9.4185	4.7273	0.1	3520.2
5903	9.4185	4.9091	0.1	3524.3
5904	9.4185	5.0909	0.1	3528.6
5905	9.4185	5.2727	0.1	3533.2
5906	9.4185	5.4545	0.1	3538.1
5907	9.4185	5.6364	0.1	3543.2
5908	9.4185	5.8182	0.1	3550.
5909	9.6032	0.18182	0.1	3497.3
5910	9.6032	0.36364	0.1	3490.8
5911	9.6032	0.54545	0.1	3486.
5912	9.6032	0.72727	0.1	3481.4
5913	9.6032	0.90909	0.1	3477.1
5914	9.6032	1.0909	0.1	3473.1
5915	9.6032	1.2727	0.1	3469.3
5916	9.6032	1.4545	0.1	3465.8
5917	9.6032	1.6364	0.1	3462.7
5918	9.6032	1.8182	0.1	3459.9
5919	9.6032	2.	0.1	3457.4
5920	9.6032	2.1818	0.1	3455.3
5921	9.6032	2.3636	0.1	3453.7
5922	9.6032	2.5455	0.1	3452.4
5923	9.6032	2.7273	0.1	3451.6
5924	9.6032	2.9091	0.1	3451.1
5925	9.6032	3.0909	0.1	3451.1
5926	9.6032	3.2727	0.1	3451.6
5927	9.6032	3.4545	0.1	3452.4
5928	9.6032	3.6364	0.1	3453.7
5929	9.6032	3.8182	0.1	3455.3
5930	9.6032	4.	0.1	3457.4
5931	9.6032	4.1818	0.1	3459.9
5932	9.6032	4.3636	0.1	3462.7
5933	9.6032	4.5455	0.1	3465.8
5934	9.6032	4.7273	0.1	3469.3
5935	9.6032	4.9091	0.1	3473.1
5936	9.6032	5.0909	0.1	3477.1
5937	9.6032	5.2727	0.1	3481.4
5938	9.6032	5.4545	0.1	3486.
5939	9.6032	5.6364	0.1	3490.8
5940	9.6032	5.8182	0.1	3497.3
5941	9.7879	0.18182	0.1	3444.8
5942	9.7879	0.36364	0.1	3438.6
5943	9.7879	0.54545	0.1	3434.1
5944	9.7879	0.72727	0.1	3429.8
5945	9.7879	0.90909	0.1	3425.8
5946	9.7879	1.0909	0.1	3422.
5947	9.7879	1.2727	0.1	3418.5
5948	9.7879	1.4545	0.1	3415.2
5949	9.7879	1.6364	0.1	3412.3
5950	9.7879	1.8182	0.1	3409.7
5951	9.7879	2.	0.1	3407.4
5952	9.7879	2.1818	0.1	3405.5
5953	9.7879	2.3636	0.1	3403.9
5954	9.7879	2.5455	0.1	3402.7
5955	9.7879	2.7273	0.1	3402.
5956	9.7879	2.9091	0.1	3401.6
5957	9.7879	3.0909	0.1	3401.6
5958	9.7879	3.2727	0.1	3402.
5959	9.7879	3.4545	0.1	3402.7
5960	9.7879	3.6364	0.1	3403.9
5961	9.7879	3.8182	0.1	3405.5
5962	9.7879	4.	0.1	3407.4
5963	9.7879	4.1818	0.1	3409.7
5964	9.7879	4.3636	0.1	3412.3
5965	9.7879	4.5455	0.1	3415.2
5966	9.7879	4.7273	0.1	3418.5
5967	9.7879	4.9091	0.1	3422.
5968	9.7879	5.0909	0.1	3425.8
5969	9.7879	5.2727	0.1	3429.8
5970	9.7879	5.4545	0.1	3434.1
5971	9.7879	5.6364	0.1	3438.6
5972	9.7879	5.8182	0.1	3444.8
5973	9.9726	0.18182	0.1	3392.6
5974	9.9726	0.36364	0.1	3386.6
5975	9.9726	0.54545	0.1	3382.3
5976	9.9726	0.72727	0.1	3378.4
5977	9.9726	0.90909	0.1	3374.6
5978	9.9726	1.0909	0.1	3371.1
5979	9.9726	1.2727	0.1	3367.8
5980	9.9726	1.4545	0.1	3364.7
5981	9.9726	1.6364	0.1	3362.
5982	9.9726	1.8182	0.1	3359.5
5983	9.9726	2.	0.1	3357.4
5984	9.9726	2.1818	0.1	3355.6
5985	9.9726	2.3636	0.1	3354.2
5986	9.9726	2.5455	0.1	3353.1
5987	9.9726	2.7273	0.1	3352.3
5988	9.9726	2.9091	0.1	3352.
5989	9.9726	3.0909	0.1	3352.
5990	9.9726	3.2727	0.1	3352.3
5991	9.9726	3.4545	0.1	3353.1
5992	9.9726	3.6364	0.1	3354.2
5993	9.9726	3.8182	0.1	3355.6
5994	9.9726	4.	0.1	3357.4
5995	9.9726	4.1818	0.1	3359.5
5996	9.9726	4.3636	0.1	3362.
5997	9.9726	4.5455	0.1	3364.7
5998	9.9726	4.7273	0.1	3367.8
5999	9.9726	4.9091	0.1	3371.1
6000	9.9726	5.0909	0.1	3374.6
6001	9.9726	5.2727	0.1	3378.4
6002	9.9726	5.4545	0.1	3382.3
6003	9.9726	5.6364	0.1	3386.6
6004	9.9726	5.8182	0.1	3392.6
6005	10.157	0.18182	0.1	3340.6
6006	10.157	0.36364	0.1	3334.8
6007	10.157	0.54545	0.1	3330.8
6008	10.157	0.72727	0.1	3327.1
6009	10.157	0.90909	0.1	3323.6
6010	10.157	1.0909	0.1	3320.2
6011	10.157	1.2727	0.1	3317.2
6012	10.157	1.4545	0.1	3314.3
6013	10.157	1.6364	0.1	3311.8
6014	10.157	1.8182	0.1	3309.5
6015	10.157	2.	0.1	3307.5
6016	10.157	2.1818	0.1	3305.8
6017	10.157	2.3636	0.1	3304.5
6018	10.157	2.5455	0.1	3303.4
6019	10.157	2.7273	0.1	3302.8
6020	10.157	2.9091	0.1	3302.4
6021	10.157	3.0909	0.1	3302.4
6022	10.157	3.2727	0.1	3302.8
6023	10.157	3.4545	0.1	3303.4
6024	10.157	3.6364	0.1	3304.5
6025	10.157	3.8182	0.1	3305.8
6026	10.157	4.	0.1	3307.5
6027	10.157	4.1818	0.1	3309.5
6028	10.157	4.3636	0.1	3311.8
6029	10.157	4.5455	0.1	3314.3
6030	10.157	4.7273	0.1	3317.2
6031	10.157	4.9091	0.1	3320.2
6032	10.157	5.0909	0.1	3323.6
6033	10.157	5.2727	0.1	3327.1
6034	10.157	5.4545	0.1	3330.8
6035	10.157	5.6364	0.1	3334.8
6036	10.157	5.8182	0.1	3340.6
6037	10.342	0.18182	0.1	3288.8
6038	10.342	0.36364	0.1	3283.2
6039	10.342	0.54545	0.1	3279.4
6040	10.342	0.72727	0.1	3276.
6041	10.342	0.90909	0.1	3272.6
6042	10.342	1.0909	0.1	3269.5
6043	10.342	1.2727	0.1	3266.7
6044	10.342	1.4545	0.1	3264.
6045	10.342	1.6364	0.1	3261.6
6046	10.342	1.8182	0.1	3259.5
6047	10.342	2.	0.1	3257.6
6048	10.342	2.1818	0.1	3256.1
6049	10.342	2.3636	0.1	3254.8
6050	10.342	2.5455	0.1	3253.8
6051	10.342	2.7273	0.1	3253.2
6052	10.342	2.9091	0.1	3252.9
6053	10.342	3.0909	0.1	3252.9
6054	10.342	3.2727	0.1	3253.2
6055	10.342	3.4545	0.1	3253.8
6056	10.342	3.6364	0.1	3254.8
6057	10.342	3.8182	0.1	3256.1
6058	10.342	4.	0.1	3257.6
6059	10.342	4.1818	0.1	3259.5
6060	10.342	4.3636	0.1	3261.6
6061	10.342	4.5455	0.1	3264.
6062	10.342	4.7273	0.1	3266.7
6063	10.342	4.9091	0.1	3269.5
6064	10.342	5.0909	0.1	3272.6
6065	10.342	5.2727	0.1	3276.
6066	10.342	5.4545	0.1	3279.4
6067	10.342	5.6364	0.1	3283.2
6068	10.342	5.8182	0.1	3288.8
6069	10.527	0.18182	0.1	3237.3
6070	10.527	0.36364	0.1	3231.8
6071	10.527	0.54545	0.1	3228.3
6072	10.527	0.72727	0.1	3225.
6073	10.527	0.90909	0.1	3221.9
6074	10.527	1.0909	0.1	3219.
6075	10.527	1.2727	0.1	3216.3
6076	10.527	1.4545	0.1	3213.8
6077	10.527	1.6364	0.1	3211.5
6078	10.527	1.8182	0.1	3209.5
6079	10.527	2.	0.1	3207.8
6080	10.527	2.1818	0.1	3206.4
6081	10.527	2.3636	0.1	3205.2
6082	10.527	2.5455	0.1	3204.3
6083	10.527	2.7273	0.1	3203.7
6084	10.527	2.9091	0.1	3203.4
6085	10.527	3.0909	0.1	3203.4
6086	10.527	3.2727	0.1	3203.7
6087	10.527	3.4545	0.1	3204.3
6088	10.527	3.6364	0.1	3205.2
6089	10.527	3.8182	0.1	3206.4
6090	10.527	4.	0.1	3207.8
6091	10.527	4.1818	0.1	3209.5
6092	10.527	4.3636	0.1	3211.5
6093	10.527	4.5455	0.1	3213.8
6094	10.527	4.7273	0.1	3216.3
6095	10.527	4.9091	0.1	3219.
6096	10.527	5.0909	0.1	3221.9
6097	10.527	5.2727	0.1	3225.
6098	10.527	5.4545	0.1	3228.3
6099	10.527	5.6364	0.1	3231.8
6100	10.527	5.8182	0.1	3237.3
6101	10.711	0.18182	0.1	3185.9
6102	10.711	0.36364	0.1	3180.7
6103	10.711	0.54545	0.1	3177.3
6104	10.711	0.72727	0.1	3174.2
6105	10.711	0.90909	0.1	3171.3
6106	10.711	1.0909	0.1	3168.6
6107	10.711	1.2727	0.1	3166.
6108	10.711	1.4545	0.1	3163.7
6109	10.711	1.6364	0.1	3161.6
6110	10.711	1.8182	0.1	3159.7
6111	10.711	2.	0.1	3158.1
6112	10.711	2.1818	0.1	3156.7
6113	10.711	2.3636	0.1	3155.6
6114	10.711	2.5455	0.1	3154.8
6115	10.711	2.7273	0.1	3154.2
6116	10.711	2.9091	0.1	3154.
6117	10.711	3.0909	0.1	3154.
6118	10.711	3.2727	0.1	3154.2
6119	10.711	3.4545	0.1	3154.8
6120	10.711	3.6364	0.1	3155.6
6121	10.711	3.8182	0.1	3156.7
6122	10.711	4.	0.1	3158.1
6123	10.711	4.1818	0.1	3159.7
6124	10.711	4.3636	0.1	3161.6
6125	10.711	4.5455	0.1	3163.7
6126	10.711	4.7273	0.1	3166.
6127	10.711	4.9091	0.1	3168.6
6128	10.711	5.0909	0.1	3171.3
6129	10.711	5.2727	0.1	3174.2
6130	10.711	5.4545	0.1	3177.3
6131	10.711	5.6364	0.1	3180.7
6132	10.711	5.8182	0.1	3185.9
6133	10.896	0.18182	0.1	3134.8
6134	10.896	0.36364	0.1	3129.7
6135	10.896	0.54545	0.1	3126.5
6136	10.896	0.72727	0.1	3123.6
6137	10.896	0.90909	0.1	3120.9
6138	10.896	1.0909	0.1	3118.3
6139	10.896	1.2727	0.1	3115.9
6140	10.896	1.4545	0.1	3113.7
6141	10.896	1.6364	0.1	3111.7
6142	10.896	1.8182	0.1	3110.
6143	10.896	2.	0.1	3108.5
6144	10.896	2.1818	0.1	3107.2
6145	10.896	2.3636	0.1	3106.2
6146	10.896	2.5455	0.1	3105.4
6147	10.896	2.7273	0.1	3104.9
6148	10.896	2.9091	0.1	3104.6
6149	10.896	3.0909	0.1	3104.6
6150	10.896	3.2727	0.1	3104.9
6151	10.896	3.4545	0.1	3105.4
6152	10.896	3.6364	0.1	3106.2
6153	10.896	3.8182	0.1	3107.2
6154	10.896	4.	0.1	3108.5
6155	10.896	4.1818	0.1	3110.
6156	10.896	4.3636	0.1	3111.7
6157	10.896	4.5455	0.1	3113.7
6158	10.896	4.7273	0.1	3115.9
6159	10.896	4.9091	0.1	3118.3
6160	10.896	5.0909	0.1	3120.9
6161	10.896	5.2727	0.1	3123.6
6162	10.896	5.4545	0.1	3126.5
6163	10.896	5.6364	0.1	3129.7
6164	10.896	5.8182	0.1	3134.8
6165	11.081	0.18182	0.1	3083.9
6166	11.081	0.36364	0.1	3078.9
6167	11.081	0.54545	0.1	3075.9
6168	11.081	0.72727	0.1	3073.2
6169	11.081	0.90909	0.1	3070.6
6170	11.081	1.0909	0.1	3068.2
6171	11.081	1.2727	0.1	3065.9
6172	11.081	1.4545	0.1	3063.9
6173	11.081	1.6364	0.1	3062.
6174	11.081	1.8182	0.1	3060.4
6175	11.081	2.	0.1	3058.9
6176	11.081	2.1818	0.1	3057.7
6177	11.081	2.3636	0.1	3056.8
6178	11.081	2.5455	0.1	3056.
6179	11.081	2.7273	0.1	3055.6
6180	11.081	2.9091	0.1	3055.3
6181	11.081	3.0909	0.1	3055.3
6182	11.081	3.2727	0.1	3055.6
6183	11.081	3.4545	0.1	3056.
6184	11.081	3.6364	0.1	3056.8
6185	11.081	3.8182	0.1	3057.7
6186	11.081	4.	0.1	3058.9
6187	11.081	4.1818	0.1	3060.4
6188	11.081	4.3636	0.1	3062.
6189	11.081	4.5455	0.1	3063.9
6190	11.081	4.7273	0.1	3065.9
6191	11.081	4.9091	0.1	3068.2
6192	11.081	5.0909	0.1	3070.6
6193	11.081	5.2727	0.1	3073.2
6194	11.081	5.4545	0.1	3075.9
6195	11.081	5.6364	0.1	3078.9
6196	11.081	5.8182	0.1	3083.9
6197	11.265	0.18182	0.1	3033.3
6198	11.265	0.36364	0.1	3028.4
6199	11.265	0.54545	0.1	3025.5
6200	11.265	0.72727	0.1	3022.9
6201	11.265	0.90909	0.1	3020.5
6202	11.265	1.0909	0.1	3018.2
6203	11.265	1.2727	0.1	3016.1
6204	11.265	1.4545	0.1	3014.2
6205	11.265	1.6364	0.1	3012.4
6206	11.265	1.8182	0.1	3010.9
6207	11.265	2.	0.1	3009.5
6208	11.265	2.1818	0.1	3008.4
6209	11.265	2.3636	0.1	3007.5
6210	11.265	2.5455	0.1	3006.8
6211	11.265	2.7273	0.1	3006.3
6212	11.265	2.9091	0.1	3006.1
6213	11.265	3.0909	0.1	3006.1
6214	11.265	3.2727	0.1	3006.3
6215	11.265	3.4545	0.1	3006.8
6216	11.265	3.6364	0.1	3007.5
6217	11.265	3.8182	0.1	3008.4
6218	11.265	4.	0.1	3009.5
6219	11.265	4.1818	0.1	3010.9
6220	11.265	4.3636	0.1	3012.4
6221	11.265	4.5455	0.1	3014.2
6222	11.265	4.7273	0.1	3016.1
6223	11.265	4.9091	0.1	3018.2
6224	11.265	5.0909	0.1	3020.5
6225	11.265	5.2727	0.1	3022.9
6226	11.265	5.4545	0.1	3025.5
6227	11.265	5.6364	0.1	3028.4
6228	11.265	5.8182	0.1	3033.3
6229	11.45	0.18182	0.1	2982.8
6230	11.45	0.36364	0.1	2978.
6231	11.45	0.54545	0.1	2975.3
6232	11.45	0.72727	0.1	2972.9
6233	11.45	0.90909	0.1	2970.6
6234	11.45	1.0909	0.1	2968.4
6235	11.45	1.2727	0.1	2966.4
6236	11.45	1.4545	0.1	2964.6
6237	11.45	1.6364	0.1	2962.9
6238	11.45	1.8182	0.1	2961.5
6239	11.45	2.	0.1	2960.2
6240	11.45	2.1818	0.1	2959.2
6241	11.45	2.3636	0.1	2958.3
6242	11.45	2.5455	0.1	2957.7
6243	11.45	2.7273	0.1	2957.2
6244	11.45	2.9091	0.1	2957.
6245	11.45	3.0909	0.1	2957.
6246	11.45	3.2727	0.1	2957.2
6247	11.45	3.4545	0.1	2957.7
6248	11.45	3.6364	0.1	2958.3
6249	11.45	3.8182	0.1	2959.2
6250	11.45	4.	0.1	2960.2
6251	11.45	4.1818	0.1	2961.5
6252	11.45	4.3636	0.1	2962.9
6253	11.45	4.5455	0.1	2964.6
6254	11.45	4.7273	0.1	2966.4
6255	11.45	4.9091	0.1	2968.4
6256	11.45	5.0909	0.1	2970.6
6257	11.45	5.2727	0.1	2972.9
6258	11.45	5.4545	0.1	2975.3
6259	11.45	5.6364	0.1	2978.
6260	11.45	5.8182	0.1	2982.8
6261	11.635	0.18182	0.1	2932.6
6262	11.635	0.36364	0.1	2927.9
6263	11.635	0.54545	0.1	2925.3
6264	11.635	0.72727	0.1	2923.
6265	11.635	0.90909	0.1	2920.8
6266	11.635	1.0909	0.1	2918.8
6267	11.635	1.2727	0.1	2916.9
6268	11.635	1.4545	0.1	2915.2
6269	11.635	1.6364	0.1	2913.6
6270	11.635	1.8182	0.1	2912.2
6271	11.635	2.	0.1	2911.
6272	11.635	2.1818	0.1	2910.1
6273	11.635	2.3636	0.1	2909.2
6274	11.635	2.5455	0.1	2908.6
6275	11.635	2.7273	0.1	2908.2
6276	11.635	2.9091	0.1	2908.
6277	11.635	3.0909	0.1	2908.
6278	11.635	3.2727	0.1	2908.2
6279	11.635	3.4545	0.1	2908.6
6280	11.635	3.6364	0.1	2909.2
6281	11.635	3.8182	0.1	2910.1
6282	11.635	4.	0.1	2911.
6283	11.635	4.1818	0.1	2912.2
6284	11.635	4.3636	0.1	2913.6
6285	11.635	4.5455	0.1	2915.2
6286	11.635	4.7273	0.1	2916.9
6287	11.635	4.9091	0.1	2918.8
6288	11.635	5.0909	0.1	2920.8
6289	11.635	5.2727	0.1	2923.
6290	11.635	5.4545	0.1	2925.3
6291	11.635	5.6364	0.1	2927.9
6292	11.635	5.8182	0.1	2932.6
6293	11.819	0.18182	0.1	2882.6
6294	11.819	0.36364	0.1	2877.9
6295	11.819	0.54545	0.1	2875.5
6296	11.819	0.72727	0.1	2873.3
6297	11.819	0.90909	0.1	2871.2
6298	11.819	1.0909	0.1	2869.3
6299	11.819	1.2727	0.1	2867.5
6300	11.819	1.4545	0.1	2865.9
6301	11.819	1.6364	0.1	2864.4
6302	11.819	1.8182	0.1	2863.1
6303	11.819	2.	0.1	2862.
6304	11.819	2.1818	0.1	2861.1
6305	11.819	2.3636	0.1	2860.3
6306	11.819	2.5455	0.1	2859.7
6307	11.819	2.7273	0.1	2859.4
6308	11.819	2.9091	0.1	2859.2
6309	11.819	3.0909	0.1	2859.2
6310	11.819	3.2727	0.1	2859.4
6311	11.819	3.4545	0.1	2859.7
6312	11.819	3.6364	0.1	2860.3
6313	11.819	3.8182	0.1	2861.1
6314	11.819	4.	0.1	2862.
6315	11.819	4.1818	0.1	2863.1
6316	11.819	4.3636	0.1	2864.4
6317	11.819	4.5455	0.1	2865.9
6318	11.819	4.7273	0.1	2867.5
6319	11.819	4.9091	0.1	2869.3
6320	11.819	5.0909	0.1	2871.2
6321	11.819	5.2727	0.1	2873.3
6322	11.819	5.4545	0.1	2875.5
6323	11.819	5.6364	0.1	2877.9
6324	11.819	5.8182	0.1	2882.6
6325	12.004	0.18182	0.1	2832.7
6326	12.004	0.36364	0.1	2828.2
6327	12.004	0.54545	0.1	2825.8
6328	12.004	0.72727	0.1	2823.7
6329	12.004	0.90909	0.1	2821.8
6330	12.004	1.0909	0.1	2820.
6331	12.004	1.2727	0.1	2818.3
6332	12.004	1.4545	0.1	2816.7
6333	12.004	1.6364	0.1	2815.4
6334	12.004	1.8182	0.1	2814.1
6335	12.004	2.	0.1	2813.1
6336	12.004	2.1818	0.1	2812.2
6337	12.004	2.3636	0.1	2811.5
6338	12.004	2.5455	0.1	2811.
6339	12.004	2.7273	0.1	2810.6
6340	12.004	2.9091	0.1	2810.4
6341	12.004	3.0909	0.1	2810.4
6342	12.004	3.2727	0.1	2810.6
6343	12.004	3.4545	0.1	2811.
6344	12.004	3.6364	0.1	2811.5
6345	12.004	3.8182	0.1	2812.2
6346	12.004	4.	0.1	2813.1
6347	12.004	4.1818	0.1	2814.1
6348	12.004	4.3636	0.1	2815.4
6349	12.004	4.5455	0.1	2816.7
6350	12.004	4.7273	0.1	2818.3
6351	12.004	4.9091	0.1	2820.
6352	12.004	5.0909	0.1	2821.8
6353	12.004	5.2727	0.1	2823.7
6354	12.004	5.4545	0.1	2825.8
6355	12.004	5.6364	0.1	2828.2
6356	12.004	5.8182	0.1	2832.7
6357	12.189	0.18182	0.1	2783.1
6358	12.189	0.36364	0.1	2778.7
6359	12.189	0.54545	0.1	2776.4
6360	12.189	0.72727	0.1	2774.4
6361	12.189	0.90909	0.1	2772.5
6362	12.189	1.0909	0.1	2770.8
6363	12.189	1.2727	0.1	2769.2
6364	12.189	1.4545	0.1	2767.8
6365	12.189	1.6364	0.1	2766.5
6366	12.189	1.8182	0.1	2765.3
6367	12.189	2.	0.1	2764.3
6368	12.189	2.1818	0.1	2763.5
6369	12.189	2.3636	0.1	2762.8
6370	12.189	2.5455	0.1	2762.3
6371	12.189	2.7273	0.1	2762.
6372	12.189	2.9091	0.1	2761.8
6373	12.189	3.0909	0.1	2761.8
6374	12.189	3.2727	0.1	2762.
6375	12.189	3.4545	0.1	2762.3
6376	12.189	3.6364	0.1	2762.8
6377	12.189	3.8182	0.1	2763.5
6378	12.189	4.	0.1	2764.3
6379	12.189	4.1818	0.1	2765.3
6380	12.189	4.3636	0.1	2766.5
6381	12.189	4.5455	0.1	2767.8
6382	12.189	4.7273	0.1	2769.2
6383	12.189	4.9091	0.1	2770.8
6384	12.189	5.0909	0.1	2772.5
6385	12.189	5.2727	0.1	2774.4
6386	12.189	5.4545	0.1	2776.4
6387	12.189	5.6364	0.1	2778.7
6388	12.189	5.8182	0.1	2783.1
6389	12.373	0.18182	0.1	2733.7
6390	12.373	0.36364	0.1	2729.3
6391	12.373	0.54545	0.1	2727.2
6392	12.373	0.72727	0.1	2725.3
6393	12.373	0.90909	0.1	2723.5
6394	12.373	1.0909	0.1	2721.8
6395	12.373	1.2727	0.1	2720.3
6396	12.373	1.4545	0.1	2719.
6397	12.373	1.6364	0.1	2717.7
6398	12.373	1.8182	0.1	2716.6
6399	12.373	2.	0.1	2715.7
6400	12.373	2.1818	0.1	2714.9
6401	12.373	2.3636	0.1	2714.3
6402	12.373	2.5455	0.1	2713.8
6403	12.373	2.7273	0.1	2713.5
6404	12.373	2.9091	0.1	2713.3
6405	12.373	3.0909	0.1	2713.3
6406	12.373	3.2727	0.1	2713.5
6407	12.373	3.4545	0.1	2713.8
6408	12.373	3.6364	0.1	2714.3
6409	12.373	3.8182	0.1	2714.9
6410	12.373	4.	0.1	2715.7
6411	12.373	4.1818	0.1	2716.6
6412	12.373	4.3636	0.1	2717.7
6413	12.373	4.5455	0.1	2719.
6414	12.373	4.7273	0.1	2720.3
6415	12.373	4.9091	0.1	2721.8
6416	12.373	5.0909	0.1	2723.5
6417	12.373	5.2727	0.1	2725.3
6418	12.373	5.4545	0.1	2727.2
6419	12.373	5.6364	0.1	2729.3
6420	12.373	5.8182	0.1	2733.7
6421	12.558	0.18182	0.1	2684.5
6422	12.558	0.36364	0.1	2680.2
6423	12.558	0.54545	0.1	2678.1
6424	12.558	0.72727	0.1	2676.3
6425	12.558	0.90909	0.1	2674.6
6426	12.558	1.0909	0.1	2673.
6427	12.558	1.2727	0.1	2671.6
6428	12.558	1.4545	0.1	2670.3
6429	12.558	1.6364	0.1	2669.1
6430	12.558	1.8182	0.1	2668.1
6431	12.558	2.	0.1	2667.2
6432	12.558	2.1818	0.1	2666.5
6433	12.558	2.3636	0.1	2665.9
6434	12.558	2.5455	0.1	2665.5
6435	12.558	2.7273	0.1	2665.2
6436	12.558	2.9091	0.1	2665.
6437	12.558	3.0909	0.1	2665.
6438	12.558	3.2727	0.1	2665.2
6439	12.558	3.4545	0.1	2665.5
6440	12.558	3.6364	0.1	2665.9
6441	12.558	3.8182	0.1	2666.5
6442	12.558	4.	0.1	2667.2
6443	12.558	4.1818	0.1	2668.1
6444	12.558	4.3636	0.1	2669.1
6445	12.558	4.5455	0.1	2670.3
6446	12.558	4.7273	0.1	2671.6
6447	12.558	4.9091	0.1	2673.
6448	12.558	5.0909	0.1	2674.6
6449	12.558	5.2727	0.1	2676.3
6450	12.558	5.4545	0.1	2678.1
6451	12.558	5.6364	0.1	2680.2
6452	12.558	5.8182	0.1	2684.5
6453	12.743	0.18182	0.1	2635.5
6454	12.743	0.36364	0.1	2631.2
6455	12.743	0.54545	0.1	2629.3
6456	12.743	0.72727	0.1	2627.5
6457	12.743	0.90909	0.1	2625.9
6458	12.743	1.0909	0.1	2624.4
6459	12.743	1.2727	0.1	2623.1
6460	12.743	1.4545	0.1	2621.8
6461	12.743	1.6364	0.1	2620.7
6462	12.743	1.8182	0.1	2619.8
6463	12.743	2.	0.1	2618.9
6464	12.743	2.1818	0.1	2618.2
6465	12.743	2.3636	0.1	2617.7
6466	12.743	2.5455	0.1	2617.2
6467	12.743	2.7273	0.1	2617.
6468	12.743	2.9091	0.1	2616.8
6469	12.743	3.0909	0.1	2616.8
6470	12.743	3.2727	0.1	2617.
6471	12.743	3.4545	0.1	2617.2
6472	12.743	3.6364	0.1	2617.7
6473	12.743	3.8182	0.1	2618.2
6474	12.743	4.	0.1	2618.9
6475	12.743	4.1818	0.1	2619.8
6476	12.743	4.3636	0.1	2620.7
6477	12.743	4.5455	0.1	2621.8
6478	12.743	4.7273	0.1	2623.1
6479	12.743	4.9091	0.1	2624.4
6480	12.743	5.0909	0.1	2625.9
6481	12.743	5.2727	0.1	2627.5
6482	12.743	5.4545	0.1	2629.3
6483	12.743	5.6364	0.1	2631.2
6484	12.743	5.8182	0.1	2635.5
6485	12.927	0.18182	0.1	2586.8
6486	12.927	0.36364	0.1	2582.5
6487	12.927	0.54545	0.1	2580.6
6488	12.927	0.72727	0.1	2578.9
6489	12.927	0.90909	0.1	2577.4
6490	12.927	1.0909	0.1	2576.
6491	12.927	1.2727	0.1	2574.7
6492	12.927	1.4545	0.1	2573.5
6493	12.927	1.6364	0.1	2572.5
6494	12.927	1.8182	0.1	2571.6
6495	12.927	2.	0.1	2570.8
6496	12.927	2.1818	0.1	2570.1
6497	12.927	2.3636	0.1	2569.6
6498	12.927	2.5455	0.1	2569.2
6499	12.927	2.7273	0.1	2568.9
6500	12.927	2.9091	0.1	2568.8
6501	12.927	3.0909	0.1	2568.8
6502	12.927	3.2727	0.1	2568.9
6503	12.927	3.4545	0.1	2569.2
6504	12.927	3.6364	0.1	2569.6
6505	12.927	3.8182	0.1	2570.1
6506	12.927	4.	0.1	2570.8
6507	12.927	4.1818	0.1	2571.6
6508	12.927	4.3636	0.1	2572.5
6509	12.927	4.5455	0.1	2573.5
6510	12.927	4.7273	0.1	2574.7
6511	12.927	4.9091	0.1	2576.
6512	12.927	5.0909	0.1	2577.4
6513	12.927	5.2727	0.1	2578.9
6514	12.927	5.4545	0.1	2580.6
6515	12.927	5.6364	0.1	2582.5
6516	12.927	5.8182	0.1	2586.8
6517	13.112	0.18182	0.1	2538.2
6518	13.112	0.36364	0.1	2534.
6519	13.112	0.54545	0.1	2532.1
6520	13.112	0.72727	0.1	2530.5
6521	13.112	0.90909	0.1	2529.1
6522	13.112	1.0909	0.1	2527.7
6523	13.112	1.2727	0.1	2526.5
6524	13.112	1.4545	0.1	2525.4
6525	13.112	1.6364	0.1	2524.4
6526	13.112	1.8182	0.1	2523.6
6527	13.112	2.	0.1	2522.8
6528	13.112	2.1818	0.1	2522.2
6529	13.112	2.3636	0.1	2521.7
6530	13.112	2.5455	0.1	2521.3
6531	13.112	2.7273	0.1	2521.1
6532	13.112	2.9091	0.1	2520.9
6533	13.112	3.0909	0.1	2520.9
6534	13.112	3.2727	0.1	2521.1
6535	13.112	3.4545	0.1	2521.3
6536	13.112	3.6364	0.1	2521.7
6537	13.112	3.8182	0.1	2522.2
6538	13.112	4.	0.1	2522.8
6539	13.112	4.1818	0.1	2523.6
6540	13.112	4.3636	0.1	2524.4
6541	13.112	4.5455	0.1	2525.4
6542	13.112	4.7273	0.1	2526.5
6543	13.112	4.9091	0.1	2527.7
6544	13.112	5.0909	0.1	2529.1
6545	13.112	5.2727	0.1	2530.5
6546	13.112	5.4545	0.1	2532.1
6547	13.112	5.6364	0.1	2534.
6548	13.112	5.8182	0.1	2538.2
6549	13.297	0.18182	0.1	2489.8
6550	13.297	0.36364	0.1	2485.6
6551	13.297	0.54545	0.1	2483.9
6552	13.297	0.72727	0.1	2482.3
6553	13.297	0.90909	0.1	2480.9
6554	13.297	1.0909	0.1	2479.7
6555	13.297	1.2727	0.1	2478.5
6556	13.297	1.4545	0.1	2477.5
6557	13.297	1.6364	0.1	2476.5
6558	13.297	1.8182	0.1	2475.7
6559	13.297	2.	0.1	2475.
6560	13.297	2.1818	0.1	2474.4
6561	13.297	2.3636	0.1	2473.9
6562	13.297	2.5455	0.1	2473.6
6563	13.297	2.7273	0.1	2473.4
6564	13.297	2.9091	0.1	2473.2
6565	13.297	3.0909	0.1	2473.2
6566	13.297	3.2727	0.1	2473.4
6567	13.297	3.4545	0.1	2473.6
6568	13.297	3.6364	0.1	2473.9
6569	13.297	3.8182	0.1	2474.4
6570	13.297	4.	0.1	2475.
6571	13.297	4.1818	0.1	2475.7
6572	13.297	4.3636	0.1	2476.5
6573	13.297	4.5455	0.1	2477.5
6574	13.297	4.7273	0.1	2478.5
6575	13.297	4.9091	0.1	2479.7
6576	13.297	5.0909	0.1	2480.9
6577	13.297	5.2727	0.1	2482.3
6578	13.297	5.4545	0.1	2483.9
6579	13.297	5.6364	0.1	2485.6
6580	13.297	5.8182	0.1	2489.8
6581	13.481	0.18182	0.1	2441.6
6582	13.481	0.36364	0.1	2437.5
6583	13.481	0.54545	0.1	2435.8
6584	13.481	0.72727	0.1	2434.3
6585	13.481	0.90909	0.1	2433.
6586	13.481	1.0909	0.1	2431.8
6587	13.481	1.2727	0.1	2430.7
6588	13.481	1.4545	0.1	2429.7
6589	13.481	1.6364	0.1	2428.8
6590	13.481	1.8182	0.1	2428.
6591	13.481	2.	0.1	2427.4
6592	13.481	2.1818	0.1	2426.8
6593	13.481	2.3636	0.1	2426.4
6594	13.481	2.5455	0.1	2426.1
6595	13.481	2.7273	0.1	2425.8
6596	13.481	2.9091	0.1	2425.7
6597	13.481	3.0909	0.1	2425.7
6598	13.481	3.2727	0.1	2425.8
6599	13.481	3.4545	0.1	2426.1
6600	13.481	3.6364	0.1	2426.4
6601	13.481	3.8182	0.1	2426.8
6602	13.481	4.	0.1	2427.4
6603	13.481	4.1818	0.1	2428.
6604	13.481	4.3636	0.1	2428.8
6605	13.481	4.5455	0.1	2429.7
6606	13.481	4.7273	0.1	2430.7
6607	13.481	4.9091	0.1	2431.8
6608	13.481	5.0909	0.1	2433.
6609	13.481	5.2727	0.1	2434.3
6610	13.481	5.4545	0.1	2435.8
6611	13.481	5.6364	0.1	2437.5
6612	13.481	5.8182	0.1	2441.6
6613	13.666	0.18182	0.1	2393.7
6614	13.666	0.36364	0.1	2389.5
6615	13.666	0.54545	0.1	2387.9
6616	13.666	0.72727	0.1	2386.5
6617	13.666	0.90909	0.1	2385.2
6618	13.666	1.0909	0.1	2384.1
6619	13.666	1.2727	0.1	2383.
6620	13.666	1.4545	0.1	2382.1
6621	13.666	1.6364	0.1	2381.3
6622	13.666	1.8182	0.1	2380.5
6623	13.666	2.	0.1	2379.9
6624	13.666	2.1818	0.1	2379.4
6625	13.666	2.3636	0.1	2379.
6626	13.666	2.5455	0.1	2378.7
6627	13.666	2.7273	0.1	2378.5
6628	13.666	2.9091	0.1	2378.4
6629	13.666	3.0909	0.1	2378.4
6630	13.666	3.2727	0.1	2378.5
6631	13.666	3.4545	0.1	2378.7
6632	13.666	3.6364	0.1	2379.
6633	13.666	3.8182	0.1	2379.4
6634	13.666	4.	0.1	2379.9
6635	13.666	4.1818	0.1	2380.5
6636	13.666	4.3636	0.1	2381.3
6637	13.666	4.5455	0.1	2382.1
6638	13.666	4.7273	0.1	2383.
6639	13.666	4.9091	0.1	2384.1
6640	13.666	5.0909	0.1	2385.2
6641	13.666	5.2727	0.1	2386.5
6642	13.666	5.4545	0.1	2387.9
6643	13.666	5.6364	0.1	2389.5
6644	13.666	5.8182	0.1	2393.7
6645	13.851	0.18182	0.1	2345.9
6646	13.851	0.36364	0.1	2341.8
6647	13.851	0.54545	0.1	2340.2
6648	13.851	0.72727	0.1	2338.9
6649	13.851	0.90909	0.1	2337.7
6650	13.851	1.0909	0.1	2336.6
6651	13.851	1.2727	0.1	2335.6
6652	13.851	1.4545	0.1	2334.7
6653	13.851	1.6364	0.1	2333.9
6654	13.851	1.8182	0.1	2333.2
6655	13.851	2.	0.1	2332.7
6656	13.851	2.1818	0.1	2332.2
6657	13.851	2.3636	0.1	2331.8
6658	13.851	2.5455	0.1	2331.5
6659	13.851	2.7273	0.1	2331.3
6660	13.851	2.9091	0.1	2331.2
6661	13.851	3.0909	0.1	2331.2
6662	13.851	3.2727	0.1	2331.3
6663	13.851	3.4545	0.1	2331.5
6664	13.851	3.6364	0.1	2331.8
6665	13.851	3.8182	0.1	2332.2
6666	13.851	4.	0.1	2332.7
6667	13.851	4.1818	0.1	2333.2
6668	13.851	4.3636	0.1	2333.9
6669	13.851	4.5455	0.1	2334.7
6670	13.851	4.7273	0.1	2335.6
6671	13.851	4.9091	0.1	2336.6
6672	13.851	5.0909	0.1	2337.7
6673	13.851	5.2727	0.1	2338.9
6674	13.851	5.4545	0.1	2340.2
6675	13.851	5.6364	0.1	2341.8
6676	13.851	5.8182	0.1	2345.9
6677	14.035	0.18182	0.1	2298.3
6678	14.035	0.36364	0.1	2294.2
6679	14.035	0.54545	0.1	2292.7
6680	14.035	0.72727	0.1	2291.5
6681	14.035	0.90909	0.1	2290.3
6682	14.035	1.0909	0.1	2289.3
6683	14.035	1.2727	0.1	2288.3
6684	14.035	1.4545	0.1	2287.5
6685	14.035	1.6364	0.1	2286.8
6686	14.035	1.8182	0.1	2286.1
6687	14.035	2.	0.1	2285.6
6688	14.035	2.1818	0.1	2285.1
6689	14.035	2.3636	0.1	2284.8
6690	14.035	2.5455	0.1	2284.5
6691	14.035	2.7273	0.1	2284.3
6692	14.035	2.9091	0.1	2284.2
6693	14.035	3.0909	0.1	2284.2
6694	14.035	3.2727	0.1	2284.3
6695	14.035	3.4545	0.1	2284.5
6696	14.035	3.6364	0.1	2284.8
6697	14.035	3.8182	0.1	2285.1
6698	14.035	4.	0.1	2285.6
6699	14.035	4.1818	0.1	2286.1
6700	14.035	4.3636	0.1	2286.8
6701	14.035	4.5455	0.1	2287.5
6702	14.035	4.7273	0.1	2288.3
6703	14.035	4.9091	0.1	2289.3
6704	14.035	5.0909	0.1	2290.3
6705	14.035	5.2727	0.1	2291.5
6706	14.035	5.4545	0.1	2292.7
6707	14.035	5.6364	0.1	2294.2
6708	14.035	5.8182	0.1	2298.3
6709	14.22	0.18182	0.1	2251.
6710	14.22	0.36364	0.1	2246.9
6711	14.22	0.54545	0.1	2245.4
6712	14.22	0.72727	0.1	2244.2
6713	14.22	0.90909	0.1	2243.1
6714	14.22	1.0909	0.1	2242.2
6715	14.22	1.2727	0.1	2241.3
6716	14.22	1.4545	0.1	2240.5
6717	14.22	1.6364	0.1	2239.8
6718	14.22	1.8182	0.1	2239.2
6719	14.22	2.	0.1	2238.7
6720	14.22	2.1818	0.1	2238.3
6721	14.22	2.3636	0.1	2238.
6722	14.22	2.5455	0.1	2237.7
6723	14.22	2.7273	0.1	2237.5
6724	14.22	2.9091	0.1	2237.5
6725	14.22	3.0909	0.1	2237.5
6726	14.22	3.2727	0.1	2237.5
6727	14.22	3.4545	0.1	2237.7
6728	14.22	3.6364	0.1	2238.
6729	14.22	3.8182	0.1	2238.3
6730	14.22	4.	0.1	2238.7
6731	14.22	4.1818	0.1	2239.2
6732	14.22	4.3636	0.1	2239.8
6733	14.22	4.5455	0.1	2240.5
6734	14.22	4.7273	0.1	2241.3
6735	14.22	4.9091	0.1	2242.2
6736	14.22	5.0909	0.1	2243.1
6737	14.22	5.2727	0.1	2244.2
6738	14.22	5.4545	0.1	2245.4
6739	14.22	5.6364	0.1	2246.9
6740	14.22	5.8182	0.1	2251.
6741	14.405	0.18182	0.1	2203.8
6742	14.405	0.36364	0.1	2199.7
6743	14.405	0.54545	0.1	2198.3
6744	14.405	0.72727	0.1	2197.2
6745	14.405	0.90909	0.1	2196.2
6746	14.405	1.0909	0.1	2195.2
6747	14.405	1.2727	0.1	2194.4
6748	14.405	1.4545	0.1	2193.7
6749	14.405	1.6364	0.1	2193.
6750	14.405	1.8182	0.1	2192.5
6751	14.405	2.	0.1	2192.
6752	14.405	2.1818	0.1	2191.6
6753	14.405	2.3636	0.1	2191.3
6754	14.405	2.5455	0.1	2191.1
6755	14.405	2.7273	0.1	2191.
6756	14.405	2.9091	0.1	2190.9
6757	14.405	3.0909	0.1	2190.9
6758	14.405	3.2727	0.1	2191.
6759	14.405	3.4545	0.1	2191.1
6760	14.405	3.6364	0.1	2191.3
6761	14.405	3.8182	0.1	2191.6
6762	14.405	4.	0.1	2192.
6763	14.405	4.1818	0.1	2192.5
6764	14.405	4.3636	0.1	2193.
6765	14.405	4.5455	0.1	2193.7
6766	14.405	4.7273	0.1	2194.4
6767	14.405	4.9091	0.1	2195.2
6768	14.405	5.0909	0.1	2196.2
6769	14.405	5.2727	0.1	2197.2
6770	14.405	5.4545	0.1	2198.3
6771	14.405	5.6364	0.1	2199.7
6772	14.405	5.8182	0.1	2203.8
6773	14.59	0.18182	0.1	2156.8
6774	14.59	0.36364	0.1	2152.8
6775	14.59	0.54545	0.1	2151.4
6776	14.59	0.72727	0.1	2150.4
6777	14.59	0.90909	0.1	2149.4
6778	14.59	1.0909	0.1	2148.5
6779	14.59	1.2727	0.1	2147.7
6780	14.59	1.4545	0.1	2147.1
6781	14.59	1.6364	0.1	2146.5
6782	14.59	1.8182	0.1	2146.
6783	14.59	2.	0.1	2145.5
6784	14.59	2.1818	0.1	2145.2
6785	14.59	2.3636	0.1	2144.9
6786	14.59	2.5455	0.1	2144.7
6787	14.59	2.7273	0.1	2144.6
6788	14.59	2.9091	0.1	2144.5
6789	14.59	3.0909	0.1	2144.5
6790	14.59	3.2727	0.1	2144.6
6791	14.59	3.4545	0.1	2144.7
6792	14.59	3.6364	0.1	2144.9
6793	14.59	3.8182	0.1	2145.2
6794	14.59	4.	0.1	2145.5
6795	14.59	4.1818	0.1	2146.
6796	14.59	4.3636	0.1	2146.5
6797	14.59	4.5455	0.1	2147.1
6798	14.59	4.7273	0.1	2147.7
6799	14.59	4.9091	0.1	2148.5
6800	14.59	5.0909	0.1	2149.4
6801	14.59	5.2727	0.1	2150.4
6802	14.59	5.4545	0.1	2151.4
6803	14.59	5.6364	0.1	2152.8
6804	14.59	5.8182	0.1	2156.8
6805	14.774	0.18182	0.1	2110.
6806	14.774	0.36364	0.1	2106.
6807	14.774	0.54545	0.1	2104.7
6808	14.774	0.72727	0.1	2103.7
6809	14.774	0.90909	0.1	2102.8
6810	14.774	1.0909	0.1	2102.
6811	14.774	1.2727	0.1	2101.3
6812	14.774	1.4545	0.1	2100.6
6813	14.774	1.6364	0.1	2100.1
6814	14.774	1.8182	0.1	2099.6
6815	14.774	2.	0.1	2099.2
6816	14.774	2.1818	0.1	2098.9
6817	14.774	2.3636	0.1	2098.7
6818	14.774	2.5455	0.1	2098.5
6819	14.774	2.7273	0.1	2098.4
6820	14.774	2.9091	0.1	2098.3
6821	14.774	3.0909	0.1	2098.3
6822	14.774	3.2727	0.1	2098.4
6823	14.774	3.4545	0.1	2098.5
6824	14.774	3.6364	0.1	2098.7
6825	14.774	3.8182	0.1	2098.9
6826	14.774	4.	0.1	2099.2
6827	14.774	4.1818	0.1	2099.6
6828	14.774	4.3636	0.1	2100.1
6829	14.774	4.5455	0.1	2100.6
6830	14.774	4.7273	0.1	2101.3
6831	14.774	4.9091	0.1	2102.
6832	14.774	5.0909	0.1	2102.8
6833	14.774	5.2727	0.1	2103.7
6834	14.774	5.4545	0.1	2104.7
6835	14.774	5.6364	0.1	2106.
6836	14.774	5.8182	0.1	2110.
6837	14.959	0.18182	0.1	2063.4
6838	14.959	0.36364	0.1	2059.5
6839	14.959	0.54545	0.1	2058.2
6840	14.959	0.72727	0.1	2057.3
6841	14.959	0.90909	0.1	2056.4
6842	14.959	1.0909	0.1	2055.7
6843	14.959	1.2727	0.1	2055.
6844	14.959	1.4545	0.1	2054.4
6845	14.959	1.6364	0.1	2053.9
6846	14.959	1.8182	0.1	2053.5
6847	14.959	2.	0.1	2053.2
6848	14.959	2.1818	0.1	2052.9
6849	14.959	2.3636	0.1	2052.7
6850	14.959	2.5455	0.1	2052.5
6851	14.959	2.7273	0.1	2052.4
6852	14.959	2.9091	0.1	2052.3
6853	14.959	3.0909	0.1	2052.3
6854	14.959	3.2727	0.1	2052.4
6855	14.959	3.4545	0.1	2052.5
6856	14.959	3.6364	0.1	2052.7
6857	14.959	3.8182	0.1	2052.9
6858	14.959	4.	0.1	2053.2
6859	14.959	4.1818	0.1	2053.5
6860	14.959	4.3636	0.1	2053.9
6861	14.959	4.5455	0.1	2054.4
6862	14.959	4.7273	0.1	2055.
6863	14.959	4.9091	0.1	2055.7
6864	14.959	5.0909	0.1	2056.4
6865	14.959	5.2727	0.1	2057.3
6866	14.959	5.4545	0.1	2058.2
6867	14.959	5.6364	0.1	2059.5
6868	14.959	5.8182	0.1	2063.4
6869	15.144	0.18182	0.1	2017.
6870	15.144	0.36364	0.1	2013.1
6871	15.144	0.54545	0.1	2011.9
6872	15.144	0.72727	0.1	2011.
6873	15.144	0.90909	0.1	2010.2
6874	15.144	1.0909	0.1	2009.5
6875	15.144	1.2727	0.1	2008.9
6876	15.144	1.4545	0.1	2008.4
6877	15.144	1.6364	0.1	2008.
6878	15.144	1.8182	0.1	2007.6
6879	15.144	2.	0.1	2007.3
6880	15.144	2.1818	0.1	2007.1
6881	15.144	2.3636	0.1	2006.9
6882	15.144	2.5455	0.1	2006.7
6883	15.144	2.7273	0.1	2006.6
6884	15.144	2.9091	0.1	2006.6
6885	15.144	3.0909	0.1	2006.6
6886	15.144	3.2727	0.1	2006.6
6887	15.144	3.4545	0.1	2006.7
6888	15.144	3.6364	0.1	2006.9
6889	15.144	3.8182	0.1	2007.1
6890	15.144	4.	0.1	2007.3
6891	15.144	4.1818	0.1	2007.6
6892	15.144	4.3636	0.1	2008.
6893	15.144	4.5455	0.1	2008.4
6894	15.144	4.7273	0.1	2008.9
6895	15.144	4.9091	0.1	2009.5
6896	15.144	5.0909	0.1	2010.2
6897	15.144	5.2727	0.1	2011.
6898	15.144	5.4545	0.1	2011.9
6899	15.144	5.6364	0.1	2013.1
6900	15.144	5.8182	0.1	2017.
6901	15.328	0.18182	0.1	1970.8
6902	15.328	0.36364	0.1	1966.9
6903	15.328	0.54545	0.1	1965.8
6904	15.328	0.72727	0.1	1965.
6905	15.328	0.90909	0.1	1964.2
6906	15.328	1.0909	0.1	1963.6
6907	15.328	1.2727	0.1	1963.1
6908	15.328	1.4545	0.1	1962.6
6909	15.328	1.6364	0.1	1962.2
6910	15.328	1.8182	0.1	1961.9
6911	15.328	2.	0.1	1961.7
6912	15.328	2.1818	0.1	1961.4
6913	15.328	2.3636	0.1	1961.3
6914	15.328	2.5455	0.1	1961.2
6915	15.328	2.7273	0.1	1961.1
6916	15.328	2.9091	0.1	1961.
6917	15.328	3.0909	0.1	1961.
6918	15.328	3.2727	0.1	1961.1
6919	15.328	3.4545	0.1	1961.2
6920	15.328	3.6364	0.1	1961.3
6921	15.328	3.8182	0.1	1961.4
6922	15.328	4.	0.1	1961.7
6923	15.328	4.1818	0.1	1961.9
6924	15.328	4.3636	0.1	1962.2
6925	15.328	4.5455	0.1	1962.6
6926	15.328	4.7273	0.1	1963.1
6927	15.328	4.9091	0.1	1963.6
6928	15.328	5.0909	0.1	1964.2
6929	15.328	5.2727	0.1	1965.
6930	15.328	5.4545	0.1	1965.8
6931	15.328	5.6364	0.1	1966.9
6932	15.328	5.8182	0.1	1970.8
6933	15.513	0.18182	0.1	1924.8
6934	15.513	0.36364	0.1	1920.9
6935	15.513	0.54545	0.1	1919.9
6936	15.513	0.72727	0.1	1919.1
6937	15.513	0.90909	0.1	1918.5
6938	15.513	1.0909	0.1	1917.9
6939	15.513	1.2727	0.1	1917.4
6940	15.513	1.4545	0.1	1917.
6941	15.513	1.6364	0.1	1916.7
6942	15.513	1.8182	0.1	1916.4
6943	15.513	2.	0.1	1916.2
6944	15.513	2.1818	0.1	1916.
6945	15.513	2.3636	0.1	1915.9
6946	15.513	2.5455	0.1	1915.8
6947	15.513	2.7273	0.1	1915.8
6948	15.513	2.9091	0.1	1915.7
6949	15.513	3.0909	0.1	1915.7
6950	15.513	3.2727	0.1	1915.8
6951	15.513	3.4545	0.1	1915.8
6952	15.513	3.6364	0.1	1915.9
6953	15.513	3.8182	0.1	1916.
6954	15.513	4.	0.1	1916.2
6955	15.513	4.1818	0.1	1916.4
6956	15.513	4.3636	0.1	1916.7
6957	15.513	4.5455	0.1	1917.
6958	15.513	4.7273	0.1	1917.4
6959	15.513	4.9091	0.1	1917.9
6960	15.513	5.0909	0.1	1918.5
6961	15.513	5.2727	0.1	1919.1
6962	15.513	5.4545	0.1	1919.9
6963	15.513	5.6364	0.1	1920.9
6964	15.513	5.8182	0.1	1924.8
6965	15.698	0.18182	0.1	1879.
6966	15.698	0.36364	0.1	1875.1
6967	15.698	0.54545	0.1	1874.2
6968	15.698	0.72727	0.1	1873.5
6969	15.698	0.90909	0.1	1872.9
6970	15.698	1.0909	0.1	1872.4
6971	15.698	1.2727	0.1	1872.
6972	15.698	1.4545	0.1	1871.7
6973	15.698	1.6364	0.1	1871.4
6974	15.698	1.8182	0.1	1871.2
6975	15.698	2.	0.1	1871.
6976	15.698	2.1818	0.1	1870.9
6977	15.698	2.3636	0.1	1870.8
6978	15.698	2.5455	0.1	1870.7
6979	15.698	2.7273	0.1	1870.7
6980	15.698	2.9091	0.1	1870.6
6981	15.698	3.0909	0.1	1870.6
6982	15.698	3.2727	0.1	1870.7
6983	15.698	3.4545	0.1	1870.7
6984	15.698	3.6364	0.1	1870.8
6985	15.698	3.8182	0.1	1870.9
6986	15.698	4.	0.1	1871.
6987	15.698	4.1818	0.1	1871.2
6988	15.698	4.3636	0.1	1871.4
6989	15.698	4.5455	0.1	1871.7
6990	15.698	4.7273	0.1	1872.
6991	15.698	4.9091	0.1	1872.4
6992	15.698	5.0909	0.1	1872.9
6993	15.698	5.2727	0.1	1873.5
6994	15.698	5.4545	0.1	1874.2
6995	15.698	5.6364	0.1	1875.1
6996	15.698	5.8182	0.1	1879.
6997	15.882	0.18182	0.1	1833.3
6998	15.882	0.36364	0.1	1829.5
6999	15.882	0.54545	0.1	1828.6
7000	15.882	0.72727	0.1	1828.
7001	15.882	0.90909	0.1	1827.5
7002	15.882	1.0909	0.1	1827.1
7003	15.882	1.2727	0.1	1826.8
7004	15.882	1.4545	0.1	1826.5
7005	15.882	1.6364	0.1	1826.3
7006	15.882	1.8182	0.1	1826.1
7007	15.882	2.	0.1	1826.
7008	15.882	2.1818	0.1	1825.9
7009	15.882	2.3636	0.1	1825.9
7010	15.882	2.5455	0.1	1825.8
7011	15.882	2.7273	0.1	1825.8
7012	15.882	2.9091	0.1	1825.8
7013	15.882	3.0909	0.1	1825.8
7014	15.882	3.2727	0.1	1825.8
7015	15.882	3.4545	0.1	1825.8
7016	15.882	3.6364	0.1	1825.9
7017	15.882	3.8182	0.1	1825.9
7018	15.882	4.	0.1	1826.
7019	15.882	4.1818	0.1	1826.1
7020	15.882	4.3636	0.1	1826.3
7021	15.882	4.5455	0.1	1826.5
7022	15.882	4.7273	0.1	1826.8
7023	15.882	4.9091	0.1	1827.1
7024	15.882	5.0909	0.1	1827.5
7025	15.882	5.2727	0.1	1828.
7026	15.882	5.4545	0.1	1828.6
7027	15.882	5.6364	0.1	1829.5
7028	15.882	5.8182	0.1	1833.3
7029	16.067	0.18182	0.1	1787.8
7030	16.067	0.36364	0.1	1784.1
7031	16.067	0.54545	0.1	1783.3
7032	16.067	0.72727	0.1	1782.7
7033	16.067	0.90909	0.1	1782.3
7034	16.067	1.0909	0.1	1782.
7035	16.067	1.2727	0.1	1781.7
7036	16.067	1.4545	0.1	1781.6
7037	16.067	1.6364	0.1	1781.4
7038	16.067	1.8182	0.1	1781.3
7039	16.067	2.	0.1	1781.3
7040	16.067	2.1818	0.1	1781.2
7041	16.067	2.3636	0.1	1781.2
7042	16.067	2.5455	0.1	1781.2
7043	16.067	2.7273	0.1	1781.2
7044	16.067	2.9091	0.1	1781.2
7045	16.067	3.0909	0.1	1781.2
7046	16.067	3.2727	0.1	1781.2
7047	16.067	3.4545	0.1	1781.2
7048	16.067	3.6364	0.1	1781.2
7049	16.067	3.8182	0.1	1781.2
7050	16.067	4.	0.1	1781.3
7051	16.067	4.1818	0.1	1781.3
7052	16.067	4.3636	0.1	1781.4
7053	16.067	4.5455	0.1	1781.6
7054	16.067	4.7273	0.1	1781.7
7055	16.067	4.9091	0.1	1782.
7056	16.067	5.0909	0.1	1782.3
7057	16.067	5.2727	0.1	1782.7
7058	16.067	5.4545	0.1	1783.3
7059	16.067	5.6364	0.1	1784.1
7060	16.067	5.8182	0.1	1787.8
7061	16.252	0.18182	0.1	1742.5
7062	16.252	0.36364	0.1	1738.9
7063	16.252	0.54545	0.1	1738.1
7064	16.252	0.72727	0.1	1737.7
7065	16.252	0.90909	0.1	1737.3
7066	16.252	1.0909	0.1	1737.1
7067	16.252	1.2727	0.1	1736.9
7068	16.252	1.4545	0.1	1736.8
7069	16.252	1.6364	0.1	1736.8
7070	16.252	1.8182	0.1	1736.8
7071	16.252	2.	0.1	1736.8
7072	16.252	2.1818	0.1	1736.8
7073	16.252	2.3636	0.1	1736.8
7074	16.252	2.5455	0.1	1736.8
7075	16.252	2.7273	0.1	1736.8
7076	16.252	2.9091	0.1	1736.8
7077	16.252	3.0909	0.1	1736.8
7078	16.252	3.2727	0.1	1736.8
7079	16.252	3.4545	0.1	1736.8
7080	16.252	3.6364	0.1	1736.8
7081	16.252	3.8182	0.1	1736.8
7082	16.252	4.	0.1	1736.8
7083	16.252	4.1818	0.1	1736.8
7084	16.252	4.3636	0.1	1736.8
7085	16.252	4.5455	0.1	1736.8
7086	16.252	4.7273	0.1	1736.9
7087	16.252	4.9091	0.1	1737.1
7088	16.252	5.0909	0.1	1737.3
7089	16.252	5.2727	0.1	1737.7
7090	16.252	5.4545	0.1	1738.1
7091	16.252	5.6364	0.1	1738.9
7092	16.252	5.8182	0.1	1742.5
7093	16.436	0.18182	0.1	1697.4
7094	16.436	0.36364	0.1	1693.8
7095	16.436	0.54545	0.1	1693.2
7096	16.436	0.72727	0.1	1692.8
7097	16.436	0.90909	0.1	1692.6
7098	16.436	1.0909	0.1	1692.4
7099	16.436	1.2727	0.1	1692.4
7100	16.436	1.4545	0.1	1692.3
7101	16.436	1.6364	0.1	1692.4
7102	16.436	1.8182	0.1	1692.4
7103	16.436	2.	0.1	1692.5
7104	16.436	2.1818	0.1	1692.5
7105	16.436	2.3636	0.1	1692.6
7106	16.436	2.5455	0.1	1692.7
7107	16.436	2.7273	0.1	1692.7
7108	16.436	2.9091	0.1	1692.7
7109	16.436	3.0909	0.1	1692.7
7110	16.436	3.2727	0.1	1692.7
7111	16.436	3.4545	0.1	1692.7
7112	16.436	3.6364	0.1	1692.6
7113	16.436	3.8182	0.1	1692.5
7114	16.436	4.	0.1	1692.5
7115	16.436	4.1818	0.1	1692.4
7116	16.436	4.3636	0.1	1692.4
7117	16.436	4.5455	0.1	1692.3
7118	16.436	4.7273	0.1	1692.4
7119	16.436	4.9091	0.1	1692.4
7120	16.436	5.0909	0.1	1692.6
7121	16.436	5.2727	0.1	1692.8
7122	16.436	5.4545	0.1	1693.2
7123	16.436	5.6364	0.1	1693.8
7124	16.436	5.8182	0.1	1697.4
7125	16.621	0.18182	0.1	1652.5
7126	16.621	0.36364	0.1	1648.9
7127	16.621	0.54545	0.1	1648.4
7128	16.621	0.72727	0.1	1648.1
7129	16.621	0.90909	0.1	1648.
7130	16.621	1.0909	0.1	1648.
7131	16.621	1.2727	0.1	1648.
7132	16.621	1.4545	0.1	1648.1
7133	16.621	1.6364	0.1	1648.2
7134	16.621	1.8182	0.1	1648.3
7135	16.621	2.	0.1	1648.4
7136	16.621	2.1818	0.1	1648.6
7137	16.621	2.3636	0.1	1648.7
7138	16.621	2.5455	0.1	1648.8
7139	16.621	2.7273	0.1	1648.8
7140	16.621	2.9091	0.1	1648.9
7141	16.621	3.0909	0.1	1648.9
7142	16.621	3.2727	0.1	1648.8
7143	16.621	3.4545	0.1	1648.8
7144	16.621	3.6364	0.1	1648.7
7145	16.621	3.8182	0.1	1648.6
7146	16.621	4.	0.1	1648.4
7147	16.621	4.1818	0.1	1648.3
7148	16.621	4.3636	0.1	1648.2
7149	16.621	4.5455	0.1	1648.1
7150	16.621	4.7273	0.1	1648.
7151	16.621	4.9091	0.1	1648.
7152	16.621	5.0909	0.1	1648.
7153	16.621	5.2727	0.1	1648.1
7154	16.621	5.4545	0.1	1648.4
7155	16.621	5.6364	0.1	1648.9
7156	16.621	5.8182	0.1	1652.5
7157	16.806	0.18182	0.1	1607.7
7158	16.806	0.36364	0.1	1604.2
7159	16.806	0.54545	0.1	1603.8
7160	16.806	0.72727	0.1	1603.7
7161	16.806	0.90909	0.1	1603.7
7162	16.806	1.0909	0.1	1603.7
7163	16.806	1.2727	0.1	1603.9
7164	16.806	1.4545	0.1	1604.1
7165	16.806	1.6364	0.1	1604.3
7166	16.806	1.8182	0.1	1604.5
7167	16.806	2.	0.1	1604.7
7168	16.806	2.1818	0.1	1604.9
7169	16.806	2.3636	0.1	1605.
7170	16.806	2.5455	0.1	1605.1
7171	16.806	2.7273	0.1	1605.2
7172	16.806	2.9091	0.1	1605.3
7173	16.806	3.0909	0.1	1605.3
7174	16.806	3.2727	0.1	1605.2
7175	16.806	3.4545	0.1	1605.1
7176	16.806	3.6364	0.1	1605.
7177	16.806	3.8182	0.1	1604.9
7178	16.806	4.	0.1	1604.7
7179	16.806	4.1818	0.1	1604.5
7180	16.806	4.3636	0.1	1604.3
7181	16.806	4.5455	0.1	1604.1
7182	16.806	4.7273	0.1	1603.9
7183	16.806	4.9091	0.1	1603.7
7184	16.806	5.0909	0.1	1603.7
7185	16.806	5.2727	0.1	1603.7
7186	16.806	5.4545	0.1	1603.8
7187	16.806	5.6364	0.1	1604.2
7188	16.806	5.8182	0.1	1607.7
7189	16.99	0.18182	0.1	1563.
7190	16.99	0.36364	0.1	1559.7
7191	16.99	0.54545	0.1	1559.4
7192	16.99	0.72727	0.1	1559.4
7193	16.99	0.90909	0.1	1559.5
7194	16.99	1.0909	0.1	1559.7
7195	16.99	1.2727	0.1	1560.
7196	16.99	1.4545	0.1	1560.3
7197	16.99	1.6364	0.1	1560.6
7198	16.99	1.8182	0.1	1560.9
7199	16.99	2.	0.1	1561.2
7200	16.99	2.1818	0.1	1561.4
7201	16.99	2.3636	0.1	1561.6
7202	16.99	2.5455	0.1	1561.8
7203	16.99	2.7273	0.1	1561.9
7204	16.99	2.9091	0.1	1562.
7205	16.99	3.0909	0.1	1562.
7206	16.99	3.2727	0.1	1561.9
7207	16.99	3.4545	0.1	1561.8
7208	16.99	3.6364	0.1	1561.6
7209	16.99	3.8182	0.1	1561.4
7210	16.99	4.	0.1	1561.2
7211	16.99	4.1818	0.1	1560.9
7212	16.99	4.3636	0.1	1560.6
7213	16.99	4.5455	0.1	1560.3
7214	16.99	4.7273	0.1	1560.
7215	16.99	4.9091	0.1	1559.7
7216	16.99	5.0909	0.1	1559.5
7217	16.99	5.2727	0.1	1559.4
7218	16.99	5.4545	0.1	1559.4
7219	16.99	5.6364	0.1	1559.7
7220	16.99	5.8182	0.1	1563.
7221	17.175	0.18182	0.1	1518.6
7222	17.175	0.36364	0.1	1515.3
7223	17.175	0.54545	0.1	1515.2
7224	17.175	0.72727	0.1	1515.3
7225	17.175	0.90909	0.1	1515.6
7226	17.175	1.0909	0.1	1515.9
7227	17.175	1.2727	0.1	1516.3
7228	17.175	1.4545	0.1	1516.7
7229	17.175	1.6364	0.1	1517.1
7230	17.175	1.8182	0.1	1517.5
7231	17.175	2.	0.1	1517.9
7232	17.175	2.1818	0.1	1518.2
7233	17.175	2.3636	0.1	1518.5
7234	17.175	2.5455	0.1	1518.7
7235	17.175	2.7273	0.1	1518.9
7236	17.175	2.9091	0.1	1518.9
7237	17.175	3.0909	0.1	1518.9
7238	17.175	3.2727	0.1	1518.9
7239	17.175	3.4545	0.1	1518.7
7240	17.175	3.6364	0.1	1518.5
7241	17.175	3.8182	0.1	1518.2
7242	17.175	4.	0.1	1517.9
7243	17.175	4.1818	0.1	1517.5
7244	17.175	4.3636	0.1	1517.1
7245	17.175	4.5455	0.1	1516.7
7246	17.175	4.7273	0.1	1516.3
7247	17.175	4.9091	0.1	1515.9
7248	17.175	5.0909	0.1	1515.6
7249	17.175	5.2727	0.1	1515.3
7250	17.175	5.4545	0.1	1515.2
7251	17.175	5.6364	0.1	1515.3
7252	17.175	5.8182	0.1	1518.6
7253	17.36	0.18182	0.1	1474.2
7254	17.36	0.36364	0.1	1471.1
7255	17.36	0.54545	0.1	1471.1
7256	17.36	0.72727	0.1	1471.4
7257	17.36	0.90909	0.1	1471.8
7258	17.36	1.0909	0.1	1472.3
7259	17.36	1.2727	0.1	1472.9
7260	17.36	1.4545	0.1	1473.4
7261	17.36	1.6364	0.1	1473.9
7262	17.36	1.8182	0.1	1474.5
7263	17.36	2.	0.1	1474.9
7264	17.36	2.1818	0.1	1475.3
7265	17.36	2.3636	0.1	1475.7
7266	17.36	2.5455	0.1	1475.9
7267	17.36	2.7273	0.1	1476.1
7268	17.36	2.9091	0.1	1476.2
7269	17.36	3.0909	0.1	1476.2
7270	17.36	3.2727	0.1	1476.1
7271	17.36	3.4545	0.1	1475.9
7272	17.36	3.6364	0.1	1475.7
7273	17.36	3.8182	0.1	1475.3
7274	17.36	4.	0.1	1474.9
7275	17.36	4.1818	0.1	1474.5
7276	17.36	4.3636	0.1	1473.9
7277	17.36	4.5455	0.1	1473.4
7278	17.36	4.7273	0.1	1472.9
7279	17.36	4.9091	0.1	1472.3
7280	17.36	5.0909	0.1	1471.8
7281	17.36	5.2727	0.1	1471.4
7282	17.36	5.4545	0.1	1471.1
7283	17.36	5.6364	0.1	1471.1
7284	17.36	5.8182	0.1	1474.2
7285	17.544	0.18182	0.1	1430.
7286	17.544	0.36364	0.1	1427.1
7287	17.544	0.54545	0.1	1427.3
7288	17.544	0.72727	0.1	1427.7
7289	17.544	0.90909	0.1	1428.3
7290	17.544	1.0909	0.1	1429.
7291	17.544	1.2727	0.1	1429.7
7292	17.544	1.4545	0.1	1430.4
7293	17.544	1.6364	0.1	1431.
7294	17.544	1.8182	0.1	1431.7
7295	17.544	2.	0.1	1432.2
7296	17.544	2.1818	0.1	1432.7
7297	17.544	2.3636	0.1	1433.1
7298	17.544	2.5455	0.1	1433.5
7299	17.544	2.7273	0.1	1433.7
7300	17.544	2.9091	0.1	1433.8
7301	17.544	3.0909	0.1	1433.8
7302	17.544	3.2727	0.1	1433.7
7303	17.544	3.4545	0.1	1433.5
7304	17.544	3.6364	0.1	1433.1
7305	17.544	3.8182	0.1	1432.7
7306	17.544	4.	0.1	1432.2
7307	17.544	4.1818	0.1	1431.7
7308	17.544	4.3636	0.1	1431.
7309	17.544	4.5455	0.1	1430.4
7310	17.544	4.7273	0.1	1429.7
7311	17.544	4.9091	0.1	1429.
7312	17.544	5.0909	0.1	1428.3
7313	17.544	5.2727	0.1	1427.7
7314	17.544	5.4545	0.1	1427.3
7315	17.544	5.6364	0.1	1427.1
7316	17.544	5.8182	0.1	1430.
7317	17.729	0.18182	0.1	1386.
7318	17.729	0.36364	0.1	1383.2
7319	17.729	0.54545	0.1	1383.5
7320	17.729	0.72727	0.1	1384.2
7321	17.729	0.90909	0.1	1385.
7322	17.729	1.0909	0.1	1385.8
7323	17.729	1.2727	0.1	1386.7
7324	17.729	1.4545	0.1	1387.6
7325	17.729	1.6364	0.1	1388.4
7326	17.729	1.8182	0.1	1389.2
7327	17.729	2.	0.1	1389.8
7328	17.729	2.1818	0.1	1390.4
7329	17.729	2.3636	0.1	1390.9
7330	17.729	2.5455	0.1	1391.3
7331	17.729	2.7273	0.1	1391.5
7332	17.729	2.9091	0.1	1391.7
7333	17.729	3.0909	0.1	1391.7
7334	17.729	3.2727	0.1	1391.5
7335	17.729	3.4545	0.1	1391.3
7336	17.729	3.6364	0.1	1390.9
7337	17.729	3.8182	0.1	1390.4
7338	17.729	4.	0.1	1389.8
7339	17.729	4.1818	0.1	1389.2
7340	17.729	4.3636	0.1	1388.4
7341	17.729	4.5455	0.1	1387.6
7342	17.729	4.7273	0.1	1386.7
7343	17.729	4.9091	0.1	1385.8
7344	17.729	5.0909	0.1	1385.
7345	17.729	5.2727	0.1	1384.2
7346	17.729	5.4545	0.1	1383.5
7347	17.729	5.6364	0.1	1383.2
7348	17.729	5.8182	0.1	1386.
7349	17.914	0.18182	0.1	1342.
7350	17.914	0.36364	0.1	1339.4
7351	17.914	0.54545	0.1	1340.
7352	17.914	0.72727	0.1	1340.9
7353	17.914	0.90909	0.1	1341.9
7354	17.914	1.0909	0.1	1342.9
7355	17.914	1.2727	0.1	1344.
7356	17.914	1.4545	0.1	1345.
7357	17.914	1.6364	0.1	1346.
7358	17.914	1.8182	0.1	1346.9
7359	17.914	2.	0.1	1347.7
7360	17.914	2.1818	0.1	1348.4
7361	17.914	2.3636	0.1	1349.
7362	17.914	2.5455	0.1	1349.4
7363	17.914	2.7273	0.1	1349.7
7364	17.914	2.9091	0.1	1349.9
7365	17.914	3.0909	0.1	1349.9
7366	17.914	3.2727	0.1	1349.7
7367	17.914	3.4545	0.1	1349.4
7368	17.914	3.6364	0.1	1349.
7369	17.914	3.8182	0.1	1348.4
7370	17.914	4.	0.1	1347.7
7371	17.914	4.1818	0.1	1346.9
7372	17.914	4.3636	0.1	1346.
7373	17.914	4.5455	0.1	1345.
7374	17.914	4.7273	0.1	1344.
7375	17.914	4.9091	0.1	1342.9
7376	17.914	5.0909	0.1	1341.9
7377	17.914	5.2727	0.1	1340.9
7378	17.914	5.4545	0.1	1340.
7379	17.914	5.6364	0.1	1339.4
7380	17.914	5.8182	0.1	1342.
7381	18.098	0.18182	0.1	1298.1
7382	18.098	0.36364	0.1	1295.8
7383	18.098	0.54545	0.1	1296.6
7384	18.098	0.72727	0.1	1297.7
7385	18.098	0.90909	0.1	1299.
7386	18.098	1.0909	0.1	1300.3
7387	18.098	1.2727	0.1	1301.5
7388	18.098	1.4545	0.1	1302.8
7389	18.098	1.6364	0.1	1304.
7390	18.098	1.8182	0.1	1305.
7391	18.098	2.	0.1	1306.
7392	18.098	2.1818	0.1	1306.8
7393	18.098	2.3636	0.1	1307.4
7394	18.098	2.5455	0.1	1307.9
7395	18.098	2.7273	0.1	1308.3
7396	18.098	2.9091	0.1	1308.4
7397	18.098	3.0909	0.1	1308.4
7398	18.098	3.2727	0.1	1308.3
7399	18.098	3.4545	0.1	1307.9
7400	18.098	3.6364	0.1	1307.4
7401	18.098	3.8182	0.1	1306.8
7402	18.098	4.	0.1	1306.
7403	18.098	4.1818	0.1	1305.
7404	18.098	4.3636	0.1	1304.
7405	18.098	4.5455	0.1	1302.8
7406	18.098	4.7273	0.1	1301.5
7407	18.098	4.9091	0.1	1300.3
7408	18.098	5.0909	0.1	1299.
7409	18.098	5.2727	0.1	1297.7
7410	18.098	5.4545	0.1	1296.6
7411	18.098	5.6364	0.1	1295.8
7412	18.098	5.8182	0.1	1298.1
7413	18.283	0.18182	0.1	1254.4
7414	18.283	0.36364	0.1	1252.3
7415	18.283	0.54545	0.1	1253.4
7416	18.283	0.72727	0.1	1254.8
7417	18.283	0.90909	0.1	1256.3
7418	18.283	1.0909	0.1	1257.8
7419	18.283	1.2727	0.1	1259.3
7420	18.283	1.4545	0.1	1260.8
7421	18.283	1.6364	0.1	1262.2
7422	18.283	1.8182	0.1	1263.4
7423	18.283	2.	0.1	1264.5
7424	18.283	2.1818	0.1	1265.5
7425	18.283	2.3636	0.1	1266.2
7426	18.283	2.5455	0.1	1266.8
7427	18.283	2.7273	0.1	1267.2
7428	18.283	2.9091	0.1	1267.4
7429	18.283	3.0909	0.1	1267.4
7430	18.283	3.2727	0.1	1267.2
7431	18.283	3.4545	0.1	1266.8
7432	18.283	3.6364	0.1	1266.2
7433	18.283	3.8182	0.1	1265.5
7434	18.283	4.	0.1	1264.5
7435	18.283	4.1818	0.1	1263.4
7436	18.283	4.3636	0.1	1262.2
7437	18.283	4.5455	0.1	1260.8
7438	18.283	4.7273	0.1	1259.3
7439	18.283	4.9091	0.1	1257.8
7440	18.283	5.0909	0.1	1256.3
7441	18.283	5.2727	0.1	1254.8
7442	18.283	5.4545	0.1	1253.4
7443	18.283	5.6364	0.1	1252.3
7444	18.283	5.8182	0.1	1254.4
7445	18.468	0.18182	0.1	1210.6
7446	18.468	0.36364	0.1	1208.9
7447	18.468	0.54545	0.1	1210.3
7448	18.468	0.72727	0.1	1212.
7449	18.468	0.90909	0.1	1213.8
7450	18.468	1.0909	0.1	1215.6
7451	18.468	1.2727	0.1	1217.4
7452	18.468	1.4545	0.1	1219.1
7453	18.468	1.6364	0.1	1220.7
7454	18.468	1.8182	0.1	1222.2
7455	18.468	2.	0.1	1223.4
7456	18.468	2.1818	0.1	1224.5
7457	18.468	2.3636	0.1	1225.4
7458	18.468	2.5455	0.1	1226.
7459	18.468	2.7273	0.1	1226.5
7460	18.468	2.9091	0.1	1226.7
7461	18.468	3.0909	0.1	1226.7
7462	18.468	3.2727	0.1	1226.5
7463	18.468	3.4545	0.1	1226.
7464	18.468	3.6364	0.1	1225.4
7465	18.468	3.8182	0.1	1224.5
7466	18.468	4.	0.1	1223.4
7467	18.468	4.1818	0.1	1222.2
7468	18.468	4.3636	0.1	1220.7
7469	18.468	4.5455	0.1	1219.1
7470	18.468	4.7273	0.1	1217.4
7471	18.468	4.9091	0.1	1215.6
7472	18.468	5.0909	0.1	1213.8
7473	18.468	5.2727	0.1	1212.
7474	18.468	5.4545	0.1	1210.3
7475	18.468	5.6364	0.1	1208.9
7476	18.468	5.8182	0.1	1210.6
7477	18.652	0.18182	0.1	1167.
7478	18.652	0.36364	0.1	1165.6
7479	18.652	0.54545	0.1	1167.3
7480	18.652	0.72727	0.1	1169.3
7481	18.652	0.90909	0.1	1171.5
7482	18.652	1.0909	0.1	1173.7
7483	18.652	1.2727	0.1	1175.8
7484	18.652	1.4545	0.1	1177.8
7485	18.652	1.6364	0.1	1179.6
7486	18.652	1.8182	0.1	1181.3
7487	18.652	2.	0.1	1182.7
7488	18.652	2.1818	0.1	1183.9
7489	18.652	2.3636	0.1	1184.9
7490	18.652	2.5455	0.1	1185.6
7491	18.652	2.7273	0.1	1186.1
7492	18.652	2.9091	0.1	1186.4
7493	18.652	3.0909	0.1	1186.4
7494	18.652	3.2727	0.1	1186.1
7495	18.652	3.4545	0.1	1185.6
7496	18.652	3.6364	0.1	1184.9
7497	18.652	3.8182	0.1	1183.9
7498	18.652	4.	0.1	1182.7
7499	18.652	4.1818	0.1	1181.3
7500	18.652	4.3636	0.1	1179.6
7501	18.652	4.5455	0.1	1177.8
7502	18.652	4.7273	0.1	1175.8
7503	18.652	4.9091	0.1	1173.7
7504	18.652	5.0909	0.1	1171.5
7505	18.652	5.2727	0.1	1169.3
7506	18.652	5.4545	0.1	1167.3
7507	18.652	5.6364	0.1	1165.6
7508	18.652	5.8182	0.1	1167.
7509	18.837	0.18182	0.1	1123.3
7510	18.837	0.36364	0.1	1122.3
7511	18.837	0.54545	0.1	1124.4
7512	18.837	0.72727	0.1	1126.9
7513	18.837	0.90909	0.1	1129.4
7514	18.837	1.0909	0.1	1131.9
7515	18.837	1.2727	0.1	1134.4
7516	18.837	1.4545	0.1	1136.7
7517	18.837	1.6364	0.1	1138.8
7518	18.837	1.8182	0.1	1140.7
7519	18.837	2.	0.1	1142.4
7520	18.837	2.1818	0.1	1143.8
7521	18.837	2.3636	0.1	1144.9
7522	18.837	2.5455	0.1	1145.7
7523	18.837	2.7273	0.1	1146.2
7524	18.837	2.9091	0.1	1146.5
7525	18.837	3.0909	0.1	1146.5
7526	18.837	3.2727	0.1	1146.2
7527	18.837	3.4545	0.1	1145.7
7528	18.837	3.6364	0.1	1144.9
7529	18.837	3.8182	0.1	1143.8
7530	18.837	4.	0.1	1142.4
7531	18.837	4.1818	0.1	1140.7
7532	18.837	4.3636	0.1	1138.8
7533	18.837	4.5455	0.1	1136.7
7534	18.837	4.7273	0.1	1134.4
7535	18.837	4.9091	0.1	1131.9
7536	18.837	5.0909	0.1	1129.4
7537	18.837	5.2727	0.1	1126.9
7538	18.837	5.4545	0.1	1124.4
7539	18.837	5.6364	0.1	1122.3
7540	18.837	5.8182	0.1	1123.3
7541	19.022	0.18182	0.1	1079.6
7542	19.022	0.36364	0.1	1079.1
7543	19.022	0.54545	0.1	1081.6
7544	19.022	0.72727	0.1	1084.5
7545	19.022	0.90909	0.1	1087.5
7546	19.022	1.0909	0.1	1090.5
7547	19.022	1.2727	0.1	1093.3
7548	19.022	1.4545	0.1	1096.
7549	19.022	1.6364	0.1	1098.4
7550	19.022	1.8182	0.1	1100.6
7551	19.022	2.	0.1	1102.5
7552	19.022	2.1818	0.1	1104.
7553	19.022	2.3636	0.1	1105.3
7554	19.022	2.5455	0.1	1106.2
7555	19.022	2.7273	0.1	1106.8
7556	19.022	2.9091	0.1	1107.1
7557	19.022	3.0909	0.1	1107.1
7558	19.022	3.2727	0.1	1106.8
7559	19.022	3.4545	0.1	1106.2
7560	19.022	3.6364	0.1	1105.3
7561	19.022	3.8182	0.1	1104.
7562	19.022	4.	0.1	1102.5
7563	19.022	4.1818	0.1	1100.6
7564	19.022	4.3636	0.1	1098.4
7565	19.022	4.5455	0.1	1096.
7566	19.022	4.7273	0.1	1093.3
7567	19.022	4.9091	0.1	1090.5
7568	19.022	5.0909	0.1	1087.5
7569	19.022	5.2727	0.1	1084.5
7570	19.022	5.4545	0.1	1081.6
7571	19.022	5.6364	0.1	1079.1
7572	19.022	5.8182	0.1	1079.6
7573	19.206	0.18182	0.1	1035.8
7574	19.206	0.36364	0.1	1035.8
7575	19.206	0.54545	0.1	1038.9
7576	19.206	0.72727	0.1	1042.3
7577	19.206	0.90909	0.1	1045.8
7578	19.206	1.0909	0.1	1049.2
7579	19.206	1.2727	0.1	1052.5
7580	19.206	1.4545	0.1	1055.6
7581	19.206	1.6364	0.1	1058.4
7582	19.206	1.8182	0.1	1060.9
7583	19.206	2.	0.1	1063.
7584	19.206	2.1818	0.1	1064.8
7585	19.206	2.3636	0.1	1066.2
7586	19.206	2.5455	0.1	1067.2
7587	19.206	2.7273	0.1	1067.9
7588	19.206	2.9091	0.1	1068.2
7589	19.206	3.0909	0.1	1068.2
7590	19.206	3.2727	0.1	1067.9
7591	19.206	3.4545	0.1	1067.2
7592	19.206	3.6364	0.1	1066.2
7593	19.206	3.8182	0.1	1064.8
7594	19.206	4.	0.1	1063.
7595	19.206	4.1818	0.1	1060.9
7596	19.206	4.3636	0.1	1058.4
7597	19.206	4.5455	0.1	1055.6
7598	19.206	4.7273	0.1	1052.5
7599	19.206	4.9091	0.1	1049.2
7600	19.206	5.0909	0.1	1045.8
7601	19.206	5.2727	0.1	1042.3
7602	19.206	5.4545	0.1	1038.9
7603	19.206	5.6364	0.1	1035.8
7604	19.206	5.8182	0.1	1035.8
7605	19.391	0.18182	0.1	991.87
7606	19.391	0.36364	0.1	992.51
7607	19.391	0.54545	0.1	996.18
7608	19.391	0.72727	0.1	1000.2
7609	19.391	0.90909	0.1	1004.3
7610	19.391	1.0909	0.1	1008.3
7611	19.391	1.2727	0.1	1012.1
7612	19.391	1.4545	0.1	1015.7
7613	19.391	1.6364	0.1	1018.9
7614	19.391	1.8182	0.1	1021.7
7615	19.391	2.	0.1	1024.1
7616	19.391	2.1818	0.1	1026.1
7617	19.391	2.3636	0.1	1027.6
7618	19.391	2.5455	0.1	1028.8
7619	19.391	2.7273	0.1	1029.5
7620	19.391	2.9091	0.1	1029.9
7621	19.391	3.0909	0.1	1029.9
7622	19.391	3.2727	0.1	1029.5
7623	19.391	3.4545	0.1	1028.8
7624	19.391	3.6364	0.1	1027.6
7625	19.391	3.8182	0.1	1026.1
7626	19.391	4.	0.1	1024.1
7627	19.391	4.1818	0.1	1021.7
7628	19.391	4.3636	0.1	1018.9
7629	19.391	4.5455	0.1	1015.7
7630	19.391	4.7273	0.1	1012.1
7631	19.391	4.9091	0.1	1008.3
7632	19.391	5.0909	0.1	1004.3
7633	19.391	5.2727	0.1	1000.2
7634	19.391	5.4545	0.1	996.18
7635	19.391	5.6364	0.1	992.51
7636	19.391	5.8182	0.1	991.87
7637	19.576	0.18182	0.1	947.76
7638	19.576	0.36364	0.1	949.12
7639	19.576	0.54545	0.1	953.46
7640	19.576	0.72727	0.1	958.15
7641	19.576	0.90909	0.1	962.9
7642	19.576	1.0909	0.1	967.56
7643	19.576	1.2727	0.1	971.99
7644	19.576	1.4545	0.1	976.09
7645	19.576	1.6364	0.1	979.77
7646	19.576	1.8182	0.1	982.98
7647	19.576	2.	0.1	985.7
7648	19.576	2.1818	0.1	987.91
7649	19.576	2.3636	0.1	989.63
7650	19.576	2.5455	0.1	990.89
7651	19.576	2.7273	0.1	991.71
7652	19.576	2.9091	0.1	992.11
7653	19.576	3.0909	0.1	992.11
7654	19.576	3.2727	0.1	991.71
7655	19.576	3.4545	0.1	990.89
7656	19.576	3.6364	0.1	989.63
7657	19.576	3.8182	0.1	987.91
7658	19.576	4.	0.1	985.7
7659	19.576	4.1818	0.1	982.98
7660	19.576	4.3636	0.1	979.77
7661	19.576	4.5455	0.1	976.09
7662	19.576	4.7273	0.1	971.99
7663	19.576	4.9091	0.1	967.56
7664	19.576	5.0909	0.1	962.9
7665	19.576	5.2727	0.1	958.15
7666	19.576	5.4545	0.1	953.46
7667	19.576	5.6364	0.1	949.12
7668	19.576	5.8182	0.1	947.76
7669	19.76	0.18182	0.1	903.38
7670	19.76	0.36364	0.1	905.56
7671	19.76	0.54545	0.1	910.67
7672	19.76	0.72727	0.1	916.15
7673	19.76	0.90909	0.1	921.69
7674	19.76	1.0909	0.1	927.1
7675	19.76	1.2727	0.1	932.24
7676	19.76	1.4545	0.1	936.97
7677	19.76	1.6364	0.1	941.2
7678	19.76	1.8182	0.1	944.86
7679	19.76	2.	0.1	947.93
7680	19.76	2.1818	0.1	950.4
7681	19.76	2.3636	0.1	952.31
7682	19.76	2.5455	0.1	953.68
7683	19.76	2.7273	0.1	954.57
7684	19.76	2.9091	0.1	955.
7685	19.76	3.0909	0.1	955.
7686	19.76	3.2727	0.1	954.57
7687	19.76	3.4545	0.1	953.68
7688	19.76	3.6364	0.1	952.31
7689	19.76	3.8182	0.1	950.4
7690	19.76	4.	0.1	947.93
7691	19.76	4.1818	0.1	944.86
7692	19.76	4.3636	0.1	941.2
7693	19.76	4.5455	0.1	936.97
7694	19.76	4.7273	0.1	932.24
7695	19.76	4.9091	0.1	927.1
7696	19.76	5.0909	0.1	921.69
7697	19.76	5.2727	0.1	916.15
7698	19.76	5.4545	0.1	910.67
7699	19.76	5.6364	0.1	905.56
7700	19.76	5.8182	0.1	903.38
7701	19.945	0.18182	0.1	858.63
7702	19.945	0.36364	0.1	861.76
7703	19.945	0.54545	0.1	867.75
7704	19.945	0.72727	0.1	874.14
7705	19.945	0.90909	0.1	880.6
7706	19.945	1.0909	0.1	886.9
7707	19.945	1.2727	0.1	892.86
7708	19.945	1.4545	0.1	898.34
7709	19.945	1.6364	0.1	903.21
7710	19.945	1.8182	0.1	907.39
7711	19.945	2.	0.1	910.86
7712	19.945	2.1818	0.1	913.62
7713	19.945	2.3636	0.1	915.72
7714	19.945	2.5455	0.1	917.21
7715	19.945	2.7273	0.1	918.17
7716	19.945	2.9091	0.1	918.63
7717	19.945	3.0909	0.1	918.63
7718	19.945	3.2727	0.1	918.17
7719	19.945	3.4545	0.1	917.21
7720	19.945	3.6364	0.1	915.72
7721	19.945	3.8182	0.1	913.62
7722	19.945	4.	0.1	910.86
7723	19.945	4.1818	0.1	907.39
7724	19.945	4.3636	0.1	903.21
7725	19.945	4.5455	0.1	898.34
7726	19.945	4.7273	0.1	892.86
7727	19.945	4.9091	0.1	886.9
7728	19.945	5.0909	0.1	880.6
7729	19.945	5.2727	0.1	874.14
7730	19.945	5.4545	0.1	867.75
7731	19.945	5.6364	0.1	861.76
7732	19.945	5.8182	0.1	858.63
7733	20.13	0.18182	0.1	813.39
7734	20.13	0.36364	0.1	817.61
7735	20.13	0.54545	0.1	824.63
7736	20.13	0.72727	0.1	832.08
7737	20.13	0.90909	0.1	839.6
7738	20.13	1.0909	0.1	846.95
7739	20.13	1.2727	0.1	853.9
7740	20.13	1.4545	0.1	860.26
7741	20.13	1.6364	0.1	865.88
7742	20.13	1.8182	0.1	870.67
7743	20.13	2.	0.1	874.6
7744	20.13	2.1818	0.1	877.68
7745	20.13	2.3636	0.1	879.97
7746	20.13	2.5455	0.1	881.58
7747	20.13	2.7273	0.1	882.59
7748	20.13	2.9091	0.1	883.07
7749	20.13	3.0909	0.1	883.07
7750	20.13	3.2727	0.1	882.59
7751	20.13	3.4545	0.1	881.58
7752	20.13	3.6364	0.1	879.97
7753	20.13	3.8182	0.1	877.68
7754	20.13	4.	0.1	874.6
7755	20.13	4.1818	0.1	870.67
7756	20.13	4.3636	0.1	865.88
7757	20.13	4.5455	0.1	860.26
7758	20.13	4.7273	0.1	853.9
7759	20.13	4.9091	0.1	846.95
7760	20.13	5.0909	0.1	839.6
7761	20.13	5.2727	0.1	832.08
7762	20.13	5.4545	0.1	824.63
7763	20.13	5.6364	0.1	817.61
7764	20.13	5.8182	0.1	813.39
7765	20.315	0.18182	0.1	767.55
7766	20.315	0.36364	0.1	773.
7767	20.315	0.54545	0.1	781.19
7768	20.315	0.72727	0.1	789.87
7769	20.315	0.90909	0.1	798.67
7770	20.315	1.0909	0.1	807.27
7771	20.315	1.2727	0.1	815.4
7772	20.315	1.4545	0.1	822.82
7773	20.315	1.6364	0.1	829.34
7774	20.315	1.8182	0.1	834.84
7775	20.315	2.	0.1	839.28
7776	20.315	2.1818	0.1	842.7
7777	20.315	2.3636	0.1	845.2
7778	20.315	2.5455	0.1	846.9
7779	20.315	2.7273	0.1	847.95
7780	20.315	2.9091	0.1	848.44
7781	20.315	3.0909	0.1	848.44
7782	20.315	3.2727	0.1	847.95
7783	20.315	3.4545	0.1	846.9
7784	20.315	3.6364	0.1	845.2
7785	20.315	3.8182	0.1	842.7
7786	20.315	4.	0.1	839.28
7787	20.315	4.1818	0.1	834.84
7788	20.315	4.3636	0.1	829.34
7789	20.315	4.5455	0.1	822.82
7790	20.315	4.7273	0.1	815.4
7791	20.315	4.9091	0.1	807.27
7792	20.315	5.0909	0.1	798.67
7793	20.315	5.2727	0.1	789.87
7794	20.315	5.4545	0.1	781.19
7795	20.315	5.6364	0.1	773.
7796	20.315	5.8182	0.1	767.55
7797	20.499	0.18182	0.1	720.93
7798	20.499	0.36364	0.1	727.78
7799	20.499	0.54545	0.1	737.32
7800	20.499	0.72727	0.1	747.44
7801	20.499	0.90909	0.1	757.73
7802	20.499	1.0909	0.1	767.83
7803	20.499	1.2727	0.1	777.39
7804	20.499	1.4545	0.1	786.09
7805	20.499	1.6364	0.1	793.7
7806	20.499	1.8182	0.1	800.04
7807	20.499	2.	0.1	805.08
7808	20.499	2.1818	0.1	808.87
7809	20.499	2.3636	0.1	811.56
7810	20.499	2.5455	0.1	813.32
7811	20.499	2.7273	0.1	814.37
7812	20.499	2.9091	0.1	814.85
7813	20.499	3.0909	0.1	814.85
7814	20.499	3.2727	0.1	814.37
7815	20.499	3.4545	0.1	813.32
7816	20.499	3.6364	0.1	811.56
7817	20.499	3.8182	0.1	808.87
7818	20.499	4.	0.1	805.08
7819	20.499	4.1818	0.1	800.04
7820	20.499	4.3636	0.1	793.7
7821	20.499	4.5455	0.1	786.09
7822	20.499	4.7273	0.1	777.39
7823	20.499	4.9091	0.1	767.83
7824	20.499	5.0909	0.1	757.73
7825	20.499	5.2727	0.1	747.44
7826	20.499	5.4545	0.1	737.32
7827	20.499	5.6364	0.1	727.78
7828	20.499	5.8182	0.1	720.93
7829	20.684	0.18182	0.1	673.37
7830	20.684	0.36364	0.1	681.79
7831	20.684	0.54545	0.1	692.86
7832	20.684	0.72727	0.1	704.66
7833	20.684	0.90909	0.1	716.73
7834	20.684	1.0909	0.1	728.63
7835	20.684	1.2727	0.1	739.94
7836	20.684	1.4545	0.1	750.22
7837	20.684	1.6364	0.1	759.15
7838	20.684	1.8182	0.1	766.51
7839	20.684	2.	0.1	772.24
7840	20.684	2.1818	0.1	776.42
7841	20.684	2.3636	0.1	779.25
7842	20.684	2.5455	0.1	781.03
7843	20.684	2.7273	0.1	782.02
7844	20.684	2.9091	0.1	782.45
7845	20.684	3.0909	0.1	782.45
7846	20.684	3.2727	0.1	782.02
7847	20.684	3.4545	0.1	781.03
7848	20.684	3.6364	0.1	779.25
7849	20.684	3.8182	0.1	776.42
7850	20.684	4.	0.1	772.24
7851	20.684	4.1818	0.1	766.51
7852	20.684	4.3636	0.1	759.15
7853	20.684	4.5455	0.1	750.22
7854	20.684	4.7273	0.1	739.94
7855	20.684	4.9091	0.1	728.63
7856	20.684	5.0909	0.1	716.73
7857	20.684	5.2727	0.1	704.66
7858	20.684	5.4545	0.1	692.86
7859	20.684	5.6364	0.1	681.79
7860	20.684	5.8182	0.1	673.37
7861	20.869	0.18182	0.1	624.67
7862	20.869	0.36364	0.1	634.82
7863	20.869	0.54545	0.1	647.63
7864	20.869	0.72727	0.1	661.38
7865	20.869	0.90909	0.1	675.57
7866	20.869	1.0909	0.1	689.68
7867	20.869	1.2727	0.1	703.14
7868	20.869	1.4545	0.1	715.39
7869	20.869	1.6364	0.1	725.96
7870	20.869	1.8182	0.1	734.55
7871	20.869	2.	0.1	741.06
7872	20.869	2.1818	0.1	745.62
7873	20.869	2.3636	0.1	748.55
7874	20.869	2.5455	0.1	750.23
7875	20.869	2.7273	0.1	751.08
7876	20.869	2.9091	0.1	751.42
7877	20.869	3.0909	0.1	751.42
7878	20.869	3.2727	0.1	751.08
7879	20.869	3.4545	0.1	750.23
7880	20.869	3.6364	0.1	748.55
7881	20.869	3.8182	0.1	745.62
7882	20.869	4.	0.1	741.06
7883	20.869	4.1818	0.1	734.55
7884	20.869	4.3636	0.1	725.96
7885	20.869	4.5455	0.1	715.39
7886	20.869	4.7273	0.1	703.14
7887	20.869	4.9091	0.1	689.68
7888	20.869	5.0909	0.1	675.57
7889	20.869	5.2727	0.1	661.38
7890	20.869	5.4545	0.1	647.63
7891	20.869	5.6364	0.1	634.82
7892	20.869	5.8182	0.1	624.67
7893	21.053	0.18182	0.1	574.62
7894	21.053	0.36364	0.1	586.66
7895	21.053	0.54545	0.1	601.41
7896	21.053	0.72727	0.1	617.42
7897	21.053	0.90909	0.1	634.15
7898	21.053	1.0909	0.1	650.95
7899	21.053	1.2727	0.1	667.1
7900	21.053	1.4545	0.1	681.82
7901	21.053	1.6364	0.1	694.45
7902	21.053	1.8182	0.1	704.55
7903	21.053	2.	0.1	711.96
7904	21.053	2.1818	0.1	716.88
7905	21.053	2.3636	0.1	719.77
7906	21.053	2.5455	0.1	721.21
7907	21.053	2.7273	0.1	721.79
7908	21.053	2.9091	0.1	721.96
7909	21.053	3.0909	0.1	721.96
7910	21.053	3.2727	0.1	721.79
7911	21.053	3.4545	0.1	721.21
7912	21.053	3.6364	0.1	719.77
7913	21.053	3.8182	0.1	716.88
7914	21.053	4.	0.1	711.96
7915	21.053	4.1818	0.1	704.55
7916	21.053	4.3636	0.1	694.45
7917	21.053	4.5455	0.1	681.82
7918	21.053	4.7273	0.1	667.1
7919	21.053	4.9091	0.1	650.95
7920	21.053	5.0909	0.1	634.15
7921	21.053	5.2727	0.1	617.42
7922	21.053	5.4545	0.1	601.41
7923	21.053	5.6364	0.1	586.66
7924	21.053	5.8182	0.1	574.62
7925	21.238	0.18182	0.1	523.02
7926	21.238	0.36364	0.1	537.06
7927	21.238	0.54545	0.1	553.96
7928	21.238	0.72727	0.1	572.57
7929	21.238	0.90909	0.1	592.33
7930	21.238	1.0909	0.1	612.46
7931	21.238	1.2727	0.1	631.99
7932	21.238	1.4545	0.1	649.87
7933	21.238	1.6364	0.1	665.12
7934	21.238	1.8182	0.1	677.08
7935	21.238	2.	0.1	685.52
7936	21.238	2.1818	0.1	690.71
7937	21.238	2.3636	0.1	693.35
7938	21.238	2.5455	0.1	694.3
7939	21.238	2.7273	0.1	694.41
7940	21.238	2.9091	0.1	694.3
7941	21.238	3.0909	0.1	694.3
7942	21.238	3.2727	0.1	694.41
7943	21.238	3.4545	0.1	694.3
7944	21.238	3.6364	0.1	693.35
7945	21.238	3.8182	0.1	690.71
7946	21.238	4.	0.1	685.52
7947	21.238	4.1818	0.1	677.08
7948	21.238	4.3636	0.1	665.12
7949	21.238	4.5455	0.1	649.87
7950	21.238	4.7273	0.1	631.99
7951	21.238	4.9091	0.1	612.46
7952	21.238	5.0909	0.1	592.33
7953	21.238	5.2727	0.1	572.57
7954	21.238	5.4545	0.1	553.96
7955	21.238	5.6364	0.1	537.06
7956	21.238	5.8182	0.1	523.02
7957	21.423	0.18182	0.1	469.72
7958	21.423	0.36364	0.1	485.79
7959	21.423	0.54545	0.1	505.02
7960	21.423	0.72727	0.1	526.61
7961	21.423	0.90909	0.1	549.98
7962	21.423	1.0909	0.1	574.21
7963	21.423	1.2727	0.1	598.04
7964	21.423	1.4545	0.1	620.
7965	21.423	1.6364	0.1	638.67
7966	21.423	1.8182	0.1	652.98
7967	21.423	2.	0.1	662.56
7968	21.423	2.1818	0.1	667.83
7969	21.423	2.3636	0.1	669.84
7970	21.423	2.5455	0.1	669.91
7971	21.423	2.7273	0.1	669.25
7972	21.423	2.9091	0.1	668.71
7973	21.423	3.0909	0.1	668.71
7974	21.423	3.2727	0.1	669.25
7975	21.423	3.4545	0.1	669.91
7976	21.423	3.6364	0.1	669.84
7977	21.423	3.8182	0.1	667.83
7978	21.423	4.	0.1	662.56
7979	21.423	4.1818	0.1	652.98
7980	21.423	4.3636	0.1	638.67
7981	21.423	4.5455	0.1	620.
7982	21.423	4.7273	0.1	598.04
7983	21.423	4.9091	0.1	574.21
7984	21.423	5.0909	0.1	549.98
7985	21.423	5.2727	0.1	526.61
7986	21.423	5.4545	0.1	505.02
7987	21.423	5.6364	0.1	485.79
7988	21.423	5.8182	0.1	469.72
7989	21.607	0.18182	0.1	414.6
7990	21.607	0.36364	0.1	432.65
7991	21.607	0.54545	0.1	454.36
7992	21.607	0.72727	0.1	479.31
7993	21.607	0.90909	0.1	506.97
7994	21.607	1.0909	0.1	536.27
7995	21.607	1.2727	0.1	565.6
7996	21.607	1.4545	0.1	592.93
7997	21.607	1.6364	0.1	616.12
7998	21.607	1.8182	0.1	633.46
7999	21.607	2.	0.1	644.27
8000	21.607	2.1818	0.1	649.2
8001	21.607	2.3636	0.1	649.93
8002	21.607	2.5455	0.1	648.52
8003	21.607	2.7273	0.1	646.67
8004	21.607	2.9091	0.1	645.5
8005	21.607	3.0909	0.1	645.5
8006	21.607	3.2727	0.1	646.67
8007	21.607	3.4545	0.1	648.52
8008	21.607	3.6364	0.1	649.93
8009	21.607	3.8182	0.1	649.2
8010	21.607	4.	0.1	644.27
8011	21.607	4.1818	0.1	633.46
8012	21.607	4.3636	0.1	616.12
8013	21.607	4.5455	0.1	592.93
8014	21.607	4.7273	0.1	565.6
8015	21.607	4.9091	0.1	536.27
8016	21.607	5.0909	0.1	506.97
8017	21.607	5.2727	0.1	479.31
8018	21.607	5.4545	0.1	454.36
8019	21.607	5.6364	0.1	432.65
8020	21.607	5.8182	0.1	414.6
8021	21.792	0.18182	0.1	357.73
8022	21.792	0.36364	0.1	377.57
8023	21.792	0.54545	0.1	401.85
8024	21.792	0.72727	0.1	430.57
8025	21.792	0.90909	0.1	463.27
8026	21.792	1.0909	0.1	498.78
8027	21.792	1.2727	0.1	535.15
8028	21.792	1.4545	0.1	569.66
8029	21.792	1.6364	0.1	599.05
8030	21.792	1.8182	0.1	620.43
8031	21.792	2.	0.1	632.49
8032	21.792	2.1818	0.1	636.26
8033	21.792	2.3636	0.1	634.57
8034	21.792	2.5455	0.1	630.69
8035	21.792	2.7273	0.1	627.07
8036	21.792	2.9091	0.1	625.01
8037	21.792	3.0909	0.1	625.01
8038	21.792	3.2727	0.1	627.07
8039	21.792	3.4545	0.1	630.69
8040	21.792	3.6364	0.1	634.57
8041	21.792	3.8182	0.1	636.26
8042	21.792	4.	0.1	632.49
8043	21.792	4.1818	0.1	620.43
8044	21.792	4.3636	0.1	599.05
8045	21.792	4.5455	0.1	569.66
8046	21.792	4.7273	0.1	535.15
8047	21.792	4.9091	0.1	498.78
8048	21.792	5.0909	0.1	463.27
8049	21.792	5.2727	0.1	430.57
8050	21.792	5.4545	0.1	401.85
8051	21.792	5.6364	0.1	377.57
8052	21.792	5.8182	0.1	357.73
8053	21.977	0.18182	0.1	299.33
8054	21.977	0.36364	0.1	320.69
8055	21.977	0.54545	0.1	347.63
8056	21.977	0.72727	0.1	380.56
8057	21.977	0.90909	0.1	419.1
8058	21.977	1.0909	0.1	462.08
8059	21.977	1.2727	0.1	507.4
8060	21.977	1.4545	0.1	551.63
8061	21.977	1.6364	0.1	589.84
8062	21.977	1.8182	0.1	616.97
8063	21.977	2.	0.1	630.18
8064	21.977	2.1818	0.1	631.11
8065	21.977	2.3636	0.1	624.96
8066	21.977	2.5455	0.1	617.07
8067	21.977	2.7273	0.1	610.84
8068	21.977	2.9091	0.1	607.59
8069	21.977	3.0909	0.1	607.59
8070	21.977	3.2727	0.1	610.84
8071	21.977	3.4545	0.1	617.07
8072	21.977	3.6364	0.1	624.96
8073	21.977	3.8182	0.1	631.11
8074	21.977	4.	0.1	630.18
8075	21.977	4.1818	0.1	616.97
8076	21.977	4.3636	0.1	589.84
8077	21.977	4.5455	0.1	551.63
8078	21.977	4.7273	0.1	507.4
8079	21.977	4.9091	0.1	462.08
8080	21.977	5.0909	0.1	419.1
8081	21.977	5.2727	0.1	380.56
8082	21.977	5.4545	0.1	347.63
8083	21.977	5.6364	0.1	320.69
8084	21.977	5.8182	0.1	299.33
8085	22.161	0.18182	0.1	239.97
8086	22.161	0.36364	0.1	262.55
8087	22.161	0.54545	0.1	292.43
8088	22.161	0.72727	0.1	330.13
8089	22.161	0.90909	0.1	375.27
8090	22.161	1.0909	0.1	426.89
8091	22.161	1.2727	0.1	483.21
8092	22.161	1.4545	0.1	540.66
8093	22.161	1.6364	0.1	592.46
8094	22.161	1.8182	0.1	628.53
8095	22.161	2.	0.1	642.74
8096	22.161	2.1818	0.1	637.52
8097	22.161	2.3636	0.1	622.76
8098	22.161	2.5455	0.1	608.31
8099	22.161	2.7273	0.1	598.31
8100	22.161	2.9091	0.1	593.39
8101	22.161	3.0909	0.1	593.39
8102	22.161	3.2727	0.1	598.31
8103	22.161	3.4545	0.1	608.31
8104	22.161	3.6364	0.1	622.76
8105	22.161	3.8182	0.1	637.52
8106	22.161	4.	0.1	642.74
8107	22.161	4.1818	0.1	628.53
8108	22.161	4.3636	0.1	592.46
8109	22.161	4.5455	0.1	540.66
8110	22.161	4.7273	0.1	483.21
8111	22.161	4.9091	0.1	426.89
8112	22.161	5.0909	0.1	375.27
8113	22.161	5.2727	0.1	330.13
8114	22.161	5.4545	0.1	292.43
8115	22.161	5.6364	0.1	262.55
8116	22.161	5.8182	0.1	239.97
8117	22.346	0.18182	0.1	180.56
8118	22.346	0.36364	0.1	204.47
8119	22.346	0.54545	0.1	238.16
8120	22.346	0.72727	0.1	281.5
8121	22.346	0.90909	0.1	333.79
8122	22.346	1.0909	0.1	394.61
8123	22.346	1.2727	0.1	463.44
8124	22.346	1.4545	0.1	538.65
8125	22.346	1.6364	0.1	611.73
8126	22.346	1.8182	0.1	665.49
8127	22.346	2.	0.1	681.
8128	22.346	2.1818	0.1	660.99
8129	22.346	2.3636	0.1	630.49
8130	22.346	2.5455	0.1	605.23
8131	22.346	2.7273	0.1	589.3
8132	22.346	2.9091	0.1	581.89
8133	22.346	3.0909	0.1	581.89
8134	22.346	3.2727	0.1	589.3
8135	22.346	3.4545	0.1	605.23
8136	22.346	3.6364	0.1	630.49
8137	22.346	3.8182	0.1	660.99
8138	22.346	4.	0.1	681.
8139	22.346	4.1818	0.1	665.49
8140	22.346	4.3636	0.1	611.73
8141	22.346	4.5455	0.1	538.65
8142	22.346	4.7273	0.1	463.44
8143	22.346	4.9091	0.1	394.61
8144	22.346	5.0909	0.1	333.79
8145	22.346	5.2727	0.1	281.5
8146	22.346	5.4545	0.1	238.16
8147	22.346	5.6364	0.1	204.47
8148	22.346	5.8182	0.1	180.56
8149	22.531	0.18182	0.1	122.79
8150	22.531	0.36364	0.1	149.78
8151	22.531	0.54545	0.1	189.64
8152	22.531	0.72727	0.1	239.78
8153	22.531	0.90909	0.1	299.18
8154	22.531	1.0909	0.1	368.38
8155	22.531	1.2727	0.1	449.63
8156	22.531	1.4545	0.1	544.23
8157	22.531	1.6364	0.1	656.81
8158	22.531	1.8182	0.1	751.86
8159	22.531	2.	0.1	772.34
8160	22.531	2.1818	0.1	720.13
8161	22.531	2.3636	0.1	653.27
8162	22.531	2.5455	0.1	607.62
8163	22.531	2.7273	0.1	582.19
8164	22.531	2.9091	0.1	570.51
8165	22.531	3.0909	0.1	570.51
8166	22.531	3.2727	0.1	582.19
8167	22.531	3.4545	0.1	607.62
8168	22.531	3.6364	0.1	653.27
8169	22.531	3.8182	0.1	720.13
8170	22.531	4.	0.1	772.34
8171	22.531	4.1818	0.1	751.86
8172	22.531	4.3636	0.1	656.81
8173	22.531	4.5455	0.1	544.23
8174	22.531	4.7273	0.1	449.63
8175	22.531	4.9091	0.1	368.38
8176	22.531	5.0909	0.1	299.18
8177	22.531	5.2727	0.1	239.78
8178	22.531	5.4545	0.1	189.64
8179	22.531	5.6364	0.1	149.78
8180	22.531	5.8182	0.1	122.79
8181	22.715	0.18182	0.1	72.372
8182	22.715	0.36364	0.1	111.85
8183	22.715	0.54545	0.1	163.1
8184	22.715	0.72727	0.1	222.16
8185	22.715	0.90909	0.1	289.35
8186	22.715	1.0909	0.1	366.81
8187	22.715	1.2727	0.1	458.71
8188	22.715	1.4545	0.1	574.35
8189	22.715	1.6364	0.1	728.98
8190	22.715	1.8182	0.1	965.62
8191	22.715	2.	0.1	1058.1
8192	22.715	2.1818	0.1	854.39
8193	22.715	2.3636	0.1	692.19
8194	22.715	2.5455	0.1	611.8
8195	22.715	2.7273	0.1	570.99
8196	22.715	2.9091	0.1	552.84
8197	22.715	3.0909	0.1	552.84
8198	22.715	3.2727	0.1	570.99
8199	22.715	3.4545	0.1	611.8
8200	22.715	3.6364	0.1	692.19
8201	22.715	3.8182	0.1	854.39
8202	22.715	4.	0.1	1058.1
8203	22.715	4.1818	0.1	965.63
8204	22.715	4.3636	0.1	728.98
8205	22.715	4.5455	0.1	574.35
8206	22.715	4.7273	0.1	458.71
8207	22.715	4.9091	0.1	366.81
8208	22.715	5.0909	0.1	289.35
8209	22.715	5.2727	0.1	222.16
8210	22.715	5.4545	0.1	163.1
8211	22.715	5.6364	0.1	111.85
8212	22.715	5.8182	0.1	72.372
8213	23.222	4.	0.1	768.33
8214	23.378	4.	0.1	545.74
8215	23.533	4.	0.1	429.42
8216	23.689	4.	0.1	368.74
8217	23.844	4.	0.1	349.87
8218	23.844	2.	0.1	349.87
8219	23.689	2.	0.1	368.74
8220	23.533	2.	0.1	429.42
8221	23.378	2.	0.1	545.74
8222	23.222	2.	0.1	768.33
8223	22.9	3.8182	0.1	1103.9
8224	22.9	3.6364	0.1	721.23
8225	22.9	3.4545	0.1	602.09
8226	22.9	3.2727	0.1	543.52
8227	22.9	3.0909	0.1	519.07
8228	22.9	2.9091	0.1	519.07
8229	22.9	2.7273	0.1	543.52
8230	22.9	2.5455	0.1	602.09
8231	22.9	2.3636	0.1	721.23
8232	22.9	2.1818	0.1	1103.9
8233	23.067	5.8182	0.1	15.73
8234	23.067	5.6364	0.1	33.939
8235	23.067	5.4545	0.1	56.169
8236	23.067	5.2727	0.1	84.479
8237	23.067	5.0909	0.1	120.2
8238	23.067	4.9091	0.1	164.9
8239	23.067	4.7273	0.1	220.99
8240	23.067	4.5455	0.1	295.61
8241	23.067	4.3636	0.1	394.33
8242	23.067	4.1818	0.1	610.26
8243	23.067	4.	0.1	1650.5
8244	22.9	4.	0.1	1956.3
8245	22.9	4.1818	0.1	927.64
8246	22.9	4.3636	0.1	562.47
8247	22.9	4.5455	0.1	432.01
8248	22.9	4.7273	0.1	333.65
8249	22.9	4.9091	0.1	260.3
8250	22.9	5.0909	0.1	200.61
8251	22.9	5.2727	0.1	150.42
8252	22.9	5.4545	0.1	107.24
8253	22.9	5.6364	0.1	69.686
8254	22.9	5.8182	0.1	35.729
8255	23.067	0.18182	0.1	15.73
8256	23.067	0.36364	0.1	33.939
8257	23.067	0.54545	0.1	56.169
8258	23.067	0.72727	0.1	84.479
8259	23.067	0.90909	0.1	120.2
8260	23.067	1.0909	0.1	164.9
8261	23.067	1.2727	0.1	220.99
8262	23.067	1.4545	0.1	295.61
8263	23.067	1.6364	0.1	394.33
8264	23.067	1.8182	0.1	610.26
8265	23.067	2.	0.1	1650.5
8266	22.9	2.	0.1	1956.3
8267	22.9	1.8182	0.1	927.64
8268	22.9	1.6364	0.1	562.47
8269	22.9	1.4545	0.1	432.01
8270	22.9	1.2727	0.1	333.65
8271	22.9	1.0909	0.1	260.3
8272	22.9	0.90909	0.1	200.61
8273	22.9	0.72727	0.1	150.42
8274	22.9	0.54545	0.1	107.24
8275	22.9	0.36364	0.1	69.686
8276	22.9	0.18182	0.1	35.729
8277	23.067	6.	0.1	1.5182
8278	23.222	6.	0.1	11.509
8279	23.378	6.	0.1	19.425
8280	23.533	6.	0.1	23.417
8281	23.689	6.	0.1	23.736
8282	23.844	6.	0.1	19.303
8283	24.	6.	0.1	7.7888
8284	24.	5.8182	0.1	26.623
8285	24.	5.6364	0.1	38.745
8286	24.	5.4545	0.1	51.192
8287	24.	5.2727	0.1	70.651
8288	24.	5.0909	0.1	98.407
8289	24.	4.9091	0.1	133.51
8290	24.	4.7273	0.1	173.95
8291	24.	4.5455	0.1	216.33
8292	24.	4.3636	0.1	254.77
8293	24.	4.1818	0.1	280.79
8294	24.	4.	0.1	285.9
8295	24.	3.8182	0.1	266.9
8296	24.	3.6364	0.1	228.88
8297	24.	3.4545	0.1	182.79
8298	24.	3.2727	0.1	140.51
8299	24.	3.0909	0.1	113.82
8300	24.	2.9091	0.1	113.82
8301	24.	2.7273	0.1	140.51
8302	24.	2.5455	0.1	182.79
8303	24.	2.3636	0.1	228.88
8304	24.	2.1818	0.1	266.9
8305	24.	2.	0.1	285.9
8306	24.	1.8182	0.1	280.78
8307	24.	1.6364	0.1	254.77
8308	24.	1.4545	0.1	216.33
8309	24.	1.2727	0.1	173.95
8310	24.	1.0909	0.1	133.51
8311	24.	0.90909	0.1	98.407
8312	24.	0.72727	0.1	70.651
8313	24.	0.54545	0.1	51.192
8314	24.	0.36364	0.1	38.745
8315	24.	0.18182	0.1	26.623
8316	1.5894e-015	0.18182	0.1	1375.3
8317	3.1789e-015	0.36364	0.1	2362.1
8318	4.7683e-015	0.54545	0.1	2881.
8319	6.3578e-015	0.72727	0.1	3209.4
8320	7.9472e-015	0.90909	0.1	3428.8
8321	9.5366e-015	1.0909	0.1	3585.3
8322	1.1126e-014	1.2727	0.1	3701.1
8323	1.2716e-014	1.4545	0.1	3788.9
8324	1.4305e-014	1.6364	0.1	3856.5
8325	1.5894e-014	1.8182	0.1	3908.9
8326	1.7484e-014	2.	0.1	3949.5
8327	1.9073e-014	2.1818	0.1	3980.7
8328	2.0663e-014	2.3636	0.1	4004.
8329	2.2252e-014	2.5455	0.1	4020.6
8330	2.3842e-014	2.7273	0.1	4031.3
8331	2.5431e-014	2.9091	0.1	4036.5
8332	2.702e-014	3.0909	0.1	4036.5
8333	2.861e-014	3.2727	0.1	4031.3
8334	3.0199e-014	3.4545	0.1	4020.6
8335	3.1789e-014	3.6364	0.1	4004.
8336	3.3378e-014	3.8182	0.1	3980.7
8337	3.4968e-014	4.	0.1	3949.5
8338	3.6557e-014	4.1818	0.1	3908.9
8339	3.8147e-014	4.3636	0.1	3856.5
8340	3.9736e-014	4.5455	0.1	3788.9
8341	4.1325e-014	4.7273	0.1	3701.1
8342	4.2915e-014	4.9091	0.1	3585.3
8343	4.4504e-014	5.0909	0.1	3428.8
8344	4.6094e-014	5.2727	0.1	3209.4
8345	4.7683e-014	5.4545	0.1	2881.
8346	4.9273e-014	5.6364	0.1	2362.1
8347	5.0862e-014	5.8182	0.1	1375.3
8348	24.	0.	0.1	7.7887
8349	23.844	0.	0.1	19.303
8350	23.689	0.	0.1	23.736
8351	23.533	0.	0.1	23.417
8352	23.378	0.	0.1	19.425
8353	23.222	0.	0.1	11.509
8354	23.067	0.	0.1	1.5181
8355	22.9	0.	0.1	4.7284
8356	22.715	1.4922e-029	0.1	50.457
8357	22.531	1.4801e-029	0.1	108.56
8358	22.346	1.468e-029	0.1	167.55
8359	22.161	1.4558e-029	0.1	227.07
8360	21.977	1.4437e-029	0.1	286.15
8361	21.792	1.4316e-029	0.1	344.1
8362	21.607	1.4194e-029	0.1	400.48
8363	21.423	1.4073e-029	0.1	455.09
8364	21.238	1.3952e-029	0.1	507.95
8365	21.053	1.383e-029	0.1	559.14
8366	20.869	1.3709e-029	0.1	608.84
8367	20.684	1.3588e-029	0.1	657.26
8368	20.499	1.3466e-029	0.1	704.6
8369	20.315	1.3345e-029	0.1	751.05
8370	20.13	1.3224e-029	0.1	796.77
8371	19.945	1.3102e-029	0.1	841.93
8372	19.76	1.2981e-029	0.1	886.65
8373	19.576	1.286e-029	0.1	931.03
8374	19.391	1.2738e-029	0.1	975.17
8375	19.206	1.2617e-029	0.1	1019.1
8376	19.022	1.2496e-029	0.1	1063.
8377	18.837	1.2374e-029	0.1	1106.8
8378	18.652	1.2253e-029	0.1	1150.6
8379	18.468	1.2132e-029	0.1	1194.4
8380	18.283	1.2011e-029	0.1	1238.3
8381	18.098	1.1889e-029	0.1	1282.2
8382	17.914	1.1768e-029	0.1	1326.2
8383	17.729	1.1647e-029	0.1	1370.4
8384	17.544	1.1525e-029	0.1	1414.6
8385	17.36	1.1404e-029	0.1	1459.
8386	17.175	1.1283e-029	0.1	1503.5
8387	16.99	1.1161e-029	0.1	1548.2
8388	16.806	1.104e-029	0.1	1593.
8389	16.621	1.0919e-029	0.1	1638.
8390	16.436	1.0797e-029	0.1	1683.1
8391	16.252	1.0676e-029	0.1	1728.4
8392	16.067	1.0555e-029	0.1	1773.9
8393	15.882	1.0433e-029	0.1	1819.6
8394	15.698	1.0312e-029	0.1	1865.5
8395	15.513	1.0191e-029	0.1	1911.5
8396	15.328	1.0069e-029	0.1	1957.7
8397	15.144	9.9481e-030	0.1	2004.1
8398	14.959	9.8268e-030	0.1	2050.7
8399	14.774	9.7055e-030	0.1	2097.5
8400	14.59	9.5842e-030	0.1	2144.5
8401	14.405	9.4628e-030	0.1	2191.7
8402	14.22	9.3415e-030	0.1	2239.1
8403	14.035	9.2202e-030	0.1	2286.7
8404	13.851	9.0989e-030	0.1	2334.5
8405	13.666	8.9776e-030	0.1	2382.4
8406	13.481	8.8562e-030	0.1	2430.6
8407	13.297	8.7349e-030	0.1	2479.
8408	13.112	8.6136e-030	0.1	2527.6
8409	12.927	8.4923e-030	0.1	2576.5
8410	12.743	8.371e-030	0.1	2625.5
8411	12.558	8.2497e-030	0.1	2674.7
8412	12.373	8.1283e-030	0.1	2724.2
8413	12.189	8.007e-030	0.1	2773.9
8414	12.004	7.8857e-030	0.1	2823.7
8415	11.819	7.7644e-030	0.1	2873.9
8416	11.635	7.6431e-030	0.1	2924.2
8417	11.45	7.5217e-030	0.1	2974.7
8418	11.265	7.4004e-030	0.1	3025.5
8419	11.081	7.2791e-030	0.1	3076.6
8420	10.896	7.1578e-030	0.1	3127.8
8421	10.711	7.0365e-030	0.1	3179.3
8422	10.527	6.9152e-030	0.1	3231.
8423	10.342	6.7938e-030	0.1	3283.
8424	10.157	6.6725e-030	0.1	3335.2
8425	9.9726	6.5512e-030	0.1	3387.7
8426	9.7879	6.4299e-030	0.1	3440.4
8427	9.6032	6.3086e-030	0.1	3493.4
8428	9.4185	6.1872e-030	0.1	3546.7
8429	9.2339	6.0659e-030	0.1	3600.2
8430	9.0492	5.9446e-030	0.1	3654.1
8431	8.8645	5.8233e-030	0.1	3708.2
8432	8.6798	5.702e-030	0.1	3762.6
8433	8.4952	5.5806e-030	0.1	3817.3
8434	8.3105	5.4593e-030	0.1	3872.3
8435	8.1258	5.338e-030	0.1	3927.7
8436	7.9411	5.2167e-030	0.1	3983.4
8437	7.7565	5.0954e-030	0.1	4039.4
8438	7.5718	4.9741e-030	0.1	4095.8
8439	7.3871	4.8527e-030	0.1	4152.6
8440	7.2024	4.7314e-030	0.1	4209.8
8441	7.0177	4.6101e-030	0.1	4267.4
8442	6.8331	4.4888e-030	0.1	4325.4
8443	6.6484	4.3675e-030	0.1	4383.8
8444	6.4637	4.2461e-030	0.1	4442.7
8445	6.279	4.1248e-030	0.1	4502.1
8446	6.0944	4.0035e-030	0.1	4562.
8447	5.9097	3.8822e-030	0.1	4622.4
8448	5.725	3.7609e-030	0.1	4683.4
8449	5.5403	3.6396e-030	0.1	4744.9
8450	5.3556	3.5182e-030	0.1	4807.1
8451	5.171	3.3969e-030	0.1	4869.8
8452	4.9863	3.2756e-030	0.1	4933.1
8453	4.8016	3.1543e-030	0.1	4997.1
8454	4.6169	3.033e-030	0.1	5061.7
8455	4.4323	2.9116e-030	0.1	5126.9
8456	4.2476	2.7903e-030	0.1	5192.7
8457	4.0629	2.669e-030	0.1	5259.1
8458	3.8782	2.5477e-030	0.1	5326.
8459	3.6935	2.4264e-030	0.1	5393.2
8460	3.5089	2.3051e-030	0.1	5460.7
8461	3.3242	2.1837e-030	0.1	5528.2
8462	3.1395	2.0624e-030	0.1	5595.5
8463	2.9548	1.9411e-030	0.1	5662.1
8464	2.7702	1.8198e-030	0.1	5727.6
8465	2.5855	1.6985e-030	0.1	5791.3
8466	2.4008	1.5771e-030	0.1	5852.3
8467	2.2161	1.4558e-030	0.1	5909.2
8468	2.0315	1.3345e-030	0.1	5960.5
8469	1.8468	1.2132e-030	0.1	6003.8
8470	1.6621	1.0919e-030	0.1	6036.
8471	1.4774	9.7055e-031	0.1	6052.3
8472	1.2927	8.4923e-031	0.1	6046.2
8473	1.1081	7.2791e-031	0.1	6007.3
8474	0.92339	6.0659e-031	0.1	5919.4
8475	0.73871	4.8527e-031	0.1	5754.1
8476	0.55403	3.6396e-031	0.1	5456.4
8477	0.36935	2.4264e-031	0.1	4927.4
8478	0.18468	1.2132e-031	0.1	3795.7
8479	0.	0.	0.1	2244.1
8480	3.937e-014	6.	0.1	2244.1
8481	0.18468	6.	0.1	3795.7
8482	0.36935	6.	0.1	4927.4
8483	0.55403	6.	0.1	5456.4
8484	0.73871	6.	0.1	5754.1
8485	0.92339	6.	0.1	5919.4
8486	1.1081	6.	0.1	6007.3
8487	1.2927	6.	0.1	6046.2
8488	1.4774	6.	0.1	6052.3
8489	1.6621	6.	0.1	6036.
8490	1.8468	6.	0.1	6003.8
8491	2.0315	6.	0.1	5960.5
8492	2.2161	6.	0.1	5909.2
8493	2.4008	6.	0.1	5852.3
8494	2.5855	6.	0.1	5791.3
8495	2.7702	6.	0.1	5727.6
8496	2.9548	6.	0.1	5662.1
8497	3.1395	6.	0.1	5595.5
8498	3.3242	6.	0.1	5528.2
8499	3.5089	6.	0.1	5460.7
8500	3.6935	6.	0.1	5393.2
8501	3.8782	6.	0.1	5326.
8502	4.0629	6.	0.1	5259.1
8503	4.2476	6.	0.1	5192.7
8504	4.4323	6.	0.1	5126.9
8505	4.6169	6.	0.1	5061.7
8506	4.8016	6.	0.1	4997.1
8507	4.9863	6.	0.1	4933.1
8508	5.171	6.	0.1	4869.8
8509	5.3556	6.	0.1	4807.1
8510	5.5403	6.	0.1	4744.9
8511	5.725	6.	0.1	4683.4
8512	5.9097	6.	0.1	4622.4
8513	6.0944	6.	0.1	4562.
8514	6.279	6.	0.1	4502.1
8515	6.4637	6.	0.1	4442.7
8516	6.6484	6.	0.1	4383.8
8517	6.8331	6.	0.1	4325.4
8518	7.0177	6.	0.1	4267.4
8519	7.2024	6.	0.1	4209.8
8520	7.3871	6.	0.1	4152.6
8521	7.5718	6.	0.1	4095.8
8522	7.7565	6.	0.1	4039.4
8523	7.9411	6.	0.1	3983.4
8524	8.1258	6.	0.1	3927.7
8525	8.3105	6.	0.1	3872.3
8526	8.4952	6.	0.1	3817.3
8527	8.6798	6.	0.1	3762.6
8528	8.8645	6.	0.1	3708.2
8529	9.0492	6.	0.1	3654.1
8530	9.2339	6.	0.1	3600.2
8531	9.4185	6.	0.1	3546.7
8532	9.6032	6.	0.1	3493.4
8533	9.7879	6.	0.1	3440.4
8534	9.9726	6.	0.1	3387.7
8535	10.157	6.	0.1	3335.2
8536	10.342	6.	0.1	3283.
8537	10.527	6.	0.1	3231.
8538	10.711	6.	0.1	3179.3
8539	10.896	6.	0.1	3127.8
8540	11.081	6.	0.1	3076.6
8541	11.265	6.	0.1	3025.5
8542	11.45	6.	0.1	2974.7
8543	11.635	6.	0.1	2924.2
8544	11.819	6.	0.1	2873.9
8545	12.004	6.	0.1	2823.7
8546	12.189	6.	0.1	2773.9
8547	12.373	6.	0.1	2724.2
8548	12.558	6.	0.1	2674.7
8549	12.743	6.	0.1	2625.5
8550	12.927	6.	0.1	2576.5
8551	13.112	6.	0.1	2527.6
8552	13.297	6.	0.1	2479.
8553	13.481	6.	0.1	2430.6
8554	13.666	6.	0.1	2382.4
8555	13.851	6.	0.1	2334.5
8556	14.035	6.	0.1	2286.7
8557	14.22	6.	0.1	2239.1
8558	14.405	6.	0.1	2191.7
8559	14.59	6.	0.1	2144.5
8560	14.774	6.	0.1	2097.5
8561	14.959	6.	0.1	2050.7
8562	15.144	6.	0.1	2004.1
8563	15.328	6.	0.1	1957.7
8564	15.513	6.	0.1	1911.5
8565	15.698	6.	0.1	1865.5
8566	15.882	6.	0.1	1819.6
8567	16.067	6.	0.1	1773.9
8568	16.252	6.	0.1	1728.4
8569	16.436	6.	0.1	1683.1
8570	16.621	6.	0.1	1638.
8571	16.806	6.	0.1	1593.
8572	16.99	6.	0.1	1548.2
8573	17.175	6.	0.1	1503.5
8574	17.36	6.	0.1	1459.
8575	17.544	6.	0.1	1414.6
8576	17.729	6.	0.1	1370.4
8577	17.914	6.	0.1	1326.2
8578	18.098	6.	0.1	1282.2
8579	18.283	6.	0.1	1238.3
8580	18.468	6.	0.1	1194.4
8581	18.652	6.	0.1	1150.6
8582	18.837	6.	0.1	1106.8
8583	19.022	6.	0.1	1063.
8584	19.206	6.	0.1	1019.1
8585	19.391	6.	0.1	975.17
8586	19.576	6.	0.1	931.03
8587	19.76	6.	0.1	886.65
8588	19.945	6.	0.1	841.93
8589	20.13	6.	0.1	796.78
8590	20.315	6.	0.1	751.05
8591	20.499	6.	0.1	704.6
8592	20.684	6.	0.1	657.26
8593	20.869	6.	0.1	608.84
8594	21.053	6.	0.1	559.14
8595	21.238	6.	0.1	507.95
8596	21.423	6.	0.1	455.09
8597	21.607	6.	0.1	400.48
8598	21.792	6.	0.1	344.1
8599	21.977	6.	0.1	286.15
8600	22.161	6.	0.1	227.07
8601	22.346	6.	0.1	167.55
8602	22.531	6.	0.1	108.56
8603	22.715	6.	0.1	50.457
8604	22.9	6.	0.1	4.7284
8605	22.715	6.	0.	50.457
8606	22.531	6.	0.	108.56
8607	22.346	6.	0.	167.55
8608	22.161	6.	0.	227.07
8609	21.977	6.	0.	286.15
8610	21.792	6.	0.	344.1
8611	21.607	6.	0.	400.48
8612	21.423	6.	0.	455.09
8613	21.238	6.	0.	507.95
8614	21.053	6.	0.	559.14
8615	20.869	6.	0.	608.84
8616	20.684	6.	0.	657.26
8617	20.499	6.	0.	704.6
8618	20.315	6.	0.	751.05
8619	20.13	6.	0.	796.78
8620	19.945	6.	0.	841.93
8621	19.76	6.	0.	886.65
8622	19.576	6.	0.	931.03
8623	19.391	6.	0.	975.17
8624	19.206	6.	0.	1019.1
8625	19.022	6.	0.	1063.
8626	18.837	6.	0.	1106.8
8627	18.652	6.	0.	1150.6
8628	18.468	6.	0.	1194.4
8629	18.283	6.	0.	1238.3
8630	18.098	6.	0.	1282.2
8631	17.914	6.	0.	1326.2
8632	17.729	6.	0.	1370.4
8633	17.544	6.	0.	1414.6
8634	17.36	6.	0.	1459.
8635	17.175	6.	0.	1503.5
8636	16.99	6.	0.	1548.2
8637	16.806	6.	0.	1593.
8638	16.621	6.	0.	1638.
8639	16.436	6.	0.	1683.1
8640	16.252	6.	0.	1728.4
8641	16.067	6.	0.	1773.9
8642	15.882	6.	0.	1819.6
8643	15.698	6.	0.	1865.5
8644	15.513	6.	0.	1911.5
8645	15.328	6.	0.	1957.7
8646	15.144	6.	0.	2004.1
8647	14.959	6.	0.	2050.7
8648	14.774	6.	0.	2097.5
8649	14.59	6.	0.	2144.5
8650	14.405	6.	0.	2191.7
8651	14.22	6.	0.	2239.1
8652	14.035	6.	0.	2286.7
8653	13.851	6.	0.	2334.5
8654	13.666	6.	0.	2382.4
8655	13.481	6.	0.	2430.6
8656	13.297	6.	0.	2479.
8657	13.112	6.	0.	2527.6
8658	12.927	6.	0.	2576.5
8659	12.743	6.	0.	2625.5
8660	12.558	6.	0.	2674.7
8661	12.373	6.	0.	2724.2
8662	12.189	6.	0.	2773.9
8663	12.004	6.	0.	2823.7
8664	11.819	6.	0.	2873.9
8665	11.635	6.	0.	2924.2
8666	11.45	6.	0.	2974.7
8667	11.265	6.	0.	3025.5
8668	11.081	6.	0.	3076.6
8669	10.896	6.	0.	3127.8
8670	10.711	6.	0.	3179.3
8671	10.527	6.	0.	3231.
8672	10.342	6.	0.	3283.
8673	10.157	6.	0.	3335.2
8674	9.9726	6.	0.	3387.7
8675	9.7879	6.	0.	3440.4
8676	9.6032	6.	0.	3493.4
8677	9.4185	6.	0.	3546.7
8678	9.2339	6.	0.	3600.2
8679	9.0492	6.	0.	3654.1
8680	8.8645	6.	0.	3708.2
8681	8.6798	6.	0.	3762.6
8682	8.4952	6.	0.	3817.3
8683	8.3105	6.	0.	3872.3
8684	8.1258	6.	0.	3927.7
8685	7.9411	6.	0.	3983.4
8686	7.7565	6.	0.	4039.4
8687	7.5718	6.	0.	4095.8
8688	7.3871	6.	0.	4152.6
8689	7.2024	6.	0.	4209.8
8690	7.0177	6.	0.	4267.4
8691	6.8331	6.	0.	4325.4
8692	6.6484	6.	0.	4383.8
8693	6.4637	6.	0.	4442.7
8694	6.279	6.	0.	4502.1
8695	6.0944	6.	0.	4562.
8696	5.9097	6.	0.	4622.4
8697	5.725	6.	0.	4683.4
8698	5.5403	6.	0.	4744.9
8699	5.3556	6.	0.	4807.1
8700	5.171	6.	0.	4869.8
8701	4.9863	6.	0.	4933.1
8702	4.8016	6.	0.	4997.1
8703	4.6169	6.	0.	5061.7
8704	4.4323	6.	0.	5126.9
8705	4.2476	6.	0.	5192.7
8706	4.0629	6.	0.	5259.1
8707	3.8782	6.	0.	5326.
8708	3.6935	6.	0.	5393.2
8709	3.5089	6.	0.	5460.7
8710	3.3242	6.	0.	5528.2
8711	3.1395	6.	0.	5595.5
8712	2.9548	6.	0.	5662.1
8713	2.7702	6.	0.	5727.6
8714	2.5855	6.	0.	5791.3
8715	2.4008	6.	0.	5852.3
8716	2.2161	6.	0.	5909.2
8717	2.0315	6.	0.	5960.5
8718	1.8468	6.	0.	6003.8
8719	1.6621	6.	0.	6036.
8720	1.4774	6.	0.	6052.3
8721	1.2927	6.	0.	6046.2
8722	1.1081	6.	0.	6007.3
8723	0.92339	6.	0.	5919.4
8724	0.73871	6.	0.	5754.1
8725	0.55403	6.	0.	5456.4
8726	0.36935	6.	0.	4927.4
8727	0.18468	6.	0.	3795.7
8728	22.9	6.	0.	4.7284
8729	3.937e-014	6.	0.	2244.1
8730	0.18468	1.2132e-031	0.	3795.7
8731	0.36935	2.4264e-031	0.	4927.4
8732	0.55403	3.6396e-031	0.	5456.4
8733	0.73871	4.8527e-031	0.	5754.1
8734	0.92339	6.0659e-031	0.	5919.4
8735	1.1081	7.2791e-031	0.	6007.3
8736	1.2927	8.4923e-031	0.	6046.2
8737	1.4774	9.7055e-031	0.	6052.3
8738	1.6621	1.0919e-030	0.	6036.
8739	1.8468	1.2132e-030	0.	6003.8
8740	2.0315	1.3345e-030	0.	5960.5
8741	2.2161	1.4558e-030	0.	5909.2
8742	2.4008	1.5771e-030	0.	5852.3
8743	2.5855	1.6985e-030	0.	5791.3
8744	2.7702	1.8198e-030	0.	5727.6
8745	2.9548	1.9411e-030	0.	5662.1
8746	3.1395	2.0624e-030	0.	5595.5
8747	3.3242	2.1837e-030	0.	5528.2
8748	3.5089	2.3051e-030	0.	5460.7
8749	3.6935	2.4264e-030	0.	5393.2
8750	3.8782	2.5477e-030	0.	5326.
8751	4.0629	2.669e-030	0.	5259.1
8752	4.2476	2.7903e-030	0.	5192.7
8753	4.4323	2.9116e-030	0.	5126.9
8754	4.6169	3.033e-030	0.	5061.7
8755	4.8016	3.1543e-030	0.	4997.1
8756	4.9863	3.2756e-030	0.	4933.1
8757	5.171	3.3969e-030	0.	4869.8
8758	5.3556	3.5182e-030	0.	4807.1
8759	5.5403	3.6396e-030	0.	4744.9
8760	5.725	3.7609e-030	0.	4683.4
8761	5.9097	3.8822e-030	0.	4622.4
8762	6.0944	4.0035e-030	0.	4562.
8763	6.279	4.1248e-030	0.	4502.1
8764	6.4637	4.2461e-030	0.	4442.7
8765	6.6484	4.3675e-030	0.	4383.8
8766	6.8331	4.4888e-030	0.	4325.4
8767	7.0177	4.6101e-030	0.	4267.4
8768	7.2024	4.7314e-030	0.	4209.8
8769	7.3871	4.8527e-030	0.	4152.6
8770	7.5718	4.9741e-030	0.	4095.8
8771	7.7565	5.0954e-030	0.	4039.4
8772	7.9411	5.2167e-030	0.	3983.4
8773	8.1258	5.338e-030	0.	3927.7
8774	8.3105	5.4593e-030	0.	3872.3
8775	8.4952	5.5806e-030	0.	3817.3
8776	8.6798	5.702e-030	0.	3762.6
8777	8.8645	5.8233e-030	0.	3708.2
8778	9.0492	5.9446e-030	0.	3654.1
8779	9.2339	6.0659e-030	0.	3600.2
8780	9.4185	6.1872e-030	0.	3546.7
8781	9.6032	6.3086e-030	0.	3493.4
8782	9.7879	6.4299e-030	0.	3440.4
8783	9.9726	6.5512e-030	0.	3387.7
8784	10.157	6.6725e-030	0.	3335.2
8785	10.342	6.7938e-030	0.	3283.
8786	10.527	6.9152e-030	0.	3231.
8787	10.711	7.0365e-030	0.	3179.3
8788	10.896	7.1578e-030	0.	3127.8
8789	11.081	7.2791e-030	0.	3076.6
8790	11.265	7.4004e-030	0.	3025.5
8791	11.45	7.5217e-030	0.	2974.7
8792	11.635	7.6431e-030	0.	2924.2
8793	11.819	7.7644e-030	0.	2873.9
8794	12.004	7.8857e-030	0.	2823.7
8795	12.189	8.007e-030	0.	2773.9
8796	12.373	8.1283e-030	0.	2724.2
8797	12.558	8.2497e-030	0.	2674.7
8798	12.743	8.371e-030	0.	2625.5
8799	12.927	8.4923e-030	0.	2576.5
8800	13.112	8.6136e-030	0.	2527.6
8801	13.297	8.7349e-030	0.	2479.
8802	13.481	8.8562e-030	0.	2430.6
8803	13.666	8.9776e-030	0.	2382.4
8804	13.851	9.0989e-030	0.	2334.5
8805	14.035	9.2202e-030	0.	2286.7
8806	14.22	9.3415e-030	0.	2239.1
8807	14.405	9.4628e-030	0.	2191.7
8808	14.59	9.5842e-030	0.	2144.5
8809	14.774	9.7055e-030	0.	2097.5
8810	14.959	9.8268e-030	0.	2050.7
8811	15.144	9.9481e-030	0.	2004.1
8812	15.328	1.0069e-029	0.	1957.7
8813	15.513	1.0191e-029	0.	1911.5
8814	15.698	1.0312e-029	0.	1865.5
8815	15.882	1.0433e-029	0.	1819.6
8816	16.067	1.0555e-029	0.	1773.9
8817	16.252	1.0676e-029	0.	1728.4
8818	16.436	1.0797e-029	0.	1683.1
8819	16.621	1.0919e-029	0.	1638.
8820	16.806	1.104e-029	0.	1593.
8821	16.99	1.1161e-029	0.	1548.2
8822	17.175	1.1283e-029	0.	1503.5
8823	17.36	1.1404e-029	0.	1459.
8824	17.544	1.1525e-029	0.	1414.6
8825	17.729	1.1647e-029	0.	1370.4
8826	17.914	1.1768e-029	0.	1326.2
8827	18.098	1.1889e-029	0.	1282.2
8828	18.283	1.2011e-029	0.	1238.3
8829	18.468	1.2132e-029	0.	1194.4
8830	18.652	1.2253e-029	0.	1150.6
8831	18.837	1.2374e-029	0.	1106.8
8832	19.022	1.2496e-029	0.	1063.
8833	19.206	1.2617e-029	0.	1019.1
8834	19.391	1.2738e-029	0.	975.17
8835	19.576	1.286e-029	0.	931.03
8836	19.76	1.2981e-029	0.	886.65
8837	19.945	1.3102e-029	0.	841.93
8838	20.13	1.3224e-029	0.	796.77
8839	20.315	1.3345e-029	0.	751.05
8840	20.499	1.3466e-029	0.	704.6
8841	20.684	1.3588e-029	0.	657.26
8842	20.869	1.3709e-029	0.	608.84
8843	21.053	1.383e-029	0.	559.14
8844	21.238	1.3952e-029	0.	507.95
8845	21.423	1.4073e-029	0.	455.09
8846	21.607	1.4194e-029	0.	400.48
8847	21.792	1.4316e-029	0.	344.1
8848	21.977	1.4437e-029	0.	286.15
8849	22.161	1.4558e-029	0.	227.07
8850	22.346	1.468e-029	0.	167.55
8851	22.531	1.4801e-029	0.	108.56
8852	22.715	1.4922e-029	0.	50.457
8853	22.9	0.	0.	4.7284
8854	0.	0.	0.	2244.1
8855	23.222	0.	0.	11.509
8856	23.378	0.	0.	19.425
8857	23.533	0.	0.	23.417
8858	23.689	0.	0.	23.736
8859	23.844	0.	0.	19.303
8860	23.067	0.	0.	1.5181
8861	24.	0.	0.	7.7887
8862	5.0862e-014	5.8182	0.	1375.3
8863	4.9273e-014	5.6364	0.	2362.1
8864	4.7683e-014	5.4545	0.	2881.
8865	4.6094e-014	5.2727	0.	3209.4
8866	4.4504e-014	5.0909	0.	3428.8
8867	4.2915e-014	4.9091	0.	3585.3
8868	4.1325e-014	4.7273	0.	3701.1
8869	3.9736e-014	4.5455	0.	3788.9
8870	3.8147e-014	4.3636	0.	3856.5
8871	3.6557e-014	4.1818	0.	3908.9
8872	3.4968e-014	4.	0.	3949.5
8873	3.3378e-014	3.8182	0.	3980.7
8874	3.1789e-014	3.6364	0.	4004.
8875	3.0199e-014	3.4545	0.	4020.6
8876	2.861e-014	3.2727	0.	4031.3
8877	2.702e-014	3.0909	0.	4036.5
8878	2.5431e-014	2.9091	0.	4036.5
8879	2.3842e-014	2.7273	0.	4031.3
8880	2.2252e-014	2.5455	0.	4020.6
8881	2.0663e-014	2.3636	0.	4004.
8882	1.9073e-014	2.1818	0.	3980.7
8883	1.7484e-014	2.	0.	3949.5
8884	1.5894e-014	1.8182	0.	3908.9
8885	1.4305e-014	1.6364	0.	3856.5
8886	1.2716e-014	1.4545	0.	3788.9
8887	1.1126e-014	1.2727	0.	3701.1
8888	9.5366e-015	1.0909	0.	3585.3
8889	7.9472e-015	0.90909	0.	3428.8
8890	6.3578e-015	0.72727	0.	3209.4
8891	4.7683e-015	0.54545	0.	2881.
8892	3.1789e-015	0.36364	0.	2362.1
8893	1.5894e-015	0.18182	0.	1375.3
8894	24.	0.18182	0.	26.623
8895	24.	0.36364	0.	38.745
8896	24.	0.54545	0.	51.192
8897	24.	0.72727	0.	70.651
8898	24.	0.90909	0.	98.407
8899	24.	1.0909	0.	133.51
8900	24.	1.2727	0.	173.95
8901	24.	1.4545	0.	216.33
8902	24.	1.6364	0.	254.77
8903	24.	1.8182	0.	280.79
8904	24.	2.	0.	285.9
8905	24.	2.1818	0.	266.9
8906	24.	2.3636	0.	228.88
8907	24.	2.5455	0.	182.79
8908	24.	2.7273	0.	140.51
8909	24.	2.9091	0.	113.82
8910	24.	3.0909	0.	113.82
8911	24.	3.2727	0.	140.51
8912	24.	3.4545	0.	182.79
8913	24.	3.6364	0.	228.88
8914	24.	3.8182	0.	266.9
8915	24.	4.	0.	285.9
8916	24.	4.1818	0.	280.78
8917	24.	4.3636	0.	254.77
8918	24.	4.5455	0.	216.33
8919	24.	4.7273	0.	173.95
8920	24.	4.9091	0.	133.51
8921	24.	5.0909	0.	98.407
8922	24.	5.2727	0.	70.651
8923	24.	5.4545	0.	51.192
8924	24.	5.6364	0.	38.745
8925	24.	5.8182	0.	26.623
8926	24.	6.	0.	7.7887
8927	23.844	6.	0.	19.303
8928	23.689	6.	0.	23.736
8929	23.533	6.	0.	23.417
8930	23.378	6.	0.	19.425
8931	23.222	6.	0.	11.509
8932	23.067	6.	0.	1.5181
8933	22.9	1.8182	0.	927.64
8934	22.9	1.6364	0.	562.47
8935	22.9	1.4545	0.	432.01
8936	22.9	1.2727	0.	333.65
8937	22.9	1.0909	0.	260.3
8938	22.9	0.90909	0.	200.61
8939	22.9	0.72727	0.	150.42
8940	22.9	0.54545	0.	107.24
8941	22.9	0.36364	0.	69.686
8942	22.9	0.18182	0.	35.729
8943	22.9	2.	0.	1956.3
8944	23.067	0.18182	0.	15.73
8945	23.067	0.36364	0.	33.939
8946	23.067	0.54545	0.	56.169
8947	23.067	0.72727	0.	84.479
8948	23.067	0.90909	0.	120.2
8949	23.067	1.0909	0.	164.9
8950	23.067	1.2727	0.	220.99
8951	23.067	1.4545	0.	295.61
8952	23.067	1.6364	0.	394.33
8953	23.067	1.8182	0.	610.26
8954	23.067	2.	0.	1650.5
8955	22.9	4.1818	0.	927.64
8956	22.9	4.3636	0.	562.47
8957	22.9	4.5455	0.	432.01
8958	22.9	4.7273	0.	333.65
8959	22.9	4.9091	0.	260.3
8960	22.9	5.0909	0.	200.61
8961	22.9	5.2727	0.	150.42
8962	22.9	5.4545	0.	107.24
8963	22.9	5.6364	0.	69.686
8964	22.9	5.8182	0.	35.729
8965	22.9	4.	0.	1956.3
8966	23.067	5.8182	0.	15.73
8967	23.067	5.6364	0.	33.939
8968	23.067	5.4545	0.	56.169
8969	23.067	5.2727	0.	84.479
8970	23.067	5.0909	0.	120.2
8971	23.067	4.9091	0.	164.9
8972	23.067	4.7273	0.	220.99
8973	23.067	4.5455	0.	295.61
8974	23.067	4.3636	0.	394.33
8975	23.067	4.1818	0.	610.26
8976	23.067	4.	0.	1650.5
8977	22.9	2.2727	0.	908.37
8978	22.808	2.1818	0.	955.51
8979	22.983	2.1818	0.	1037.7
8980	22.9	2.1818	5.e-002	113.93
8981	22.9	2.0909	0.	1456.5
8982	22.9	2.4545	0.	660.74
8983	22.808	2.3636	0.	702.6
8984	22.983	2.3636	0.	699.41
8985	22.9	2.3636	5.e-002	12.157
8986	22.9	2.6364	0.	572.08
8987	22.808	2.5455	0.	605.66
8988	22.983	2.5455	0.	577.72
8989	22.9	2.5455	5.e-002	3.3389
8990	22.9	2.8182	0.	530.62
8991	22.808	2.7273	0.	556.83
8992	22.983	2.7273	0.	517.95
8993	22.9	2.7273	5.e-002	0.76097
8994	22.9	3.	0.	518.4
8995	22.808	2.9091	0.	535.84
8996	22.983	2.9091	0.	492.58
8997	22.9	2.9091	5.e-002	1.3985
8998	22.9	3.1818	0.	530.62
8999	22.808	3.0909	0.	535.84
9000	22.983	3.0909	0.	492.58
9001	22.9	3.0909	5.e-002	1.3985
9002	22.9	3.3636	0.	572.08
9003	22.808	3.2727	0.	556.83
9004	22.983	3.2727	0.	517.95
9005	22.9	3.2727	5.e-002	0.76097
9006	22.9	3.5455	0.	660.74
9007	22.808	3.4545	0.	605.66
9008	22.983	3.4545	0.	577.72
9009	22.9	3.4545	5.e-002	3.3389
9010	22.9	3.7273	0.	908.37
9011	22.808	3.6364	0.	702.6
9012	22.983	3.6364	0.	699.41
9013	22.9	3.6364	5.e-002	12.157
9014	22.808	3.8182	0.	955.51
9015	22.983	3.8182	0.	1037.7
9016	22.9	3.8182	5.e-002	113.93
9017	22.9	3.9091	0.	1456.5
9018	23.3	2.	0.	656.53
9019	23.222	2.0909	0.	741.51
9020	23.222	1.9091	0.	666.39
9021	23.222	2.	5.e-002	50.162
9022	23.144	2.	0.	1201.2
9023	23.456	2.	0.	487.39
9024	23.378	2.0909	0.	538.5
9025	23.378	1.9091	0.	496.43
9026	23.378	2.	5.e-002	20.804
9027	23.611	2.	0.	398.74
9028	23.533	2.0909	0.	422.7
9029	23.533	1.9091	0.	406.93
9030	23.533	2.	5.e-002	15.216
9031	23.767	2.	0.	358.9
9032	23.689	2.0909	0.	359.69
9033	23.689	1.9091	0.	357.84
9034	23.689	2.	5.e-002	11.615
9035	23.844	2.0909	0.	340.4
9036	23.844	1.9091	0.	343.7
9037	23.844	2.	5.e-002	11.643
9038	23.922	2.	0.	308.52
9039	23.767	4.	0.	358.9
9040	23.844	3.9091	0.	340.4
9041	23.844	4.0909	0.	343.7
9042	23.844	4.	5.e-002	11.643
9043	23.922	4.	0.	308.52
9044	23.611	4.	0.	398.74
9045	23.689	3.9091	0.	359.69
9046	23.689	4.0909	0.	357.84
9047	23.689	4.	5.e-002	11.615
9048	23.456	4.	0.	487.39
9049	23.533	3.9091	0.	422.7
9050	23.533	4.0909	0.	406.93
9051	23.533	4.	5.e-002	15.216
9052	23.3	4.	0.	656.53
9053	23.378	3.9091	0.	538.5
9054	23.378	4.0909	0.	496.43
9055	23.378	4.	5.e-002	20.804
9056	23.222	3.9091	0.	741.51
9057	23.222	4.0909	0.	666.39
9058	23.222	4.	5.e-002	50.162
9059	23.144	4.	0.	1201.2
9060	22.715	5.7273	0.	91.422
9061	22.623	5.8182	0.	95.228
9062	22.715	5.8182	5.e-002	10.118
9063	22.715	5.9091	0.	58.729
9064	22.808	5.8182	0.	48.353
9065	22.715	5.5455	0.	137.24
9066	22.623	5.6364	0.	127.1
9067	22.715	5.6364	5.e-002	9.5263
9068	22.808	5.6364	0.	84.689
9069	22.715	5.3636	0.	192.52
9070	22.623	5.4545	0.	172.39
9071	22.715	5.4545	5.e-002	9.9002
9072	22.808	5.4545	0.	128.38
9073	22.715	5.1818	0.	255.67
9074	22.623	5.2727	0.	227.
9075	22.715	5.2727	5.e-002	10.596
9076	22.808	5.2727	0.	178.34
9077	22.715	5.	0.	327.99
9078	22.623	5.0909	0.	290.23
9079	22.715	5.0909	5.e-002	11.656
9080	22.808	5.0909	0.	235.55
9081	22.715	4.8182	0.	412.64
9082	22.623	4.9091	0.	363.25
9083	22.715	4.9091	5.e-002	13.222
9084	22.808	4.9091	0.	302.35
9085	22.715	4.6364	0.	516.27
9086	22.623	4.7273	0.	449.11
9087	22.715	4.7273	5.e-002	15.874
9088	22.808	4.7273	0.	382.89
9089	22.715	4.4545	0.	651.21
9090	22.623	4.5455	0.	552.83
9091	22.715	4.5455	5.e-002	19.495
9092	22.808	4.5455	0.	487.43
9093	22.715	4.2727	0.	841.67
9094	22.623	4.3636	0.	682.55
9095	22.715	4.3636	5.e-002	30.345
9096	22.808	4.3636	0.	625.39
9097	22.715	4.0909	0.	991.26
9098	22.623	4.1818	0.	849.37
9099	22.715	4.1818	5.e-002	64.653
9100	22.808	4.1818	0.	904.34
9101	22.715	3.9091	0.	932.87
9102	22.623	4.	0.	911.52
9103	22.715	4.	5.e-002	110.14
9104	22.808	4.	0.	1464.5
9105	22.715	3.7273	0.	771.88
9106	22.623	3.8182	0.	786.21
9107	22.715	3.8182	5.e-002	31.881
9108	22.715	3.5455	0.	651.7
9109	22.623	3.6364	0.	671.97
9110	22.715	3.6364	5.e-002	16.31
9111	22.715	3.3636	0.	591.19
9112	22.623	3.4545	0.	609.33
9113	22.715	3.4545	5.e-002	6.0597
9114	22.715	3.1818	0.	561.68
9115	22.623	3.2727	0.	576.44
9116	22.715	3.2727	5.e-002	1.9768
9117	22.715	3.	0.	552.6
9118	22.623	3.0909	0.	561.63
9119	22.715	3.0909	5.e-002	0.3526
9120	22.715	2.8182	0.	561.68
9121	22.623	2.9091	0.	561.63
9122	22.715	2.9091	5.e-002	0.3526
9123	22.715	2.6364	0.	591.19
9124	22.623	2.7273	0.	576.44
9125	22.715	2.7273	5.e-002	1.9768
9126	22.715	2.4545	0.	651.7
9127	22.623	2.5455	0.	609.33
9128	22.715	2.5455	5.e-002	6.0597
9129	22.715	2.2727	0.	771.88
9130	22.623	2.3636	0.	671.97
9131	22.715	2.3636	5.e-002	16.31
9132	22.715	2.0909	0.	932.87
9133	22.623	2.1818	0.	786.21
9134	22.715	2.1818	5.e-002	31.881
9135	22.715	1.9091	0.	991.26
9136	22.623	2.	0.	911.52
9137	22.715	2.	5.e-002	110.14
9138	22.808	2.	0.	1464.5
9139	22.715	1.7273	0.	841.67
9140	22.623	1.8182	0.	849.37
9141	22.715	1.8182	5.e-002	64.653
9142	22.808	1.8182	0.	904.34
9143	22.715	1.5455	0.	651.21
9144	22.623	1.6364	0.	682.55
9145	22.715	1.6364	5.e-002	30.345
9146	22.808	1.6364	0.	625.39
9147	22.715	1.3636	0.	516.27
9148	22.623	1.4545	0.	552.83
9149	22.715	1.4545	5.e-002	19.495
9150	22.808	1.4545	0.	487.43
9151	22.715	1.1818	0.	412.64
9152	22.623	1.2727	0.	449.11
9153	22.715	1.2727	5.e-002	15.874
9154	22.808	1.2727	0.	382.89
9155	22.715	1.	0.	327.99
9156	22.623	1.0909	0.	363.25
9157	22.715	1.0909	5.e-002	13.222
9158	22.808	1.0909	0.	302.35
9159	22.715	0.81818	0.	255.67
9160	22.623	0.90909	0.	290.23
9161	22.715	0.90909	5.e-002	11.656
9162	22.808	0.90909	0.	235.55
9163	22.715	0.63636	0.	192.52
9164	22.623	0.72727	0.	227.
9165	22.715	0.72727	5.e-002	10.596
9166	22.808	0.72727	0.	178.34
9167	22.715	0.45455	0.	137.24
9168	22.623	0.54545	0.	172.39
9169	22.715	0.54545	5.e-002	9.9002
9170	22.808	0.54545	0.	128.38
9171	22.715	0.27273	0.	91.422
9172	22.623	0.36364	0.	127.1
9173	22.715	0.36364	5.e-002	9.5263
9174	22.808	0.36364	0.	84.689
9175	22.623	0.18182	0.	95.228
9176	22.715	0.18182	5.e-002	10.118
9177	22.715	9.0909e-002	0.	58.729
9178	22.808	0.18182	0.	48.353
9179	22.531	5.7273	0.	135.5
9180	22.438	5.8182	0.	151.02
9181	22.531	5.8182	5.e-002	10.421
9182	22.531	5.9091	0.	114.46
9183	22.531	5.5455	0.	169.18
9184	22.438	5.6364	0.	175.83
9185	22.531	5.6364	5.e-002	10.197
9186	22.531	5.3636	0.	214.43
9187	22.438	5.4545	0.	212.05
9188	22.531	5.4545	5.e-002	10.647
9189	22.531	5.1818	0.	269.34
9190	22.438	5.2727	0.	258.43
9191	22.531	5.2727	5.e-002	11.428
9192	22.531	5.	0.	333.69
9193	22.438	5.0909	0.	314.
9194	22.531	5.0909	5.e-002	12.562
9195	22.531	4.8182	0.	408.9
9196	22.438	4.9091	0.	378.73
9197	22.531	4.9091	5.e-002	14.129
9198	22.531	4.6364	0.	496.66
9199	22.438	4.7273	0.	453.42
9200	22.531	4.7273	5.e-002	16.266
9201	22.531	4.4545	0.	599.5
9202	22.438	4.5455	0.	537.93
9203	22.531	4.5455	5.e-002	19.542
9204	22.531	4.2727	0.	701.63
9205	22.438	4.3636	0.	630.92
9206	22.531	4.3636	5.e-002	19.057
9207	22.531	4.0909	0.	756.22
9208	22.438	4.1818	0.	706.28
9209	22.531	4.1818	5.e-002	20.934
9210	22.531	3.9091	0.	742.96
9211	22.438	4.	0.	726.24
9212	22.531	4.	5.e-002	14.712
9213	22.531	3.7273	0.	685.77
9214	22.438	3.8182	0.	690.45
9215	22.531	3.8182	5.e-002	17.784
9216	22.531	3.5455	0.	630.21
9217	22.438	3.6364	0.	641.75
9218	22.531	3.6364	5.e-002	11.648
9219	22.531	3.3636	0.	594.81
9220	22.438	3.4545	0.	606.34
9221	22.531	3.4545	5.e-002	6.0772
9222	22.531	3.1818	0.	576.27
9223	22.438	3.2727	0.	585.71
9224	22.531	3.2727	5.e-002	2.6522
9225	22.531	3.	0.	570.43
9226	22.438	3.0909	0.	576.19
9227	22.531	3.0909	5.e-002	0.76476
9228	22.531	2.8182	0.	576.27
9229	22.438	2.9091	0.	576.19
9230	22.531	2.9091	5.e-002	0.76476
9231	22.531	2.6364	0.	594.81
9232	22.438	2.7273	0.	585.71
9233	22.531	2.7273	5.e-002	2.6522
9234	22.531	2.4545	0.	630.21
9235	22.438	2.5455	0.	606.34
9236	22.531	2.5455	5.e-002	6.0772
9237	22.531	2.2727	0.	685.77
9238	22.438	2.3636	0.	641.75
9239	22.531	2.3636	5.e-002	11.648
9240	22.531	2.0909	0.	742.96
9241	22.438	2.1818	0.	690.45
9242	22.531	2.1818	5.e-002	17.784
9243	22.531	1.9091	0.	756.22
9244	22.438	2.	0.	726.24
9245	22.531	2.	5.e-002	14.712
9246	22.531	1.7273	0.	701.63
9247	22.438	1.8182	0.	706.28
9248	22.531	1.8182	5.e-002	20.934
9249	22.531	1.5455	0.	599.5
9250	22.438	1.6364	0.	630.92
9251	22.531	1.6364	5.e-002	19.057
9252	22.531	1.3636	0.	496.66
9253	22.438	1.4545	0.	537.93
9254	22.531	1.4545	5.e-002	19.542
9255	22.531	1.1818	0.	408.9
9256	22.438	1.2727	0.	453.42
9257	22.531	1.2727	5.e-002	16.266
9258	22.531	1.	0.	333.69
9259	22.438	1.0909	0.	378.73
9260	22.531	1.0909	5.e-002	14.129
9261	22.531	0.81818	0.	269.34
9262	22.438	0.90909	0.	314.
9263	22.531	0.90909	5.e-002	12.562
9264	22.531	0.63636	0.	214.43
9265	22.438	0.72727	0.	258.43
9266	22.531	0.72727	5.e-002	11.428
9267	22.531	0.45455	0.	169.18
9268	22.438	0.54545	0.	212.05
9269	22.531	0.54545	5.e-002	10.647
9270	22.531	0.27273	0.	135.5
9271	22.438	0.36364	0.	175.83
9272	22.531	0.36364	5.e-002	10.197
9273	22.438	0.18182	0.	151.02
9274	22.531	0.18182	5.e-002	10.421
9275	22.531	9.0909e-002	0.	114.46
9276	22.346	5.7273	0.	191.89
9277	22.254	5.8182	0.	209.93
9278	22.346	5.8182	5.e-002	10.458
9279	22.346	5.9091	0.	173.44
9280	22.346	5.5455	0.	220.81
9281	22.254	5.6364	0.	232.88
9282	22.346	5.6364	5.e-002	10.541
9283	22.346	5.3636	0.	259.5
9284	22.254	5.4545	0.	264.3
9285	22.346	5.4545	5.e-002	10.909
9286	22.346	5.1818	0.	307.46
9287	22.254	5.2727	0.	304.49
9288	22.346	5.2727	5.e-002	11.499
9289	22.346	5.	0.	364.11
9290	22.254	5.0909	0.	352.92
9291	22.346	5.0909	5.e-002	12.295
9292	22.346	4.8182	0.	428.94
9293	22.254	4.9091	0.	408.92
9294	22.346	4.9091	5.e-002	13.275
9295	22.346	4.6364	0.	500.83
9296	22.254	4.7273	0.	471.34
9297	22.346	4.7273	5.e-002	14.204
9298	22.346	4.4545	0.	574.57
9299	22.254	4.5455	0.	537.67
9300	22.346	4.5455	5.e-002	14.551
9301	22.346	4.2727	0.	637.25
9302	22.254	4.3636	0.	600.43
9303	22.346	4.3636	5.e-002	14.353
9304	22.346	4.0909	0.	671.61
9305	22.254	4.1818	0.	646.07
9306	22.346	4.1818	5.e-002	10.348
9307	22.346	3.9091	0.	669.83
9308	22.254	4.	0.	661.52
9309	22.346	4.	5.e-002	10.23
9310	22.346	3.7273	0.	645.26
9311	22.254	3.8182	0.	649.15
9312	22.346	3.8182	5.e-002	10.935
9313	22.346	3.5455	0.	617.71
9314	22.254	3.6364	0.	626.58
9315	22.346	3.6364	5.e-002	7.9872
9316	22.346	3.3636	0.	597.2
9317	22.254	3.4545	0.	606.75
9318	22.346	3.4545	5.e-002	5.0443
9319	22.346	3.1818	0.	585.56
9320	22.254	3.2727	0.	593.8
9321	22.346	3.2727	5.e-002	2.5985
9322	22.346	3.	0.	581.86
9323	22.254	3.0909	0.	587.64
9324	22.346	3.0909	5.e-002	0.91912
9325	22.346	2.8182	0.	585.56
9326	22.254	2.9091	0.	587.64
9327	22.346	2.9091	5.e-002	0.91911
9328	22.346	2.6364	0.	597.2
9329	22.254	2.7273	0.	593.8
9330	22.346	2.7273	5.e-002	2.5985
9331	22.346	2.4545	0.	617.71
9332	22.254	2.5455	0.	606.75
9333	22.346	2.5455	5.e-002	5.0443
9334	22.346	2.2727	0.	645.26
9335	22.254	2.3636	0.	626.58
9336	22.346	2.3636	5.e-002	7.9872
9337	22.346	2.0909	0.	669.83
9338	22.254	2.1818	0.	649.15
9339	22.346	2.1818	5.e-002	10.935
9340	22.346	1.9091	0.	671.61
9341	22.254	2.	0.	661.52
9342	22.346	2.	5.e-002	10.23
9343	22.346	1.7273	0.	637.25
9344	22.254	1.8182	0.	646.07
9345	22.346	1.8182	5.e-002	10.348
9346	22.346	1.5455	0.	574.57
9347	22.254	1.6364	0.	600.43
9348	22.346	1.6364	5.e-002	14.353
9349	22.346	1.3636	0.	500.83
9350	22.254	1.4545	0.	537.67
9351	22.346	1.4545	5.e-002	14.551
9352	22.346	1.1818	0.	428.94
9353	22.254	1.2727	0.	471.34
9354	22.346	1.2727	5.e-002	14.204
9355	22.346	1.	0.	364.11
9356	22.254	1.0909	0.	408.92
9357	22.346	1.0909	5.e-002	13.275
9358	22.346	0.81818	0.	307.46
9359	22.254	0.90909	0.	352.92
9360	22.346	0.90909	5.e-002	12.295
9361	22.346	0.63636	0.	259.5
9362	22.254	0.72727	0.	304.49
9363	22.346	0.72727	5.e-002	11.499
9364	22.346	0.45455	0.	220.81
9365	22.254	0.54545	0.	264.3
9366	22.346	0.54545	5.e-002	10.909
9367	22.346	0.27273	0.	191.89
9368	22.254	0.36364	0.	232.88
9369	22.346	0.36364	5.e-002	10.541
9370	22.254	0.18182	0.	209.93
9371	22.346	0.18182	5.e-002	10.458
9372	22.346	9.0909e-002	0.	173.44
9373	22.161	5.7273	0.	250.75
9374	22.069	5.8182	0.	269.45
9375	22.161	5.8182	5.e-002	10.142
9376	22.161	5.9091	0.	233.2
9377	22.161	5.5455	0.	277.08
9378	22.069	5.6364	0.	291.26
9379	22.161	5.6364	5.e-002	10.533
9380	22.161	5.3636	0.	310.99
9381	22.069	5.4545	0.	319.45
9382	22.161	5.4545	5.e-002	10.796
9383	22.161	5.1818	0.	352.53
9384	22.069	5.2727	0.	354.55
9385	22.161	5.2727	5.e-002	11.154
9386	22.161	5.	0.	400.99
9387	22.069	5.0909	0.	396.18
9388	22.161	5.0909	5.e-002	11.581
9389	22.161	4.8182	0.	454.99
9390	22.069	4.9091	0.	443.33
9391	22.161	4.9091	5.e-002	11.973
9392	22.161	4.6364	0.	511.8
9393	22.069	4.7273	0.	494.1
9394	22.161	4.7273	5.e-002	12.134
9395	22.161	4.4545	0.	566.24
9396	22.069	4.5455	0.	545.01
9397	22.161	4.5455	5.e-002	11.758
9398	22.161	4.2727	0.	609.95
9399	22.069	4.3636	0.	590.27
9400	22.161	4.3636	5.e-002	10.377
9401	22.161	4.0909	0.	635.01
9402	22.069	4.1818	0.	622.22
9403	22.161	4.1818	5.e-002	8.8645
9404	22.161	3.9091	0.	639.68
9405	22.069	4.	0.	636.21
9406	22.161	4.	5.e-002	8.0252
9407	22.161	3.7273	0.	629.92
9408	22.069	3.8182	0.	634.23
9409	22.161	3.8182	5.e-002	7.3546
9410	22.161	3.5455	0.	615.44
9411	22.069	3.6364	0.	623.82
9412	22.161	3.6364	5.e-002	6.2355
9413	22.161	3.3636	0.	603.27
9414	22.069	3.4545	0.	612.68
9415	22.161	3.4545	5.e-002	4.4909
9416	22.161	3.1818	0.	595.83
9417	22.069	3.2727	0.	604.57
9418	22.161	3.2727	5.e-002	2.89
9419	22.161	3.	0.	593.38
9420	22.069	3.0909	0.	600.49
9421	22.161	3.0909	5.e-002	1.8746
9422	22.161	2.8182	0.	595.83
9423	22.069	2.9091	0.	600.49
9424	22.161	2.9091	5.e-002	1.8746
9425	22.161	2.6364	0.	603.27
9426	22.069	2.7273	0.	604.57
9427	22.161	2.7273	5.e-002	2.89
9428	22.161	2.4545	0.	615.44
9429	22.069	2.5455	0.	612.67
9430	22.161	2.5455	5.e-002	4.4909
9431	22.161	2.2727	0.	629.92
9432	22.069	2.3636	0.	623.82
9433	22.161	2.3636	5.e-002	6.2355
9434	22.161	2.0909	0.	639.68
9435	22.069	2.1818	0.	634.23
9436	22.161	2.1818	5.e-002	7.3546
9437	22.161	1.9091	0.	635.01
9438	22.069	2.	0.	636.21
9439	22.161	2.	5.e-002	8.0252
9440	22.161	1.7273	0.	609.95
9441	22.069	1.8182	0.	622.22
9442	22.161	1.8182	5.e-002	8.8645
9443	22.161	1.5455	0.	566.24
9444	22.069	1.6364	0.	590.27
9445	22.161	1.6364	5.e-002	10.377
9446	22.161	1.3636	0.	511.8
9447	22.069	1.4545	0.	545.01
9448	22.161	1.4545	5.e-002	11.758
9449	22.161	1.1818	0.	454.99
9450	22.069	1.2727	0.	494.1
9451	22.161	1.2727	5.e-002	12.134
9452	22.161	1.	0.	400.99
9453	22.069	1.0909	0.	443.33
9454	22.161	1.0909	5.e-002	11.973
9455	22.161	0.81818	0.	352.53
9456	22.069	0.90909	0.	396.18
9457	22.161	0.90909	5.e-002	11.581
9458	22.161	0.63636	0.	310.99
9459	22.069	0.72727	0.	354.55
9460	22.161	0.72727	5.e-002	11.154
9461	22.161	0.45455	0.	277.08
9462	22.069	0.54545	0.	319.45
9463	22.161	0.54545	5.e-002	10.796
9464	22.161	0.27273	0.	250.75
9465	22.069	0.36364	0.	291.26
9466	22.161	0.36364	5.e-002	10.533
9467	22.069	0.18182	0.	269.45
9468	22.161	0.18182	5.e-002	10.142
9469	22.161	9.0909e-002	0.	233.2
9470	21.977	5.7273	0.	309.58
9471	21.884	5.8182	0.	328.4
9472	21.977	5.8182	5.e-002	9.5912
9473	21.977	5.9091	0.	292.53
9474	21.977	5.5455	0.	333.84
9475	21.884	5.6364	0.	348.91
9476	21.977	5.6364	5.e-002	10.334
9477	21.977	5.3636	0.	363.86
9478	21.884	5.4545	0.	374.39
9479	21.977	5.4545	5.e-002	10.507
9480	21.977	5.1818	0.	399.69
9481	21.884	5.2727	0.	405.08
9482	21.977	5.2727	5.e-002	10.673
9483	21.977	5.	0.	440.51
9484	21.884	5.0909	0.	440.57
9485	21.977	5.0909	5.e-002	10.82
9486	21.977	4.8182	0.	484.69
9487	21.884	4.9091	0.	479.73
9488	21.977	4.9091	5.e-002	10.853
9489	21.977	4.6364	0.	529.45
9490	21.884	4.7273	0.	520.55
9491	21.977	4.7273	5.e-002	10.641
9492	21.977	4.4545	0.	570.59
9493	21.884	4.5455	0.	559.99
9494	21.977	4.5455	5.e-002	10.037
9495	21.977	4.2727	0.	603.18
9496	21.884	4.3636	0.	593.94
9497	21.977	4.3636	5.e-002	9.0439
9498	21.977	4.0909	0.	623.33
9499	21.884	4.1818	0.	618.37
9500	21.977	4.1818	5.e-002	7.944
9501	21.977	3.9091	0.	630.46
9502	21.884	4.	0.	631.16
9503	21.977	4.	5.e-002	7.1447
9504	21.977	3.7273	0.	627.93
9505	21.884	3.8182	0.	633.6
9506	21.977	3.8182	5.e-002	6.5049
9507	21.977	3.5455	0.	620.97
9508	21.884	3.6364	0.	629.72
9509	21.977	3.6364	5.e-002	5.6236
9510	21.977	3.3636	0.	613.94
9511	21.884	3.4545	0.	623.86
9512	21.977	3.4545	5.e-002	4.5526
9513	21.977	3.1818	0.	609.2
9514	21.884	3.2727	0.	618.95
9515	21.977	3.2727	5.e-002	3.5919
9516	21.977	3.	0.	607.58
9517	21.884	3.0909	0.	616.29
9518	21.977	3.0909	5.e-002	3.0127
9519	21.977	2.8182	0.	609.2
9520	21.884	2.9091	0.	616.29
9521	21.977	2.9091	5.e-002	3.0127
9522	21.977	2.6364	0.	613.94
9523	21.884	2.7273	0.	618.95
9524	21.977	2.7273	5.e-002	3.5919
9525	21.977	2.4545	0.	620.97
9526	21.884	2.5455	0.	623.86
9527	21.977	2.5455	5.e-002	4.5526
9528	21.977	2.2727	0.	627.93
9529	21.884	2.3636	0.	629.72
9530	21.977	2.3636	5.e-002	5.6236
9531	21.977	2.0909	0.	630.46
9532	21.884	2.1818	0.	633.6
9533	21.977	2.1818	5.e-002	6.5049
9534	21.977	1.9091	0.	623.33
9535	21.884	2.	0.	631.16
9536	21.977	2.	5.e-002	7.1447
9537	21.977	1.7273	0.	603.18
9538	21.884	1.8182	0.	618.37
9539	21.977	1.8182	5.e-002	7.944
9540	21.977	1.5455	0.	570.59
9541	21.884	1.6364	0.	593.94
9542	21.977	1.6364	5.e-002	9.0439
9543	21.977	1.3636	0.	529.45
9544	21.884	1.4545	0.	559.99
9545	21.977	1.4545	5.e-002	10.037
9546	21.977	1.1818	0.	484.69
9547	21.884	1.2727	0.	520.55
9548	21.977	1.2727	5.e-002	10.641
9549	21.977	1.	0.	440.51
9550	21.884	1.0909	0.	479.72
9551	21.977	1.0909	5.e-002	10.853
9552	21.977	0.81818	0.	399.69
9553	21.884	0.90909	0.	440.57
9554	21.977	0.90909	5.e-002	10.82
9555	21.977	0.63636	0.	363.86
9556	21.884	0.72727	0.	405.08
9557	21.977	0.72727	5.e-002	10.673
9558	21.977	0.45455	0.	333.84
9559	21.884	0.54545	0.	374.39
9560	21.977	0.54545	5.e-002	10.507
9561	21.977	0.27273	0.	309.58
9562	21.884	0.36364	0.	348.91
9563	21.977	0.36364	5.e-002	10.334
9564	21.884	0.18182	0.	328.4
9565	21.977	0.18182	5.e-002	9.5912
9566	21.977	9.0909e-002	0.	292.53
9567	21.792	5.7273	0.	367.29
9568	21.7	5.8182	0.	386.08
9569	21.792	5.8182	5.e-002	8.8944
9570	21.792	5.9091	0.	350.69
9571	21.792	5.5455	0.	389.46
9572	21.7	5.6364	0.	404.97
9573	21.792	5.6364	5.e-002	10.024
9574	21.792	5.3636	0.	416.03
9575	21.7	5.4545	0.	427.88
9576	21.792	5.4545	5.e-002	10.133
9577	21.792	5.1818	0.	446.81
9578	21.7	5.2727	0.	454.64
9579	21.792	5.2727	5.e-002	10.164
9580	21.792	5.	0.	480.96
9581	21.7	5.0909	0.	484.75
9582	21.792	5.0909	5.e-002	10.137
9583	21.792	4.8182	0.	516.93
9584	21.7	4.9091	0.	517.1
9585	21.792	4.9091	5.e-002	9.9894
9586	21.792	4.6364	0.	552.37
9587	21.7	4.7273	0.	549.94
9588	21.792	4.7273	5.e-002	9.6501
9589	21.792	4.4545	0.	584.3
9590	21.7	4.5455	0.	580.91
9591	21.792	4.5455	5.e-002	9.0793
9592	21.792	4.2727	0.	609.65
9593	21.7	4.3636	0.	607.28
9594	21.792	4.3636	5.e-002	8.3277
9595	21.792	4.0909	0.	626.37
9596	21.7	4.1818	0.	626.73
9597	21.792	4.1818	5.e-002	7.5549
9598	21.792	3.9091	0.	634.3
9599	21.7	4.	0.	638.25
9600	21.792	4.	5.e-002	6.8835
9601	21.792	3.7273	0.	635.37
9602	21.7	3.8182	0.	642.66
9603	21.792	3.8182	5.e-002	6.2753
9604	21.792	3.5455	0.	632.61
9605	21.7	3.6364	0.	642.21
9606	21.792	3.6364	5.e-002	5.6264
9607	21.792	3.3636	0.	628.87
9608	21.7	3.4545	0.	639.58
9609	21.792	3.4545	5.e-002	4.9441
9610	21.792	3.1818	0.	626.03
9611	21.7	3.2727	0.	636.86
9612	21.792	3.2727	5.e-002	4.3543
9613	21.792	3.	0.	625.01
9614	21.7	3.0909	0.	635.24
9615	21.792	3.0909	5.e-002	4.0118
9616	21.792	2.8182	0.	626.03
9617	21.7	2.9091	0.	635.24
9618	21.792	2.9091	5.e-002	4.0118
9619	21.792	2.6364	0.	628.87
9620	21.7	2.7273	0.	636.86
9621	21.792	2.7273	5.e-002	4.3543
9622	21.792	2.4545	0.	632.61
9623	21.7	2.5455	0.	639.58
9624	21.792	2.5455	5.e-002	4.944
9625	21.792	2.2727	0.	635.37
9626	21.7	2.3636	0.	642.21
9627	21.792	2.3636	5.e-002	5.6264
9628	21.792	2.0909	0.	634.3
9629	21.7	2.1818	0.	642.66
9630	21.792	2.1818	5.e-002	6.2753
9631	21.792	1.9091	0.	626.37
9632	21.7	2.	0.	638.25
9633	21.792	2.	5.e-002	6.8835
9634	21.792	1.7273	0.	609.65
9635	21.7	1.8182	0.	626.73
9636	21.792	1.8182	5.e-002	7.5549
9637	21.792	1.5455	0.	584.3
9638	21.7	1.6364	0.	607.28
9639	21.792	1.6364	5.e-002	8.3277
9640	21.792	1.3636	0.	552.37
9641	21.7	1.4545	0.	580.91
9642	21.792	1.4545	5.e-002	9.0793
9643	21.792	1.1818	0.	516.93
9644	21.7	1.2727	0.	549.94
9645	21.792	1.2727	5.e-002	9.6501
9646	21.792	1.	0.	480.96
9647	21.7	1.0909	0.	517.1
9648	21.792	1.0909	5.e-002	9.9894
9649	21.792	0.81818	0.	446.81
9650	21.7	0.90909	0.	484.75
9651	21.792	0.90909	5.e-002	10.137
9652	21.792	0.63636	0.	416.03
9653	21.7	0.72727	0.	454.64
9654	21.792	0.72727	5.e-002	10.164
9655	21.792	0.45455	0.	389.46
9656	21.7	0.54545	0.	427.88
9657	21.792	0.54545	5.e-002	10.133
9658	21.792	0.27273	0.	367.29
9659	21.7	0.36364	0.	404.97
9660	21.792	0.36364	5.e-002	10.024
9661	21.7	0.18182	0.	386.08
9662	21.792	0.18182	5.e-002	8.8944
9663	21.792	9.0909e-002	0.	350.69
9664	21.607	5.7273	0.	423.32
9665	21.515	5.8182	0.	442.11
9666	21.607	5.8182	5.e-002	8.1271
9667	21.607	5.9091	0.	407.22
9668	21.607	5.5455	0.	443.31
9669	21.515	5.6364	0.	459.13
9670	21.607	5.6364	5.e-002	9.6619
9671	21.607	5.3636	0.	466.69
9672	21.515	5.4545	0.	479.55
9673	21.607	5.4545	5.e-002	9.74
9674	21.607	5.1818	0.	493.05
9675	21.515	5.2727	0.	502.77
9676	21.607	5.2727	5.e-002	9.6899
9677	21.607	5.	0.	521.57
9678	21.515	5.0909	0.	528.25
9679	21.607	5.0909	5.e-002	9.5717
9680	21.607	4.8182	0.	550.91
9681	21.515	4.9091	0.	554.98
9682	21.607	4.9091	5.e-002	9.3526
9683	21.607	4.6364	0.	579.25
9684	21.515	4.7273	0.	581.56
9685	21.607	4.7273	5.e-002	9.0028
9686	21.607	4.4545	0.	604.5
9687	21.515	4.5455	0.	606.23
9688	21.607	4.5455	5.e-002	8.5199
9689	21.607	4.2727	0.	624.76
9690	21.515	4.3636	0.	627.2
9691	21.607	4.3636	5.e-002	7.9497
9692	21.607	4.0909	0.	638.83
9693	21.515	4.1818	0.	643.08
9694	21.607	4.1818	5.e-002	7.3694
9695	21.607	3.9091	0.	646.71
9696	21.515	4.	0.	653.32
9697	21.607	4.	5.e-002	6.8346
9698	21.607	3.7273	0.	649.55
9699	21.515	3.8182	0.	658.45
9700	21.607	3.8182	5.e-002	6.3402
9701	21.607	3.5455	0.	649.22
9702	21.515	3.6364	0.	659.85
9703	21.607	3.6364	5.e-002	5.8577
9704	21.607	3.3636	0.	647.59
9705	21.515	3.4545	0.	659.19
9706	21.607	3.4545	5.e-002	5.3981
9707	21.607	3.1818	0.	646.08
9708	21.515	3.2727	0.	657.94
9709	21.607	3.2727	5.e-002	5.0237
9710	21.607	3.	0.	645.49
9711	21.515	3.0909	0.	657.09
9712	21.607	3.0909	5.e-002	4.8117
9713	21.607	2.8182	0.	646.08
9714	21.515	2.9091	0.	657.09
9715	21.607	2.9091	5.e-002	4.8117
9716	21.607	2.6364	0.	647.59
9717	21.515	2.7273	0.	657.94
9718	21.607	2.7273	5.e-002	5.0237
9719	21.607	2.4545	0.	649.22
9720	21.515	2.5455	0.	659.19
9721	21.607	2.5455	5.e-002	5.3981
9722	21.607	2.2727	0.	649.55
9723	21.515	2.3636	0.	659.85
9724	21.607	2.3636	5.e-002	5.8577
9725	21.607	2.0909	0.	646.71
9726	21.515	2.1818	0.	658.45
9727	21.607	2.1818	5.e-002	6.3402
9728	21.607	1.9091	0.	638.83
9729	21.515	2.	0.	653.32
9730	21.607	2.	5.e-002	6.8346
9731	21.607	1.7273	0.	624.76
9732	21.515	1.8182	0.	643.08
9733	21.607	1.8182	5.e-002	7.3694
9734	21.607	1.5455	0.	604.5
9735	21.515	1.6364	0.	627.2
9736	21.607	1.6364	5.e-002	7.9497
9737	21.607	1.3636	0.	579.25
9738	21.515	1.4545	0.	606.23
9739	21.607	1.4545	5.e-002	8.5199
9740	21.607	1.1818	0.	550.91
9741	21.515	1.2727	0.	581.56
9742	21.607	1.2727	5.e-002	9.0028
9743	21.607	1.	0.	521.57
9744	21.515	1.0909	0.	554.98
9745	21.607	1.0909	5.e-002	9.3526
9746	21.607	0.81818	0.	493.05
9747	21.515	0.90909	0.	528.25
9748	21.607	0.90909	5.e-002	9.5717
9749	21.607	0.63636	0.	466.69
9750	21.515	0.72727	0.	502.77
9751	21.607	0.72727	5.e-002	9.6899
9752	21.607	0.45455	0.	443.31
9753	21.515	0.54545	0.	479.55
9754	21.607	0.54545	5.e-002	9.74
9755	21.607	0.27273	0.	423.32
9756	21.515	0.36364	0.	459.13
9757	21.607	0.36364	5.e-002	9.6619
9758	21.515	0.18182	0.	442.11
9759	21.607	0.18182	5.e-002	8.1271
9760	21.607	9.0909e-002	0.	407.22
9761	21.423	5.7273	0.	477.48
9762	21.33	5.8182	0.	496.34
9763	21.423	5.8182	5.e-002	7.3462
9764	21.423	5.9091	0.	461.93
9765	21.423	5.5455	0.	495.25
9766	21.33	5.6364	0.	511.37
9767	21.423	5.6364	5.e-002	9.2918
9768	21.423	5.3636	0.	515.7
9769	21.33	5.4545	0.	529.4
9770	21.423	5.4545	5.e-002	9.365
9771	21.423	5.1818	0.	538.22
9772	21.33	5.2727	0.	549.47
9773	21.423	5.2727	5.e-002	9.2753
9774	21.423	5.	0.	562.05
9775	21.33	5.0909	0.	571.01
9776	21.423	5.0909	5.e-002	9.1209
9777	21.423	4.8182	0.	586.1
9778	21.33	4.9091	0.	593.18
9779	21.423	4.9091	5.e-002	8.8895
9780	21.423	4.6364	0.	609.01
9781	21.33	4.7273	0.	614.85
9782	21.423	4.7273	5.e-002	8.5721
9783	21.423	4.4545	0.	629.33
9784	21.33	4.5455	0.	634.79
9785	21.423	4.5455	5.e-002	8.1783
9786	21.423	4.2727	0.	645.82
9787	21.33	4.3636	0.	651.77
9788	21.423	4.3636	5.e-002	7.7391
9789	21.423	4.0909	0.	657.76
9790	21.33	4.1818	0.	664.94
9791	21.423	4.1818	5.e-002	7.2962
9792	21.423	3.9091	0.	665.19
9793	21.33	4.	0.	673.97
9794	21.423	4.	5.e-002	6.8787
9795	21.423	3.7273	0.	668.83
9796	21.33	3.8182	0.	679.22
9797	21.423	3.8182	5.e-002	6.4921
9798	21.423	3.5455	0.	669.87
9799	21.33	3.6364	0.	681.56
9800	21.423	3.6364	5.e-002	6.1334
9801	21.423	3.3636	0.	669.58
9802	21.33	3.4545	0.	682.08
9803	21.423	3.4545	5.e-002	5.814
9804	21.423	3.1818	0.	668.98
9805	21.33	3.2727	0.	681.81
9806	21.423	3.2727	5.e-002	5.5666
9807	21.423	3.	0.	668.7
9808	21.33	3.0909	0.	681.49
9809	21.423	3.0909	5.e-002	5.4299
9810	21.423	2.8182	0.	668.98
9811	21.33	2.9091	0.	681.49
9812	21.423	2.9091	5.e-002	5.4299
9813	21.423	2.6364	0.	669.58
9814	21.33	2.7273	0.	681.81
9815	21.423	2.7273	5.e-002	5.5666
9816	21.423	2.4545	0.	669.87
9817	21.33	2.5455	0.	682.08
9818	21.423	2.5455	5.e-002	5.814
9819	21.423	2.2727	0.	668.83
9820	21.33	2.3636	0.	681.56
9821	21.423	2.3636	5.e-002	6.1334
9822	21.423	2.0909	0.	665.19
9823	21.33	2.1818	0.	679.22
9824	21.423	2.1818	5.e-002	6.4921
9825	21.423	1.9091	0.	657.76
9826	21.33	2.	0.	673.97
9827	21.423	2.	5.e-002	6.8787
9828	21.423	1.7273	0.	645.82
9829	21.33	1.8182	0.	664.94
9830	21.423	1.8182	5.e-002	7.2962
9831	21.423	1.5455	0.	629.33
9832	21.33	1.6364	0.	651.77
9833	21.423	1.6364	5.e-002	7.7391
9834	21.423	1.3636	0.	609.01
9835	21.33	1.4545	0.	634.79
9836	21.423	1.4545	5.e-002	8.1783
9837	21.423	1.1818	0.	586.1
9838	21.33	1.2727	0.	614.85
9839	21.423	1.2727	5.e-002	8.5721
9840	21.423	1.	0.	562.05
9841	21.33	1.0909	0.	593.18
9842	21.423	1.0909	5.e-002	8.8895
9843	21.423	0.81818	0.	538.22
9844	21.33	0.90909	0.	571.01
9845	21.423	0.90909	5.e-002	9.1209
9846	21.423	0.63636	0.	515.7
9847	21.33	0.72727	0.	549.47
9848	21.423	0.72727	5.e-002	9.2753
9849	21.423	0.45455	0.	495.25
9850	21.33	0.54545	0.	529.4
9851	21.423	0.54545	5.e-002	9.365
9852	21.423	0.27273	0.	477.48
9853	21.33	0.36364	0.	511.37
9854	21.423	0.36364	5.e-002	9.2918
9855	21.33	0.18182	0.	496.34
9856	21.423	0.18182	5.e-002	7.3462
9857	21.423	9.0909e-002	0.	461.93
9858	21.238	5.7273	0.	529.8
9859	21.146	5.8182	0.	548.8
9860	21.238	5.8182	5.e-002	6.5905
9861	21.238	5.9091	0.	514.84
9862	21.238	5.5455	0.	545.38
9863	21.146	5.6364	0.	561.82
9864	21.238	5.6364	5.e-002	8.9401
9865	21.238	5.3636	0.	563.17
9866	21.146	5.4545	0.	577.63
9867	21.238	5.4545	5.e-002	9.0275
9868	21.238	5.1818	0.	582.39
9869	21.146	5.2727	0.	594.92
9870	21.238	5.2727	5.e-002	8.9257
9871	21.238	5.	0.	602.36
9872	21.146	5.0909	0.	613.15
9873	21.238	5.0909	5.e-002	8.7665
9874	21.238	4.8182	0.	622.2
9875	21.146	4.9091	0.	631.61
9876	21.238	4.9091	5.e-002	8.5509
9877	21.238	4.6364	0.	640.92
9878	21.146	4.7273	0.	649.44
9879	21.238	4.7273	5.e-002	8.2791
9880	21.238	4.4545	0.	657.49
9881	21.146	4.5455	0.	665.75
9882	21.238	4.5455	5.e-002	7.9618
9883	21.238	4.2727	0.	671.1
9884	21.146	4.3636	0.	679.71
9885	21.238	4.3636	5.e-002	7.6204
9886	21.238	4.0909	0.	681.3
9887	21.146	4.1818	0.	690.75
9888	21.238	4.1818	5.e-002	7.279
9889	21.238	3.9091	0.	688.12
9890	21.146	4.	0.	698.69
9891	21.238	4.	5.e-002	6.9555
9892	21.238	3.7273	0.	692.03
9893	21.146	3.8182	0.	703.76
9894	21.238	3.8182	5.e-002	6.6579
9895	21.238	3.5455	0.	693.82
9896	21.146	3.6364	0.	706.53
9897	21.238	3.6364	5.e-002	6.3905
9898	21.238	3.3636	0.	694.35
9899	21.146	3.4545	0.	707.73
9900	21.238	3.4545	5.e-002	6.163
9901	21.238	3.1818	0.	694.35
9902	21.146	3.2727	0.	708.08
9903	21.238	3.2727	5.e-002	5.9934
9904	21.238	3.	0.	694.29
9905	21.146	3.0909	0.	708.11
9906	21.238	3.0909	5.e-002	5.9019
9907	21.238	2.8182	0.	694.35
9908	21.146	2.9091	0.	708.11
9909	21.238	2.9091	5.e-002	5.9019
9910	21.238	2.6364	0.	694.35
9911	21.146	2.7273	0.	708.08
9912	21.238	2.7273	5.e-002	5.9934
9913	21.238	2.4545	0.	693.82
9914	21.146	2.5455	0.	707.73
9915	21.238	2.5455	5.e-002	6.163
9916	21.238	2.2727	0.	692.03
9917	21.146	2.3636	0.	706.53
9918	21.238	2.3636	5.e-002	6.3905
9919	21.238	2.0909	0.	688.12
9920	21.146	2.1818	0.	703.76
9921	21.238	2.1818	5.e-002	6.6579
9922	21.238	1.9091	0.	681.3
9923	21.146	2.	0.	698.69
9924	21.238	2.	5.e-002	6.9555
9925	21.238	1.7273	0.	671.1
9926	21.146	1.8182	0.	690.75
9927	21.238	1.8182	5.e-002	7.279
9928	21.238	1.5455	0.	657.49
9929	21.146	1.6364	0.	679.71
9930	21.238	1.6364	5.e-002	7.6204
9931	21.238	1.3636	0.	640.92
9932	21.146	1.4545	0.	665.75
9933	21.238	1.4545	5.e-002	7.9618
9934	21.238	1.1818	0.	622.2
9935	21.146	1.2727	0.	649.44
9936	21.238	1.2727	5.e-002	8.2791
9937	21.238	1.	0.	602.36
9938	21.146	1.0909	0.	631.61
9939	21.238	1.0909	5.e-002	8.5509
9940	21.238	0.81818	0.	582.39
9941	21.146	0.90909	0.	613.15
9942	21.238	0.90909	5.e-002	8.7665
9943	21.238	0.63636	0.	563.17
9944	21.146	0.72727	0.	594.92
9945	21.238	0.72727	5.e-002	8.9257
9946	21.238	0.45455	0.	545.38
9947	21.146	0.54545	0.	577.63
9948	21.238	0.54545	5.e-002	9.0275
9949	21.238	0.27273	0.	529.8
9950	21.146	0.36364	0.	561.82
9951	21.238	0.36364	5.e-002	8.9401
9952	21.146	0.18182	0.	548.8
9953	21.238	0.18182	5.e-002	6.5905
9954	21.238	9.0909e-002	0.	514.84
9955	21.053	5.7273	0.	580.42
9956	20.961	5.8182	0.	599.63
9957	21.053	5.8182	5.e-002	5.8832
9958	21.053	5.9091	0.	566.05
9959	21.053	5.5455	0.	593.93
9960	20.961	5.6364	0.	610.72
9961	21.053	5.6364	5.e-002	8.6215
9962	21.053	5.3636	0.	609.34
9963	20.961	5.4545	0.	624.49
9964	21.053	5.4545	5.e-002	8.7345
9965	21.053	5.1818	0.	625.73
9966	20.961	5.2727	0.	639.35
9967	21.053	5.2727	5.e-002	8.6368
9968	21.053	5.	0.	642.52
9969	20.961	5.0909	0.	654.8
9970	21.053	5.0909	5.e-002	8.4893
9971	21.053	4.8182	0.	659.01
9972	20.961	4.9091	0.	670.25
9973	21.053	4.9091	5.e-002	8.3005
9974	21.053	4.6364	0.	674.45
9975	20.961	4.7273	0.	685.05
9976	21.053	4.7273	5.e-002	8.0744
9977	21.053	4.4545	0.	688.13
9978	20.961	4.5455	0.	698.54
9979	21.053	4.5455	5.e-002	7.8207
9980	21.053	4.2727	0.	699.5
9981	20.961	4.3636	0.	710.15
9982	21.053	4.3636	5.e-002	7.5538
9983	21.053	4.0909	0.	708.25
9984	20.961	4.1818	0.	719.5
9985	21.053	4.1818	5.e-002	7.2892
9986	21.053	3.9091	0.	714.42
9987	20.961	4.	0.	726.47
9988	21.053	4.	5.e-002	7.039
9989	21.053	3.7273	0.	718.32
9990	20.961	3.8182	0.	731.22
9991	21.053	3.8182	5.e-002	6.8108
9992	21.053	3.5455	0.	720.49
9993	20.961	3.6364	0.	734.13
9994	21.053	3.6364	5.e-002	6.6103
9995	21.053	3.3636	0.	721.5
9996	20.961	3.4545	0.	735.7
9997	21.053	3.4545	5.e-002	6.4449
9998	21.053	3.1818	0.	721.87
9999	20.961	3.2727	0.	736.42
10000	21.053	3.2727	5.e-002	6.3251
10001	21.053	3.	0.	721.96
10002	20.961	3.0909	0.	736.68
10003	21.053	3.0909	5.e-002	6.2617
10004	21.053	2.8182	0.	721.87
10005	20.961	2.9091	0.	736.68
10006	21.053	2.9091	5.e-002	6.2617
10007	21.053	2.6364	0.	721.5
10008	20.961	2.7273	0.	736.42
10009	21.053	2.7273	5.e-002	6.3251
10010	21.053	2.4545	0.	720.49
10011	20.961	2.5455	0.	735.7
10012	21.053	2.5455	5.e-002	6.4449
10013	21.053	2.2727	0.	718.32
10014	20.961	2.3636	0.	734.13
10015	21.053	2.3636	5.e-002	6.6103
10016	21.053	2.0909	0.	714.42
10017	20.961	2.1818	0.	731.22
10018	21.053	2.1818	5.e-002	6.8108
10019	21.053	1.9091	0.	708.25
10020	20.961	2.	0.	726.47
10021	21.053	2.	5.e-002	7.039
10022	21.053	1.7273	0.	699.5
10023	20.961	1.8182	0.	719.5
10024	21.053	1.8182	5.e-002	7.2892
10025	21.053	1.5455	0.	688.13
10026	20.961	1.6364	0.	710.15
10027	21.053	1.6364	5.e-002	7.5538
10028	21.053	1.3636	0.	674.45
10029	20.961	1.4545	0.	698.54
10030	21.053	1.4545	5.e-002	7.8207
10031	21.053	1.1818	0.	659.01
10032	20.961	1.2727	0.	685.05
10033	21.053	1.2727	5.e-002	8.0744
10034	21.053	1.	0.	642.52
10035	20.961	1.0909	0.	670.25
10036	21.053	1.0909	5.e-002	8.3005
10037	21.053	0.81818	0.	625.73
10038	20.961	0.90909	0.	654.8
10039	21.053	0.90909	5.e-002	8.4893
10040	21.053	0.63636	0.	609.34
10041	20.961	0.72727	0.	639.35
10042	21.053	0.72727	5.e-002	8.6368
10043	21.053	0.45455	0.	593.93
10044	20.961	0.54545	0.	624.49
10045	21.053	0.54545	5.e-002	8.7345
10046	21.053	0.27273	0.	580.42
10047	20.961	0.36364	0.	610.72
10048	21.053	0.36364	5.e-002	8.6214
10049	20.961	0.18182	0.	599.63
10050	21.053	0.18182	5.e-002	5.8832
10051	21.053	9.0909e-002	0.	566.05
10052	20.869	5.7273	0.	629.55
10053	20.776	5.8182	0.	649.01
10054	20.869	5.8182	5.e-002	5.2361
10055	20.869	5.9091	0.	615.74
10056	20.869	5.5455	0.	641.13
10057	20.776	5.6364	0.	658.29
10058	20.869	5.6364	5.e-002	8.3422
10059	20.869	5.3636	0.	654.44
10060	20.776	5.4545	0.	670.22
10061	20.869	5.4545	5.e-002	8.4866
10062	20.869	5.1818	0.	668.42
10063	20.776	5.2727	0.	682.99
10064	20.869	5.2727	5.e-002	8.4013
10065	20.869	5.	0.	682.59
10066	20.776	5.0909	0.	696.11
10067	20.869	5.0909	5.e-002	8.2725
10068	20.869	4.8182	0.	696.39
10069	20.776	4.9091	0.	709.12
10070	20.869	4.9091	5.e-002	8.1132
10071	20.869	4.6364	0.	709.25
10072	20.776	4.7273	0.	721.5
10073	20.869	4.7273	5.e-002	7.9286
10074	20.869	4.4545	0.	720.67
10075	20.776	4.5455	0.	732.76
10076	20.869	4.5455	5.e-002	7.7265
10077	20.869	4.2727	0.	730.25
10078	20.776	4.3636	0.	742.52
10079	20.869	4.3636	5.e-002	7.5174
10080	20.869	4.0909	0.	737.8
10081	20.776	4.1818	0.	750.5
10082	20.869	4.1818	5.e-002	7.3116
10083	20.869	3.9091	0.	743.34
10084	20.776	4.	0.	756.62
10085	20.869	4.	5.e-002	7.118
10086	20.869	3.7273	0.	747.08
10087	20.776	3.8182	0.	761.
10088	20.869	3.8182	5.e-002	6.9428
10089	20.869	3.5455	0.	749.38
10090	20.776	3.6364	0.	763.88
10091	20.869	3.6364	5.e-002	6.7914
10092	20.869	3.3636	0.	750.65
10093	20.776	3.4545	0.	765.61
10094	20.869	3.4545	5.e-002	6.6691
10095	20.869	3.1818	0.	751.25
10096	20.776	3.2727	0.	766.54
10097	20.869	3.2727	5.e-002	6.5823
10098	20.869	3.	0.	751.42
10099	20.776	3.0909	0.	766.92
10100	20.869	3.0909	5.e-002	6.5371
10101	20.869	2.8182	0.	751.25
10102	20.776	2.9091	0.	766.92
10103	20.869	2.9091	5.e-002	6.5371
10104	20.869	2.6364	0.	750.65
10105	20.776	2.7273	0.	766.54
10106	20.869	2.7273	5.e-002	6.5823
10107	20.869	2.4545	0.	749.38
10108	20.776	2.5455	0.	765.61
10109	20.869	2.5455	5.e-002	6.6691
10110	20.869	2.2727	0.	747.08
10111	20.776	2.3636	0.	763.88
10112	20.869	2.3636	5.e-002	6.7914
10113	20.869	2.0909	0.	743.34
10114	20.776	2.1818	0.	761.
10115	20.869	2.1818	5.e-002	6.9428
10116	20.869	1.9091	0.	737.8
10117	20.776	2.	0.	756.62
10118	20.869	2.	5.e-002	7.118
10119	20.869	1.7273	0.	730.25
10120	20.776	1.8182	0.	750.5
10121	20.869	1.8182	5.e-002	7.3116
10122	20.869	1.5455	0.	720.67
10123	20.776	1.6364	0.	742.52
10124	20.869	1.6364	5.e-002	7.5174
10125	20.869	1.3636	0.	709.25
10126	20.776	1.4545	0.	732.76
10127	20.869	1.4545	5.e-002	7.7265
10128	20.869	1.1818	0.	696.39
10129	20.776	1.2727	0.	721.5
10130	20.869	1.2727	5.e-002	7.9286
10131	20.869	1.	0.	682.59
10132	20.776	1.0909	0.	709.12
10133	20.869	1.0909	5.e-002	8.1132
10134	20.869	0.81818	0.	668.42
10135	20.776	0.90909	0.	696.11
10136	20.869	0.90909	5.e-002	8.2725
10137	20.869	0.63636	0.	654.44
10138	20.776	0.72727	0.	682.99
10139	20.869	0.72727	5.e-002	8.4013
10140	20.869	0.45455	0.	641.13
10141	20.776	0.54545	0.	670.22
10142	20.869	0.54545	5.e-002	8.4866
10143	20.869	0.27273	0.	629.55
10144	20.776	0.36364	0.	658.29
10145	20.869	0.36364	5.e-002	8.3422
10146	20.776	0.18182	0.	649.01
10147	20.869	0.18182	5.e-002	5.2361
10148	20.869	9.0909e-002	0.	615.74
10149	20.684	5.7273	0.	677.4
10150	20.592	5.8182	0.	697.15
10151	20.684	5.8182	5.e-002	4.6533
10152	20.684	5.9091	0.	664.14
10153	20.684	5.5455	0.	687.24
10154	20.592	5.6364	0.	704.78
10155	20.684	5.6364	5.e-002	8.1034
10156	20.684	5.3636	0.	698.7
10157	20.592	5.4545	0.	715.08
10158	20.684	5.4545	5.e-002	8.2807
10159	20.684	5.1818	0.	710.65
10160	20.592	5.2727	0.	726.03
10161	20.684	5.2727	5.e-002	8.2112
10162	20.684	5.	0.	722.65
10163	20.592	5.0909	0.	737.2
10164	20.684	5.0909	5.e-002	8.103
10165	20.684	4.8182	0.	734.26
10166	20.592	4.9091	0.	748.2
10167	20.684	4.9091	5.e-002	7.9718
10168	20.684	4.6364	0.	745.07
10169	20.592	4.7273	0.	758.63
10170	20.684	4.7273	5.e-002	7.8229
10171	20.684	4.4545	0.	754.68
10172	20.592	4.5455	0.	768.13
10173	20.684	4.5455	5.e-002	7.6626
10174	20.684	4.2727	0.	762.83
10175	20.592	4.3636	0.	776.4
10176	20.684	4.3636	5.e-002	7.4986
10177	20.684	4.0909	0.	769.37
10178	20.592	4.1818	0.	783.26
10179	20.684	4.1818	5.e-002	7.3383
10180	20.684	3.9091	0.	774.32
10181	20.592	4.	0.	788.64
10182	20.684	4.	5.e-002	7.1881
10183	20.684	3.7273	0.	777.83
10184	20.592	3.8182	0.	792.63
10185	20.684	3.8182	5.e-002	7.0533
10186	20.684	3.5455	0.	780.13
10187	20.592	3.6364	0.	795.39
10188	20.684	3.6364	5.e-002	6.9381
10189	20.684	3.3636	0.	781.52
10190	20.592	3.4545	0.	797.16
10191	20.684	3.4545	5.e-002	6.8464
10192	20.684	3.1818	0.	782.23
10193	20.592	3.2727	0.	798.18
10194	20.684	3.2727	5.e-002	6.7823
10195	20.684	3.	0.	782.45
10196	20.592	3.0909	0.	798.64
10197	20.684	3.0909	5.e-002	6.7492
10198	20.684	2.8182	0.	782.23
10199	20.592	2.9091	0.	798.64
10200	20.684	2.9091	5.e-002	6.7492
10201	20.684	2.6364	0.	781.52
10202	20.592	2.7273	0.	798.18
10203	20.684	2.7273	5.e-002	6.7823
10204	20.684	2.4545	0.	780.13
10205	20.592	2.5455	0.	797.16
10206	20.684	2.5455	5.e-002	6.8464
10207	20.684	2.2727	0.	777.83
10208	20.592	2.3636	0.	795.39
10209	20.684	2.3636	5.e-002	6.9381
10210	20.684	2.0909	0.	774.32
10211	20.592	2.1818	0.	792.63
10212	20.684	2.1818	5.e-002	7.0533
10213	20.684	1.9091	0.	769.37
10214	20.592	2.	0.	788.64
10215	20.684	2.	5.e-002	7.1881
10216	20.684	1.7273	0.	762.83
10217	20.592	1.8182	0.	783.26
10218	20.684	1.8182	5.e-002	7.3383
10219	20.684	1.5455	0.	754.68
10220	20.592	1.6364	0.	776.4
10221	20.684	1.6364	5.e-002	7.4986
10222	20.684	1.3636	0.	745.07
10223	20.592	1.4545	0.	768.13
10224	20.684	1.4545	5.e-002	7.6626
10225	20.684	1.1818	0.	734.26
10226	20.592	1.2727	0.	758.63
10227	20.684	1.2727	5.e-002	7.8229
10228	20.684	1.	0.	722.65
10229	20.592	1.0909	0.	748.2
10230	20.684	1.0909	5.e-002	7.9718
10231	20.684	0.81818	0.	710.65
10232	20.592	0.90909	0.	737.2
10233	20.684	0.90909	5.e-002	8.103
10234	20.684	0.63636	0.	698.7
10235	20.592	0.72727	0.	726.03
10236	20.684	0.72727	5.e-002	8.2112
10237	20.684	0.45455	0.	687.24
10238	20.592	0.54545	0.	715.08
10239	20.684	0.54545	5.e-002	8.2807
10240	20.684	0.27273	0.	677.4
10241	20.592	0.36364	0.	704.78
10242	20.684	0.36364	5.e-002	8.1034
10243	20.592	0.18182	0.	697.15
10244	20.684	0.18182	5.e-002	4.6533
10245	20.684	9.0909e-002	0.	664.13
10246	20.499	5.7273	0.	724.18
10247	20.407	5.8182	0.	744.24
10248	20.499	5.8182	5.e-002	4.1337
10249	20.499	5.9091	0.	711.43
10250	20.499	5.5455	0.	732.48
10251	20.407	5.6364	0.	750.38
10252	20.499	5.6364	5.e-002	7.9029
10253	20.499	5.3636	0.	742.32
10254	20.407	5.4545	0.	759.25
10255	20.499	5.4545	5.e-002	8.1123
10256	20.499	5.1818	0.	752.54
10257	20.407	5.2727	0.	768.65
10258	20.499	5.2727	5.e-002	8.059
10259	20.499	5.	0.	762.75
10260	20.407	5.0909	0.	778.18
10261	20.499	5.0909	5.e-002	7.9706
10262	20.499	4.8182	0.	772.58
10263	20.407	4.9091	0.	787.53
10264	20.499	4.9091	5.e-002	7.8644
10265	20.499	4.6364	0.	781.72
10266	20.407	4.7273	0.	796.37
10267	20.499	4.7273	5.e-002	7.7455
10268	20.499	4.4545	0.	789.88
10269	20.407	4.5455	0.	804.43
10270	20.499	4.5455	5.e-002	7.6188
10271	20.499	4.2727	0.	796.86
10272	20.407	4.3636	0.	811.5
10273	20.499	4.3636	5.e-002	7.4902
10274	20.499	4.0909	0.	802.56
10275	20.407	4.1818	0.	817.42
10276	20.499	4.1818	5.e-002	7.3652
10277	20.499	3.9091	0.	806.97
10278	20.407	4.	0.	822.17
10279	20.499	4.	5.e-002	7.2486
10280	20.499	3.7273	0.	810.21
10281	20.407	3.8182	0.	825.77
10282	20.499	3.8182	5.e-002	7.1446
10283	20.499	3.5455	0.	812.43
10284	20.407	3.6364	0.	828.36
10285	20.499	3.6364	5.e-002	7.0563
10286	20.499	3.3636	0.	813.84
10287	20.407	3.4545	0.	830.1
10288	20.499	3.4545	5.e-002	6.9868
10289	20.499	3.1818	0.	814.6
10290	20.407	3.2727	0.	831.15
10291	20.499	3.2727	5.e-002	6.9386
10292	20.499	3.	0.	814.84
10293	20.407	3.0909	0.	831.63
10294	20.499	3.0909	5.e-002	6.9139
10295	20.499	2.8182	0.	814.6
10296	20.407	2.9091	0.	831.63
10297	20.499	2.9091	5.e-002	6.9139
10298	20.499	2.6364	0.	813.84
10299	20.407	2.7273	0.	831.15
10300	20.499	2.7273	5.e-002	6.9386
10301	20.499	2.4545	0.	812.43
10302	20.407	2.5455	0.	830.1
10303	20.499	2.5455	5.e-002	6.9868
10304	20.499	2.2727	0.	810.21
10305	20.407	2.3636	0.	828.36
10306	20.499	2.3636	5.e-002	7.0563
10307	20.499	2.0909	0.	806.97
10308	20.407	2.1818	0.	825.77
10309	20.499	2.1818	5.e-002	7.1446
10310	20.499	1.9091	0.	802.56
10311	20.407	2.	0.	822.17
10312	20.499	2.	5.e-002	7.2486
10313	20.499	1.7273	0.	796.86
10314	20.407	1.8182	0.	817.42
10315	20.499	1.8182	5.e-002	7.3652
10316	20.499	1.5455	0.	789.88
10317	20.407	1.6364	0.	811.5
10318	20.499	1.6364	5.e-002	7.4902
10319	20.499	1.3636	0.	781.72
10320	20.407	1.4545	0.	804.43
10321	20.499	1.4545	5.e-002	7.6188
10322	20.499	1.1818	0.	772.58
10323	20.407	1.2727	0.	796.37
10324	20.499	1.2727	5.e-002	7.7455
10325	20.499	1.	0.	762.75
10326	20.407	1.0909	0.	787.53
10327	20.499	1.0909	5.e-002	7.8644
10328	20.499	0.81818	0.	752.54
10329	20.407	0.90909	0.	778.18
10330	20.499	0.90909	5.e-002	7.9706
10331	20.499	0.63636	0.	742.32
10332	20.407	0.72727	0.	768.65
10333	20.499	0.72727	5.e-002	8.059
10334	20.499	0.45455	0.	732.48
10335	20.407	0.54545	0.	759.25
10336	20.499	0.54545	5.e-002	8.1123
10337	20.499	0.27273	0.	724.18
10338	20.407	0.36364	0.	750.38
10339	20.499	0.36364	5.e-002	7.9029
10340	20.407	0.18182	0.	744.24
10341	20.499	0.18182	5.e-002	4.1337
10342	20.499	9.0909e-002	0.	711.43
10343	20.315	5.7273	0.	770.11
10344	20.222	5.8182	0.	790.47
10345	20.315	5.8182	5.e-002	3.6734
10346	20.315	5.9091	0.	757.82
10347	20.315	5.5455	0.	777.03
10348	20.222	5.6364	0.	795.3
10349	20.315	5.6364	5.e-002	7.7373
10350	20.315	5.3636	0.	785.48
10351	20.222	5.4545	0.	802.9
10352	20.315	5.4545	5.e-002	7.9766
10353	20.315	5.1818	0.	794.23
10354	20.222	5.2727	0.	810.97
10355	20.315	5.2727	5.e-002	7.9384
10356	20.315	5.	0.	802.93
10357	20.222	5.0909	0.	819.12
10358	20.315	5.0909	5.e-002	7.8676
10359	20.315	4.8182	0.	811.31
10360	20.222	4.9091	0.	827.1
10361	20.315	4.9091	5.e-002	7.7829
10362	20.315	4.6364	0.	819.09
10363	20.222	4.7273	0.	834.64
10364	20.315	4.7273	5.e-002	7.6886
10365	20.315	4.4545	0.	826.06
10366	20.222	4.5455	0.	841.53
10367	20.315	4.5455	5.e-002	7.589
10368	20.315	4.2727	0.	832.07
10369	20.222	4.3636	0.	847.6
10370	20.315	4.3636	5.e-002	7.4883
10371	20.315	4.0909	0.	837.05
10372	20.222	4.1818	0.	852.74
10373	20.315	4.1818	5.e-002	7.3908
10374	20.315	3.9091	0.	840.98
10375	20.222	4.	0.	856.93
10376	20.315	4.	5.e-002	7.3001
10377	20.315	3.7273	0.	843.94
10378	20.222	3.8182	0.	860.18
10379	20.315	3.8182	5.e-002	7.2195
10380	20.315	3.5455	0.	846.04
10381	20.222	3.6364	0.	862.58
10382	20.315	3.6364	5.e-002	7.1516
10383	20.315	3.3636	0.	847.41
10384	20.222	3.4545	0.	864.23
10385	20.315	3.4545	5.e-002	7.0984
10386	20.315	3.1818	0.	848.18
10387	20.222	3.2727	0.	865.26
10388	20.315	3.2727	5.e-002	7.0618
10389	20.315	3.	0.	848.43
10390	20.222	3.0909	0.	865.74
10391	20.315	3.0909	5.e-002	7.0431
10392	20.315	2.8182	0.	848.18
10393	20.222	2.9091	0.	865.74
10394	20.315	2.9091	5.e-002	7.0431
10395	20.315	2.6364	0.	847.41
10396	20.222	2.7273	0.	865.26
10397	20.315	2.7273	5.e-002	7.0618
10398	20.315	2.4545	0.	846.04
10399	20.222	2.5455	0.	864.23
10400	20.315	2.5455	5.e-002	7.0984
10401	20.315	2.2727	0.	843.94
10402	20.222	2.3636	0.	862.58
10403	20.315	2.3636	5.e-002	7.1516
10404	20.315	2.0909	0.	840.98
10405	20.222	2.1818	0.	860.18
10406	20.315	2.1818	5.e-002	7.2195
10407	20.315	1.9091	0.	837.05
10408	20.222	2.	0.	856.93
10409	20.315	2.	5.e-002	7.3001
10410	20.315	1.7273	0.	832.07
10411	20.222	1.8182	0.	852.74
10412	20.315	1.8182	5.e-002	7.3908
10413	20.315	1.5455	0.	826.06
10414	20.222	1.6364	0.	847.6
10415	20.315	1.6364	5.e-002	7.4883
10416	20.315	1.3636	0.	819.09
10417	20.222	1.4545	0.	841.53
10418	20.315	1.4545	5.e-002	7.589
10419	20.315	1.1818	0.	811.31
10420	20.222	1.2727	0.	834.64
10421	20.315	1.2727	5.e-002	7.6886
10422	20.315	1.	0.	802.93
10423	20.222	1.0909	0.	827.1
10424	20.315	1.0909	5.e-002	7.7829
10425	20.315	0.81818	0.	794.23
10426	20.222	0.90909	0.	819.12
10427	20.315	0.90909	5.e-002	7.8676
10428	20.315	0.63636	0.	785.48
10429	20.222	0.72727	0.	810.97
10430	20.315	0.72727	5.e-002	7.9384
10431	20.315	0.45455	0.	777.03
10432	20.222	0.54545	0.	802.9
10433	20.315	0.54545	5.e-002	7.9766
10434	20.315	0.27273	0.	770.11
10435	20.222	0.36364	0.	795.3
10436	20.315	0.36364	5.e-002	7.7373
10437	20.222	0.18182	0.	790.47
10438	20.315	0.18182	5.e-002	3.6734
10439	20.315	9.0909e-002	0.	757.82
10440	20.13	5.7273	0.	815.35
10441	20.038	5.8182	0.	836.01
10442	20.13	5.8182	5.e-002	3.267
10443	20.13	5.9091	0.	803.49
10444	20.13	5.5455	0.	821.06
10445	20.038	5.6364	0.	839.68
10446	20.13	5.6364	5.e-002	7.6022
10447	20.13	5.3636	0.	828.31
10448	20.038	5.4545	0.	846.19
10449	20.13	5.4545	5.e-002	7.8687
10450	20.13	5.1818	0.	835.8
10451	20.038	5.2727	0.	853.11
10452	20.13	5.2727	5.e-002	7.8438
10453	20.13	5.	0.	843.25
10454	20.038	5.0909	0.	860.09
10455	20.13	5.0909	5.e-002	7.7882
10456	20.13	4.8182	0.	850.4
10457	20.038	4.9091	0.	866.92
10458	20.13	4.9091	5.e-002	7.7214
10459	20.13	4.6364	0.	857.06
10460	20.038	4.7273	0.	873.38
10461	20.13	4.7273	5.e-002	7.6472
10462	20.13	4.4545	0.	863.06
10463	20.038	4.5455	0.	879.29
10464	20.13	4.5455	5.e-002	7.5691
10465	20.13	4.2727	0.	868.26
10466	20.038	4.3636	0.	884.54
10467	20.13	4.3636	5.e-002	7.4904
10468	20.13	4.0909	0.	872.62
10469	20.038	4.1818	0.	889.02
10470	20.13	4.1818	5.e-002	7.4144
10471	20.13	3.9091	0.	876.12
10472	20.038	4.	0.	892.72
10473	20.13	4.	5.e-002	7.3439
10474	20.13	3.7273	0.	878.81
10475	20.038	3.8182	0.	895.64
10476	20.13	3.8182	5.e-002	7.2813
10477	20.13	3.5455	0.	880.77
10478	20.038	3.6364	0.	897.84
10479	20.13	3.6364	5.e-002	7.2288
10480	20.13	3.3636	0.	882.07
10481	20.038	3.4545	0.	899.39
10482	20.13	3.4545	5.e-002	7.1878
10483	20.13	3.1818	0.	882.82
10484	20.038	3.2727	0.	900.37
10485	20.13	3.2727	5.e-002	7.1598
10486	20.13	3.	0.	883.06
10487	20.038	3.0909	0.	900.84
10488	20.13	3.0909	5.e-002	7.1455
10489	20.13	2.8182	0.	882.82
10490	20.038	2.9091	0.	900.84
10491	20.13	2.9091	5.e-002	7.1455
10492	20.13	2.6364	0.	882.07
10493	20.038	2.7273	0.	900.37
10494	20.13	2.7273	5.e-002	7.1598
10495	20.13	2.4545	0.	880.77
10496	20.038	2.5455	0.	899.39
10497	20.13	2.5455	5.e-002	7.1878
10498	20.13	2.2727	0.	878.81
10499	20.038	2.3636	0.	897.84
10500	20.13	2.3636	5.e-002	7.2288
10501	20.13	2.0909	0.	876.12
10502	20.038	2.1818	0.	895.64
10503	20.13	2.1818	5.e-002	7.2813
10504	20.13	1.9091	0.	872.62
10505	20.038	2.	0.	892.72
10506	20.13	2.	5.e-002	7.3439
10507	20.13	1.7273	0.	868.26
10508	20.038	1.8182	0.	889.02
10509	20.13	1.8182	5.e-002	7.4144
10510	20.13	1.5455	0.	863.06
10511	20.038	1.6364	0.	884.54
10512	20.13	1.6364	5.e-002	7.4904
10513	20.13	1.3636	0.	857.06
10514	20.038	1.4545	0.	879.29
10515	20.13	1.4545	5.e-002	7.5691
10516	20.13	1.1818	0.	850.4
10517	20.038	1.2727	0.	873.38
10518	20.13	1.2727	5.e-002	7.6472
10519	20.13	1.	0.	843.25
10520	20.038	1.0909	0.	866.92
10521	20.13	1.0909	5.e-002	7.7214
10522	20.13	0.81818	0.	835.8
10523	20.038	0.90909	0.	860.09
10524	20.13	0.90909	5.e-002	7.7882
10525	20.13	0.63636	0.	828.31
10526	20.038	0.72727	0.	853.11
10527	20.13	0.72727	5.e-002	7.8438
10528	20.13	0.45455	0.	821.06
10529	20.038	0.54545	0.	846.19
10530	20.13	0.54545	5.e-002	7.8687
10531	20.13	0.27273	0.	815.35
10532	20.038	0.36364	0.	839.68
10533	20.13	0.36364	5.e-002	7.6022
10534	20.038	0.18182	0.	836.01
10535	20.13	0.18182	5.e-002	3.267
10536	20.13	9.0909e-002	0.	803.49
10537	19.945	5.7273	0.	860.04
10538	19.853	5.8182	0.	881.
10539	19.945	5.8182	5.e-002	2.9089
10540	19.945	5.9091	0.	848.58
10541	19.945	5.5455	0.	864.7
10542	19.853	5.6364	0.	883.66
10543	19.945	5.6364	5.e-002	7.4936
10544	19.945	5.3636	0.	870.91
10545	19.853	5.4545	0.	889.21
10546	19.945	5.4545	5.e-002	7.7842
10547	19.945	5.1818	0.	877.33
10548	19.853	5.2727	0.	895.14
10549	19.945	5.2727	5.e-002	7.7707
10550	19.945	5.	0.	883.72
10551	19.853	5.0909	0.	901.14
10552	19.945	5.0909	5.e-002	7.7278
10553	19.945	4.8182	0.	889.86
10554	19.853	4.9091	0.	906.99
10555	19.945	4.9091	5.e-002	7.6756
10556	19.945	4.6364	0.	895.58
10557	19.853	4.7273	0.	912.54
10558	19.945	4.7273	5.e-002	7.6177
10559	19.945	4.4545	0.	900.75
10560	19.853	4.5455	0.	917.65
10561	19.945	4.5455	5.e-002	7.5567
10562	19.945	4.2727	0.	905.28
10563	19.853	4.3636	0.	922.19
10564	19.945	4.3636	5.e-002	7.4954
10565	19.945	4.0909	0.	909.11
10566	19.853	4.1818	0.	926.12
10567	19.945	4.1818	5.e-002	7.4362
10568	19.945	3.9091	0.	912.23
10569	19.853	4.	0.	929.38
10570	19.945	4.	5.e-002	7.3813
10571	19.945	3.7273	0.	914.66
10572	19.853	3.8182	0.	932.
10573	19.945	3.8182	5.e-002	7.3327
10574	19.945	3.5455	0.	916.45
10575	19.853	3.6364	0.	934.01
10576	19.945	3.6364	5.e-002	7.292
10577	19.945	3.3636	0.	917.68
10578	19.853	3.4545	0.	935.44
10579	19.945	3.4545	5.e-002	7.2603
10580	19.945	3.1818	0.	918.38
10581	19.853	3.2727	0.	936.36
10582	19.945	3.2727	5.e-002	7.2387
10583	19.945	3.	0.	918.62
10584	19.853	3.0909	0.	936.81
10585	19.945	3.0909	5.e-002	7.2277
10586	19.945	2.8182	0.	918.38
10587	19.853	2.9091	0.	936.81
10588	19.945	2.9091	5.e-002	7.2277
10589	19.945	2.6364	0.	917.68
10590	19.853	2.7273	0.	936.36
10591	19.945	2.7273	5.e-002	7.2387
10592	19.945	2.4545	0.	916.45
10593	19.853	2.5455	0.	935.44
10594	19.945	2.5455	5.e-002	7.2603
10595	19.945	2.2727	0.	914.66
10596	19.853	2.3636	0.	934.01
10597	19.945	2.3636	5.e-002	7.292
10598	19.945	2.0909	0.	912.23
10599	19.853	2.1818	0.	932.
10600	19.945	2.1818	5.e-002	7.3327
10601	19.945	1.9091	0.	909.11
10602	19.853	2.	0.	929.38
10603	19.945	2.	5.e-002	7.3813
10604	19.945	1.7273	0.	905.28
10605	19.853	1.8182	0.	926.12
10606	19.945	1.8182	5.e-002	7.4362
10607	19.945	1.5455	0.	900.75
10608	19.853	1.6364	0.	922.19
10609	19.945	1.6364	5.e-002	7.4954
10610	19.945	1.3636	0.	895.58
10611	19.853	1.4545	0.	917.65
10612	19.945	1.4545	5.e-002	7.5567
10613	19.945	1.1818	0.	889.86
10614	19.853	1.2727	0.	912.54
10615	19.945	1.2727	5.e-002	7.6177
10616	19.945	1.	0.	883.72
10617	19.853	1.0909	0.	906.99
10618	19.945	1.0909	5.e-002	7.6756
10619	19.945	0.81818	0.	877.33
10620	19.853	0.90909	0.	901.14
10621	19.945	0.90909	5.e-002	7.7278
10622	19.945	0.63636	0.	870.91
10623	19.853	0.72727	0.	895.14
10624	19.945	0.72727	5.e-002	7.7707
10625	19.945	0.45455	0.	864.7
10626	19.853	0.54545	0.	889.21
10627	19.945	0.54545	5.e-002	7.7842
10628	19.945	0.27273	0.	860.04
10629	19.853	0.36364	0.	883.66
10630	19.945	0.36364	5.e-002	7.4936
10631	19.853	0.18182	0.	881.
10632	19.945	0.18182	5.e-002	2.9089
10633	19.945	9.0909e-002	0.	848.58
10634	19.76	5.7273	0.	904.33
10635	19.668	5.8182	0.	925.57
10636	19.76	5.8182	5.e-002	2.5933
10637	19.76	5.9091	0.	893.23
10638	19.76	5.5455	0.	908.06
10639	19.668	5.6364	0.	927.34
10640	19.76	5.6364	5.e-002	7.4073
10641	19.76	5.3636	0.	913.37
10642	19.668	5.4545	0.	932.06
10643	19.76	5.4545	5.e-002	7.7194
10644	19.76	5.1818	0.	918.88
10645	19.668	5.2727	0.	937.15
10646	19.76	5.2727	5.e-002	7.7152
10647	19.76	5.	0.	924.36
10648	19.668	5.0909	0.	942.29
10649	19.76	5.0909	5.e-002	7.6827
10650	19.76	4.8182	0.	929.64
10651	19.668	4.9091	0.	947.33
10652	19.76	4.9091	5.e-002	7.6424
10653	19.76	4.6364	0.	934.58
10654	19.668	4.7273	0.	952.11
10655	19.76	4.7273	5.e-002	7.5975
10656	19.76	4.4545	0.	939.06
10657	19.668	4.5455	0.	956.52
10658	19.76	4.5455	5.e-002	7.5502
10659	19.76	4.2727	0.	943.01
10660	19.668	4.3636	0.	960.48
10661	19.76	4.3636	5.e-002	7.5025
10662	19.76	4.0909	0.	946.38
10663	19.668	4.1818	0.	963.92
10664	19.76	4.1818	5.e-002	7.4565
10665	19.76	3.9091	0.	949.15
10666	19.668	4.	0.	966.81
10667	19.76	4.	5.e-002	7.4139
10668	19.76	3.7273	0.	951.34
10669	19.668	3.8182	0.	969.15
10670	19.76	3.8182	5.e-002	7.3761
10671	19.76	3.5455	0.	952.98
10672	19.668	3.6364	0.	970.96
10673	19.76	3.6364	5.e-002	7.3445
10674	19.76	3.3636	0.	954.11
10675	19.668	3.4545	0.	972.28
10676	19.76	3.4545	5.e-002	7.3199
10677	19.76	3.1818	0.	954.77
10678	19.668	3.2727	0.	973.13
10679	19.76	3.2727	5.e-002	7.3032
10680	19.76	3.	0.	954.99
10681	19.668	3.0909	0.	973.55
10682	19.76	3.0909	5.e-002	7.2947
10683	19.76	2.8182	0.	954.77
10684	19.668	2.9091	0.	973.55
10685	19.76	2.9091	5.e-002	7.2947
10686	19.76	2.6364	0.	954.11
10687	19.668	2.7273	0.	973.13
10688	19.76	2.7273	5.e-002	7.3032
10689	19.76	2.4545	0.	952.98
10690	19.668	2.5455	0.	972.28
10691	19.76	2.5455	5.e-002	7.3199
10692	19.76	2.2727	0.	951.34
10693	19.668	2.3636	0.	970.96
10694	19.76	2.3636	5.e-002	7.3445
10695	19.76	2.0909	0.	949.15
10696	19.668	2.1818	0.	969.15
10697	19.76	2.1818	5.e-002	7.3761
10698	19.76	1.9091	0.	946.38
10699	19.668	2.	0.	966.81
10700	19.76	2.	5.e-002	7.4139
10701	19.76	1.7273	0.	943.01
10702	19.668	1.8182	0.	963.92
10703	19.76	1.8182	5.e-002	7.4565
10704	19.76	1.5455	0.	939.06
10705	19.668	1.6364	0.	960.48
10706	19.76	1.6364	5.e-002	7.5025
10707	19.76	1.3636	0.	934.58
10708	19.668	1.4545	0.	956.52
10709	19.76	1.4545	5.e-002	7.5502
10710	19.76	1.1818	0.	929.64
10711	19.668	1.2727	0.	952.11
10712	19.76	1.2727	5.e-002	7.5975
10713	19.76	1.	0.	924.36
10714	19.668	1.0909	0.	947.33
10715	19.76	1.0909	5.e-002	7.6424
10716	19.76	0.81818	0.	918.88
10717	19.668	0.90909	0.	942.29
10718	19.76	0.90909	5.e-002	7.6827
10719	19.76	0.63636	0.	913.37
10720	19.668	0.72727	0.	937.15
10721	19.76	0.72727	5.e-002	7.7152
10722	19.76	0.45455	0.	908.06
10723	19.668	0.54545	0.	932.06
10724	19.76	0.54545	5.e-002	7.7194
10725	19.76	0.27273	0.	904.33
10726	19.668	0.36364	0.	927.34
10727	19.76	0.36364	5.e-002	7.4073
10728	19.668	0.18182	0.	925.57
10729	19.76	0.18182	5.e-002	2.5933
10730	19.76	9.0909e-002	0.	893.23
10731	19.576	5.7273	0.	948.3
10732	19.483	5.8182	0.	969.82
10733	19.576	5.8182	5.e-002	2.3151
10734	19.576	5.9091	0.	937.54
10735	19.576	5.5455	0.	951.24
10736	19.483	5.6364	0.	970.82
10737	19.576	5.6364	5.e-002	7.3399
10738	19.576	5.3636	0.	955.76
10739	19.483	5.4545	0.	974.82
10740	19.576	5.4545	5.e-002	7.6709
10741	19.576	5.1818	0.	960.49
10742	19.483	5.2727	0.	979.17
10743	19.576	5.2727	5.e-002	7.6744
10744	19.576	5.	0.	965.2
10745	19.483	5.0909	0.	983.58
10746	19.576	5.0909	5.e-002	7.6503
10747	19.576	4.8182	0.	969.75
10748	19.483	4.9091	0.	987.91
10749	19.576	4.9091	5.e-002	7.6195
10750	19.576	4.6364	0.	974.02
10751	19.483	4.7273	0.	992.04
10752	19.576	4.7273	5.e-002	7.5849
10753	19.576	4.4545	0.	977.91
10754	19.483	4.5455	0.	995.87
10755	19.576	4.5455	5.e-002	7.5484
10756	19.576	4.2727	0.	981.36
10757	19.483	4.3636	0.	999.31
10758	19.576	4.3636	5.e-002	7.5115
10759	19.576	4.0909	0.	984.32
10760	19.483	4.1818	0.	1002.3
10761	19.576	4.1818	5.e-002	7.4758
10762	19.576	3.9091	0.	986.79
10763	19.483	4.	0.	1004.9
10764	19.576	4.	5.e-002	7.4427
10765	19.576	3.7273	0.	988.76
10766	19.483	3.8182	0.	1007.
10767	19.576	3.8182	5.e-002	7.4134
10768	19.576	3.5455	0.	990.25
10769	19.483	3.6364	0.	1008.6
10770	19.576	3.6364	5.e-002	7.3889
10771	19.576	3.3636	0.	991.28
10772	19.483	3.4545	0.	1009.8
10773	19.576	3.4545	5.e-002	7.3698
10774	19.576	3.1818	0.	991.89
10775	19.483	3.2727	0.	1010.6
10776	19.576	3.2727	5.e-002	7.3568
10777	19.576	3.	0.	992.09
10778	19.483	3.0909	0.	1011.
10779	19.576	3.0909	5.e-002	7.3502
10780	19.576	2.8182	0.	991.89
10781	19.483	2.9091	0.	1011.
10782	19.576	2.9091	5.e-002	7.3502
10783	19.576	2.6364	0.	991.28
10784	19.483	2.7273	0.	1010.6
10785	19.576	2.7273	5.e-002	7.3568
10786	19.576	2.4545	0.	990.25
10787	19.483	2.5455	0.	1009.8
10788	19.576	2.5455	5.e-002	7.3698
10789	19.576	2.2727	0.	988.76
10790	19.483	2.3636	0.	1008.6
10791	19.576	2.3636	5.e-002	7.3889
10792	19.576	2.0909	0.	986.79
10793	19.483	2.1818	0.	1007.
10794	19.576	2.1818	5.e-002	7.4134
10795	19.576	1.9091	0.	984.32
10796	19.483	2.	0.	1004.9
10797	19.576	2.	5.e-002	7.4427
10798	19.576	1.7273	0.	981.36
10799	19.483	1.8182	0.	1002.3
10800	19.576	1.8182	5.e-002	7.4758
10801	19.576	1.5455	0.	977.91
10802	19.483	1.6364	0.	999.31
10803	19.576	1.6364	5.e-002	7.5115
10804	19.576	1.3636	0.	974.02
10805	19.483	1.4545	0.	995.87
10806	19.576	1.4545	5.e-002	7.5484
10807	19.576	1.1818	0.	969.75
10808	19.483	1.2727	0.	992.04
10809	19.576	1.2727	5.e-002	7.5849
10810	19.576	1.	0.	965.2
10811	19.483	1.0909	0.	987.91
10812	19.576	1.0909	5.e-002	7.6195
10813	19.576	0.81818	0.	960.49
10814	19.483	0.90909	0.	983.58
10815	19.576	0.90909	5.e-002	7.6503
10816	19.576	0.63636	0.	955.76
10817	19.483	0.72727	0.	979.17
10818	19.576	0.72727	5.e-002	7.6744
10819	19.576	0.45455	0.	951.24
10820	19.483	0.54545	0.	974.82
10821	19.576	0.54545	5.e-002	7.6709
10822	19.576	0.27273	0.	948.3
10823	19.483	0.36364	0.	970.82
10824	19.576	0.36364	5.e-002	7.3399
10825	19.483	0.18182	0.	969.82
10826	19.576	0.18182	5.e-002	2.3151
10827	19.576	9.0909e-002	0.	937.54
10828	19.391	5.7273	0.	992.06
10829	19.299	5.8182	0.	1013.8
10830	19.391	5.8182	5.e-002	2.0693
10831	19.391	5.9091	0.	981.6
10832	19.391	5.5455	0.	994.3
10833	19.299	5.6364	0.	1014.2
10834	19.391	5.6364	5.e-002	7.2881
10835	19.391	5.3636	0.	998.15
10836	19.299	5.4545	0.	1017.5
10837	19.391	5.4545	5.e-002	7.6359
10838	19.391	5.1818	0.	1002.2
10839	19.299	5.2727	0.	1021.2
10840	19.391	5.2727	5.e-002	7.6456
10841	19.391	5.	0.	1006.2
10842	19.299	5.0909	0.	1025.
10843	19.391	5.0909	5.e-002	7.6281
10844	19.391	4.8182	0.	1010.2
10845	19.299	4.9091	0.	1028.8
10846	19.391	4.9091	5.e-002	7.6048
10847	19.391	4.6364	0.	1013.9
10848	19.299	4.7273	0.	1032.3
10849	19.391	4.7273	5.e-002	7.5785
10850	19.391	4.4545	0.	1017.2
10851	19.299	4.5455	0.	1035.6
10852	19.391	4.5455	5.e-002	7.5504
10853	19.391	4.2727	0.	1020.3
10854	19.299	4.3636	0.	1038.6
10855	19.391	4.3636	5.e-002	7.522
10856	19.391	4.0909	0.	1022.9
10857	19.299	4.1818	0.	1041.3
10858	19.391	4.1818	5.e-002	7.4945
10859	19.391	3.9091	0.	1025.1
10860	19.299	4.	0.	1043.6
10861	19.391	4.	5.e-002	7.4689
10862	19.391	3.7273	0.	1026.8
10863	19.299	3.8182	0.	1045.4
10864	19.391	3.8182	5.e-002	7.4462
10865	19.391	3.5455	0.	1028.2
10866	19.299	3.6364	0.	1046.9
10867	19.391	3.6364	5.e-002	7.4272
10868	19.391	3.3636	0.	1029.1
10869	19.299	3.4545	0.	1048.
10870	19.391	3.4545	5.e-002	7.4124
10871	19.391	3.1818	0.	1029.7
10872	19.299	3.2727	0.	1048.7
10873	19.391	3.2727	5.e-002	7.4023
10874	19.391	3.	0.	1029.9
10875	19.299	3.0909	0.	1049.
10876	19.391	3.0909	5.e-002	7.3972
10877	19.391	2.8182	0.	1029.7
10878	19.299	2.9091	0.	1049.
10879	19.391	2.9091	5.e-002	7.3972
10880	19.391	2.6364	0.	1029.1
10881	19.299	2.7273	0.	1048.7
10882	19.391	2.7273	5.e-002	7.4023
10883	19.391	2.4545	0.	1028.2
10884	19.299	2.5455	0.	1048.
10885	19.391	2.5455	5.e-002	7.4124
10886	19.391	2.2727	0.	1026.8
10887	19.299	2.3636	0.	1046.9
10888	19.391	2.3636	5.e-002	7.4272
10889	19.391	2.0909	0.	1025.1
10890	19.299	2.1818	0.	1045.4
10891	19.391	2.1818	5.e-002	7.4462
10892	19.391	1.9091	0.	1022.9
10893	19.299	2.	0.	1043.6
10894	19.391	2.	5.e-002	7.4689
10895	19.391	1.7273	0.	1020.3
10896	19.299	1.8182	0.	1041.3
10897	19.391	1.8182	5.e-002	7.4945
10898	19.391	1.5455	0.	1017.2
10899	19.299	1.6364	0.	1038.6
10900	19.391	1.6364	5.e-002	7.522
10901	19.391	1.3636	0.	1013.9
10902	19.299	1.4545	0.	1035.6
10903	19.391	1.4545	5.e-002	7.5504
10904	19.391	1.1818	0.	1010.2
10905	19.299	1.2727	0.	1032.3
10906	19.391	1.2727	5.e-002	7.5785
10907	19.391	1.	0.	1006.2
10908	19.299	1.0909	0.	1028.8
10909	19.391	1.0909	5.e-002	7.6048
10910	19.391	0.81818	0.	1002.2
10911	19.299	0.90909	0.	1025.
10912	19.391	0.90909	5.e-002	7.6281
10913	19.391	0.63636	0.	998.15
10914	19.299	0.72727	0.	1021.2
10915	19.391	0.72727	5.e-002	7.6456
10916	19.391	0.45455	0.	994.3
10917	19.299	0.54545	0.	1017.5
10918	19.391	0.54545	5.e-002	7.6359
10919	19.391	0.27273	0.	992.06
10920	19.299	0.36364	0.	1014.2
10921	19.391	0.36364	5.e-002	7.2881
10922	19.299	0.18182	0.	1013.8
10923	19.391	0.18182	5.e-002	2.0693
10924	19.391	9.0909e-002	0.	981.6
10925	19.206	5.7273	0.	1035.7
10926	19.114	5.8182	0.	1057.7
10927	19.206	5.8182	5.e-002	1.8519
10928	19.206	5.9091	0.	1025.5
10929	19.206	5.5455	0.	1037.3
10930	19.114	5.6364	0.	1057.4
10931	19.206	5.6364	5.e-002	7.2495
10932	19.206	5.3636	0.	1040.6
10933	19.114	5.4545	0.	1060.3
10934	19.206	5.4545	5.e-002	7.6121
10935	19.206	5.1818	0.	1044.
10936	19.114	5.2727	0.	1063.4
10937	19.206	5.2727	5.e-002	7.6267
10938	19.206	5.	0.	1047.5
10939	19.114	5.0909	0.	1066.7
10940	19.206	5.0909	5.e-002	7.6144
10941	19.206	4.8182	0.	1050.9
10942	19.114	4.9091	0.	1069.9
10943	19.206	4.9091	5.e-002	7.5971
10944	19.206	4.6364	0.	1054.1
10945	19.114	4.7273	0.	1072.9
10946	19.206	4.7273	5.e-002	7.5772
10947	19.206	4.4545	0.	1057.
10948	19.114	4.5455	0.	1075.8
10949	19.206	4.5455	5.e-002	7.5559
10950	19.206	4.2727	0.	1059.7
10951	19.114	4.3636	0.	1078.4
10952	19.206	4.3636	5.e-002	7.5341
10953	19.206	4.0909	0.	1062.
10954	19.114	4.1818	0.	1080.8
10955	19.206	4.1818	5.e-002	7.513
10956	19.206	3.9091	0.	1063.9
10957	19.114	4.	0.	1082.8
10958	19.206	4.	5.e-002	7.4933
10959	19.206	3.7273	0.	1065.5
10960	19.114	3.8182	0.	1084.4
10961	19.206	3.8182	5.e-002	7.4757
10962	19.206	3.5455	0.	1066.7
10963	19.114	3.6364	0.	1085.7
10964	19.206	3.6364	5.e-002	7.461
10965	19.206	3.3636	0.	1067.5
10966	19.114	3.4545	0.	1086.7
10967	19.206	3.4545	5.e-002	7.4496
10968	19.206	3.1818	0.	1068.
10969	19.114	3.2727	0.	1087.4
10970	19.206	3.2727	5.e-002	7.4418
10971	19.206	3.	0.	1068.2
10972	19.114	3.0909	0.	1087.7
10973	19.206	3.0909	5.e-002	7.4378
10974	19.206	2.8182	0.	1068.
10975	19.114	2.9091	0.	1087.7
10976	19.206	2.9091	5.e-002	7.4378
10977	19.206	2.6364	0.	1067.5
10978	19.114	2.7273	0.	1087.4
10979	19.206	2.7273	5.e-002	7.4418
10980	19.206	2.4545	0.	1066.7
10981	19.114	2.5455	0.	1086.7
10982	19.206	2.5455	5.e-002	7.4496
10983	19.206	2.2727	0.	1065.5
10984	19.114	2.3636	0.	1085.7
10985	19.206	2.3636	5.e-002	7.461
10986	19.206	2.0909	0.	1063.9
10987	19.114	2.1818	0.	1084.4
10988	19.206	2.1818	5.e-002	7.4757
10989	19.206	1.9091	0.	1062.
10990	19.114	2.	0.	1082.8
10991	19.206	2.	5.e-002	7.4933
10992	19.206	1.7273	0.	1059.7
10993	19.114	1.8182	0.	1080.8
10994	19.206	1.8182	5.e-002	7.513
10995	19.206	1.5455	0.	1057.
10996	19.114	1.6364	0.	1078.4
10997	19.206	1.6364	5.e-002	7.5341
10998	19.206	1.3636	0.	1054.1
10999	19.114	1.4545	0.	1075.8
11000	19.206	1.4545	5.e-002	7.5559
11001	19.206	1.1818	0.	1050.9
11002	19.114	1.2727	0.	1072.9
11003	19.206	1.2727	5.e-002	7.5772
11004	19.206	1.	0.	1047.5
11005	19.114	1.0909	0.	1069.9
11006	19.206	1.0909	5.e-002	7.5971
11007	19.206	0.81818	0.	1044.
11008	19.114	0.90909	0.	1066.7
11009	19.206	0.90909	5.e-002	7.6144
11010	19.206	0.63636	0.	1040.6
11011	19.114	0.72727	0.	1063.4
11012	19.206	0.72727	5.e-002	7.6267
11013	19.206	0.45455	0.	1037.3
11014	19.114	0.54545	0.	1060.3
11015	19.206	0.54545	5.e-002	7.6121
11016	19.206	0.27273	0.	1035.7
11017	19.114	0.36364	0.	1057.4
11018	19.206	0.36364	5.e-002	7.2495
11019	19.114	0.18182	0.	1057.7
11020	19.206	0.18182	5.e-002	1.8519
11021	19.206	9.0909e-002	0.	1025.5
11022	19.022	5.7273	0.	1079.2
11023	18.929	5.8182	0.	1101.4
11024	19.022	5.8182	5.e-002	1.6593
11025	19.022	5.9091	0.	1069.3
11026	19.022	5.5455	0.	1080.3
11027	18.929	5.6364	0.	1100.7
11028	19.022	5.6364	5.e-002	7.2217
11029	19.022	5.3636	0.	1083.
11030	18.929	5.4545	0.	1103.
11031	19.022	5.4545	5.e-002	7.5975
11032	19.022	5.1818	0.	1086.
11033	18.929	5.2727	0.	1105.7
11034	19.022	5.2727	5.e-002	7.616
11035	19.022	5.	0.	1089.
11036	18.929	5.0909	0.	1108.5
11037	19.022	5.0909	5.e-002	7.6078
11038	19.022	4.8182	0.	1091.9
11039	18.929	4.9091	0.	1111.2
11040	19.022	4.9091	5.e-002	7.5952
11041	19.022	4.6364	0.	1094.6
11042	18.929	4.7273	0.	1113.9
11043	19.022	4.7273	5.e-002	7.5803
11044	19.022	4.4545	0.	1097.2
11045	18.929	4.5455	0.	1116.4
11046	19.022	4.5455	5.e-002	7.5642
11047	19.022	4.2727	0.	1099.5
11048	18.929	4.3636	0.	1118.6
11049	19.022	4.3636	5.e-002	7.5477
11050	19.022	4.0909	0.	1101.5
11051	18.929	4.1818	0.	1120.7
11052	19.022	4.1818	5.e-002	7.5315
11053	19.022	3.9091	0.	1103.2
11054	18.929	4.	0.	1122.4
11055	19.022	4.	5.e-002	7.5164
11056	19.022	3.7273	0.	1104.6
11057	18.929	3.8182	0.	1123.9
11058	19.022	3.8182	5.e-002	7.503
11059	19.022	3.5455	0.	1105.7
11060	18.929	3.6364	0.	1125.1
11061	19.022	3.6364	5.e-002	7.4916
11062	19.022	3.3636	0.	1106.5
11063	18.929	3.4545	0.	1126.
11064	19.022	3.4545	5.e-002	7.4828
11065	19.022	3.1818	0.	1107.
11066	18.929	3.2727	0.	1126.5
11067	19.022	3.2727	5.e-002	7.4768
11068	19.022	3.	0.	1107.1
11069	18.929	3.0909	0.	1126.8
11070	19.022	3.0909	5.e-002	7.4737
11071	19.022	2.8182	0.	1107.
11072	18.929	2.9091	0.	1126.8
11073	19.022	2.9091	5.e-002	7.4737
11074	19.022	2.6364	0.	1106.5
11075	18.929	2.7273	0.	1126.5
11076	19.022	2.7273	5.e-002	7.4768
11077	19.022	2.4545	0.	1105.7
11078	18.929	2.5455	0.	1126.
11079	19.022	2.5455	5.e-002	7.4828
11080	19.022	2.2727	0.	1104.6
11081	18.929	2.3636	0.	1125.1
11082	19.022	2.3636	5.e-002	7.4916
11083	19.022	2.0909	0.	1103.2
11084	18.929	2.1818	0.	1123.9
11085	19.022	2.1818	5.e-002	7.503
11086	19.022	1.9091	0.	1101.5
11087	18.929	2.	0.	1122.4
11088	19.022	2.	5.e-002	7.5164
11089	19.022	1.7273	0.	1099.5
11090	18.929	1.8182	0.	1120.7
11091	19.022	1.8182	5.e-002	7.5315
11092	19.022	1.5455	0.	1097.2
11093	18.929	1.6364	0.	1118.6
11094	19.022	1.6364	5.e-002	7.5477
11095	19.022	1.3636	0.	1094.6
11096	18.929	1.4545	0.	1116.4
11097	19.022	1.4545	5.e-002	7.5642
11098	19.022	1.1818	0.	1091.9
11099	18.929	1.2727	0.	1113.9
11100	19.022	1.2727	5.e-002	7.5803
11101	19.022	1.	0.	1089.
11102	18.929	1.0909	0.	1111.2
11103	19.022	1.0909	5.e-002	7.5952
11104	19.022	0.81818	0.	1086.
11105	18.929	0.90909	0.	1108.5
11106	19.022	0.90909	5.e-002	7.6078
11107	19.022	0.63636	0.	1083.
11108	18.929	0.72727	0.	1105.7
11109	19.022	0.72727	5.e-002	7.616
11110	19.022	0.45455	0.	1080.3
11111	18.929	0.54545	0.	1103.
11112	19.022	0.54545	5.e-002	7.5975
11113	19.022	0.27273	0.	1079.2
11114	18.929	0.36364	0.	1100.7
11115	19.022	0.36364	5.e-002	7.2217
11116	18.929	0.18182	0.	1101.4
11117	19.022	0.18182	5.e-002	1.6592
11118	19.022	9.0909e-002	0.	1069.3
11119	18.837	5.7273	0.	1122.7
11120	18.745	5.8182	0.	1145.1
11121	18.837	5.8182	5.e-002	1.4882
11122	18.837	5.9091	0.	1113.
11123	18.837	5.5455	0.	1123.3
11124	18.745	5.6364	0.	1143.9
11125	18.837	5.6364	5.e-002	7.2029
11126	18.837	5.3636	0.	1125.6
11127	18.745	5.4545	0.	1145.9
11128	18.837	5.4545	5.e-002	7.5904
11129	18.837	5.1818	0.	1128.1
11130	18.745	5.2727	0.	1148.1
11131	18.837	5.2727	5.e-002	7.6121
11132	18.837	5.	0.	1130.6
11133	18.745	5.0909	0.	1150.4
11134	18.837	5.0909	5.e-002	7.6071
11135	18.837	4.8182	0.	1133.1
11136	18.745	4.9091	0.	1152.8
11137	18.837	4.9091	5.e-002	7.598
11138	18.837	4.6364	0.	1135.5
11139	18.745	4.7273	0.	1155.1
11140	18.837	4.7273	5.e-002	7.5871
11141	18.837	4.4545	0.	1137.8
11142	18.745	4.5455	0.	1157.2
11143	18.837	4.5455	5.e-002	7.5751
11144	18.837	4.2727	0.	1139.8
11145	18.745	4.3636	0.	1159.2
11146	18.837	4.3636	5.e-002	7.5627
11147	18.837	4.0909	0.	1141.5
11148	18.745	4.1818	0.	1161.
11149	18.837	4.1818	5.e-002	7.5505
11150	18.837	3.9091	0.	1143.1
11151	18.745	4.	0.	1162.5
11152	18.837	4.	5.e-002	7.539
11153	18.837	3.7273	0.	1144.3
11154	18.745	3.8182	0.	1163.8
11155	18.837	3.8182	5.e-002	7.5287
11156	18.837	3.5455	0.	1145.3
11157	18.745	3.6364	0.	1164.9
11158	18.837	3.6364	5.e-002	7.52
11159	18.837	3.3636	0.	1146.
11160	18.745	3.4545	0.	1165.7
11161	18.837	3.4545	5.e-002	7.5132
11162	18.837	3.1818	0.	1146.4
11163	18.745	3.2727	0.	1166.2
11164	18.837	3.2727	5.e-002	7.5086
11165	18.837	3.	0.	1146.5
11166	18.745	3.0909	0.	1166.5
11167	18.837	3.0909	5.e-002	7.5062
11168	18.837	2.8182	0.	1146.4
11169	18.745	2.9091	0.	1166.5
11170	18.837	2.9091	5.e-002	7.5062
11171	18.837	2.6364	0.	1146.
11172	18.745	2.7273	0.	1166.2
11173	18.837	2.7273	5.e-002	7.5086
11174	18.837	2.4545	0.	1145.3
11175	18.745	2.5455	0.	1165.7
11176	18.837	2.5455	5.e-002	7.5132
11177	18.837	2.2727	0.	1144.3
11178	18.745	2.3636	0.	1164.9
11179	18.837	2.3636	5.e-002	7.52
11180	18.837	2.0909	0.	1143.1
11181	18.745	2.1818	0.	1163.8
11182	18.837	2.1818	5.e-002	7.5287
11183	18.837	1.9091	0.	1141.5
11184	18.745	2.	0.	1162.5
11185	18.837	2.	5.e-002	7.539
11186	18.837	1.7273	0.	1139.8
11187	18.745	1.8182	0.	1161.
11188	18.837	1.8182	5.e-002	7.5505
11189	18.837	1.5455	0.	1137.8
11190	18.745	1.6364	0.	1159.2
11191	18.837	1.6364	5.e-002	7.5627
11192	18.837	1.3636	0.	1135.5
11193	18.745	1.4545	0.	1157.2
11194	18.837	1.4545	5.e-002	7.5751
11195	18.837	1.1818	0.	1133.1
11196	18.745	1.2727	0.	1155.1
11197	18.837	1.2727	5.e-002	7.5871
11198	18.837	1.	0.	1130.6
11199	18.745	1.0909	0.	1152.8
11200	18.837	1.0909	5.e-002	7.598
11201	18.837	0.81818	0.	1128.1
11202	18.745	0.90909	0.	1150.4
11203	18.837	0.90909	5.e-002	7.6071
11204	18.837	0.63636	0.	1125.6
11205	18.745	0.72727	0.	1148.1
11206	18.837	0.72727	5.e-002	7.6121
11207	18.837	0.45455	0.	1123.3
11208	18.745	0.54545	0.	1145.9
11209	18.837	0.54545	5.e-002	7.5904
11210	18.837	0.27273	0.	1122.7
11211	18.745	0.36364	0.	1143.9
11212	18.837	0.36364	5.e-002	7.2029
11213	18.745	0.18182	0.	1145.1
11214	18.837	0.18182	5.e-002	1.4882
11215	18.837	9.0909e-002	0.	1113.
11216	18.652	5.7273	0.	1166.1
11217	18.56	5.8182	0.	1188.8
11218	18.652	5.8182	5.e-002	1.3361
11219	18.652	5.9091	0.	1156.7
11220	18.652	5.5455	0.	1166.4
11221	18.56	5.6364	0.	1187.2
11222	18.652	5.6364	5.e-002	7.1916
11223	18.652	5.3636	0.	1168.3
11224	18.56	5.4545	0.	1188.8
11225	18.652	5.4545	5.e-002	7.5897
11226	18.652	5.1818	0.	1170.4
11227	18.56	5.2727	0.	1190.7
11228	18.652	5.2727	5.e-002	7.6139
11229	18.652	5.	0.	1172.5
11230	18.56	5.0909	0.	1192.6
11231	18.652	5.0909	5.e-002	7.6112
11232	18.652	4.8182	0.	1174.7
11233	18.56	4.9091	0.	1194.6
11234	18.652	4.9091	5.e-002	7.605
11235	18.652	4.6364	0.	1176.7
11236	18.56	4.7273	0.	1196.6
11237	18.652	4.7273	5.e-002	7.5972
11238	18.652	4.4545	0.	1178.7
11239	18.56	4.5455	0.	1198.4
11240	18.652	4.5455	5.e-002	7.5884
11241	18.652	4.2727	0.	1180.4
11242	18.56	4.3636	0.	1200.2
11243	18.652	4.3636	5.e-002	7.5791
11244	18.652	4.0909	0.	1182.
11245	18.56	4.1818	0.	1201.7
11246	18.652	4.1818	5.e-002	7.57
11247	18.652	3.9091	0.	1183.3
11248	18.56	4.	0.	1203.1
11249	18.652	4.	5.e-002	7.5613
11250	18.652	3.7273	0.	1184.4
11251	18.56	3.8182	0.	1204.2
11252	18.652	3.8182	5.e-002	7.5535
11253	18.652	3.5455	0.	1185.3
11254	18.56	3.6364	0.	1205.1
11255	18.652	3.6364	5.e-002	7.5469
11256	18.652	3.3636	0.	1185.9
11257	18.56	3.4545	0.	1205.8
11258	18.652	3.4545	5.e-002	7.5417
11259	18.652	3.1818	0.	1186.2
11260	18.56	3.2727	0.	1206.3
11261	18.652	3.2727	5.e-002	7.5382
11262	18.652	3.	0.	1186.4
11263	18.56	3.0909	0.	1206.5
11264	18.652	3.0909	5.e-002	7.5364
11265	18.652	2.8182	0.	1186.2
11266	18.56	2.9091	0.	1206.5
11267	18.652	2.9091	5.e-002	7.5364
11268	18.652	2.6364	0.	1185.9
11269	18.56	2.7273	0.	1206.3
11270	18.652	2.7273	5.e-002	7.5382
11271	18.652	2.4545	0.	1185.3
11272	18.56	2.5455	0.	1205.8
11273	18.652	2.5455	5.e-002	7.5417
11274	18.652	2.2727	0.	1184.4
11275	18.56	2.3636	0.	1205.1
11276	18.652	2.3636	5.e-002	7.5469
11277	18.652	2.0909	0.	1183.3
11278	18.56	2.1818	0.	1204.2
11279	18.652	2.1818	5.e-002	7.5535
11280	18.652	1.9091	0.	1182.
11281	18.56	2.	0.	1203.1
11282	18.652	2.	5.e-002	7.5613
11283	18.652	1.7273	0.	1180.4
11284	18.56	1.8182	0.	1201.7
11285	18.652	1.8182	5.e-002	7.57
11286	18.652	1.5455	0.	1178.7
11287	18.56	1.6364	0.	1200.2
11288	18.652	1.6364	5.e-002	7.5791
11289	18.652	1.3636	0.	1176.7
11290	18.56	1.4545	0.	1198.4
11291	18.652	1.4545	5.e-002	7.5884
11292	18.652	1.1818	0.	1174.7
11293	18.56	1.2727	0.	1196.6
11294	18.652	1.2727	5.e-002	7.5972
11295	18.652	1.	0.	1172.5
11296	18.56	1.0909	0.	1194.6
11297	18.652	1.0909	5.e-002	7.605
11298	18.652	0.81818	0.	1170.4
11299	18.56	0.90909	0.	1192.6
11300	18.652	0.90909	5.e-002	7.6112
11301	18.652	0.63636	0.	1168.3
11302	18.56	0.72727	0.	1190.7
11303	18.652	0.72727	5.e-002	7.6139
11304	18.652	0.45455	0.	1166.4
11305	18.56	0.54545	0.	1188.8
11306	18.652	0.54545	5.e-002	7.5897
11307	18.652	0.27273	0.	1166.1
11308	18.56	0.36364	0.	1187.2
11309	18.652	0.36364	5.e-002	7.1916
11310	18.56	0.18182	0.	1188.8
11311	18.652	0.18182	5.e-002	1.3361
11312	18.652	9.0909e-002	0.	1156.7
11313	18.468	5.7273	0.	1209.6
11314	18.375	5.8182	0.	1232.5
11315	18.468	5.8182	5.e-002	1.2006
11316	18.468	5.9091	0.	1200.4
11317	18.468	5.5455	0.	1209.5
11318	18.375	5.6364	0.	1230.6
11319	18.468	5.6364	5.e-002	7.1864
11320	18.468	5.3636	0.	1211.1
11321	18.375	5.4545	0.	1231.8
11322	18.468	5.4545	5.e-002	7.5941
11323	18.468	5.1818	0.	1212.9
11324	18.375	5.2727	0.	1233.4
11325	18.468	5.2727	5.e-002	7.6202
11326	18.468	5.	0.	1214.7
11327	18.375	5.0909	0.	1235.
11328	18.468	5.0909	5.e-002	7.6195
11329	18.468	4.8182	0.	1216.5
11330	18.375	4.9091	0.	1236.7
11331	18.468	4.9091	5.e-002	7.6154
11332	18.468	4.6364	0.	1218.3
11333	18.375	4.7273	0.	1238.4
11334	18.468	4.7273	5.e-002	7.6099
11335	18.468	4.4545	0.	1219.9
11336	18.375	4.5455	0.	1240.
11337	18.468	4.5455	5.e-002	7.6036
11338	18.468	4.2727	0.	1221.4
11339	18.375	4.3636	0.	1241.5
11340	18.468	4.3636	5.e-002	7.5969
11341	18.468	4.0909	0.	1222.8
11342	18.375	4.1818	0.	1242.8
11343	18.468	4.1818	5.e-002	7.5901
11344	18.468	3.9091	0.	1224.
11345	18.375	4.	0.	1244.
11346	18.468	4.	5.e-002	7.5836
11347	18.468	3.7273	0.	1224.9
11348	18.375	3.8182	0.	1245.
11349	18.468	3.8182	5.e-002	7.5778
11350	18.468	3.5455	0.	1225.7
11351	18.375	3.6364	0.	1245.8
11352	18.468	3.6364	5.e-002	7.5728
11353	18.468	3.3636	0.	1226.2
11354	18.375	3.4545	0.	1246.4
11355	18.468	3.4545	5.e-002	7.5689
11356	18.468	3.1818	0.	1226.5
11357	18.375	3.2727	0.	1246.8
11358	18.468	3.2727	5.e-002	7.5662
11359	18.468	3.	0.	1226.7
11360	18.375	3.0909	0.	1247.
11361	18.468	3.0909	5.e-002	7.5648
11362	18.468	2.8182	0.	1226.5
11363	18.375	2.9091	0.	1247.
11364	18.468	2.9091	5.e-002	7.5648
11365	18.468	2.6364	0.	1226.2
11366	18.375	2.7273	0.	1246.8
11367	18.468	2.7273	5.e-002	7.5662
11368	18.468	2.4545	0.	1225.7
11369	18.375	2.5455	0.	1246.4
11370	18.468	2.5455	5.e-002	7.5689
11371	18.468	2.2727	0.	1224.9
11372	18.375	2.3636	0.	1245.8
11373	18.468	2.3636	5.e-002	7.5728
11374	18.468	2.0909	0.	1224.
11375	18.375	2.1818	0.	1245.
11376	18.468	2.1818	5.e-002	7.5778
11377	18.468	1.9091	0.	1222.8
11378	18.375	2.	0.	1244.
11379	18.468	2.	5.e-002	7.5836
11380	18.468	1.7273	0.	1221.4
11381	18.375	1.8182	0.	1242.8
11382	18.468	1.8182	5.e-002	7.5901
11383	18.468	1.5455	0.	1219.9
11384	18.375	1.6364	0.	1241.5
11385	18.468	1.6364	5.e-002	7.5969
11386	18.468	1.3636	0.	1218.3
11387	18.375	1.4545	0.	1240.
11388	18.468	1.4545	5.e-002	7.6036
11389	18.468	1.1818	0.	1216.5
11390	18.375	1.2727	0.	1238.4
11391	18.468	1.2727	5.e-002	7.6099
11392	18.468	1.	0.	1214.7
11393	18.375	1.0909	0.	1236.7
11394	18.468	1.0909	5.e-002	7.6154
11395	18.468	0.81818	0.	1212.9
11396	18.375	0.90909	0.	1235.
11397	18.468	0.90909	5.e-002	7.6195
11398	18.468	0.63636	0.	1211.1
11399	18.375	0.72727	0.	1233.4
11400	18.468	0.72727	5.e-002	7.6202
11401	18.468	0.45455	0.	1209.5
11402	18.375	0.54545	0.	1231.8
11403	18.468	0.54545	5.e-002	7.5941
11404	18.468	0.27273	0.	1209.6
11405	18.375	0.36364	0.	1230.6
11406	18.468	0.36364	5.e-002	7.1864
11407	18.375	0.18182	0.	1232.5
11408	18.468	0.18182	5.e-002	1.2006
11409	18.468	9.0909e-002	0.	1200.4
11410	18.283	5.7273	0.	1253.2
11411	18.191	5.8182	0.	1276.2
11412	18.283	5.8182	5.e-002	1.08
11413	18.283	5.9091	0.	1244.2
11414	18.283	5.5455	0.	1252.8
11415	18.191	5.6364	0.	1274.1
11416	18.283	5.6364	5.e-002	7.1865
11417	18.283	5.3636	0.	1254.
11418	18.191	5.4545	0.	1275.
11419	18.283	5.4545	5.e-002	7.6029
11420	18.283	5.1818	0.	1255.5
11421	18.191	5.2727	0.	1276.3
11422	18.283	5.2727	5.e-002	7.6305
11423	18.283	5.	0.	1257.
11424	18.191	5.0909	0.	1277.6
11425	18.283	5.0909	5.e-002	7.6311
11426	18.283	4.8182	0.	1258.6
11427	18.191	4.9091	0.	1279.
11428	18.283	4.9091	5.e-002	7.6287
11429	18.283	4.6364	0.	1260.1
11430	18.191	4.7273	0.	1280.4
11431	18.283	4.7273	5.e-002	7.6251
11432	18.283	4.4545	0.	1261.5
11433	18.191	4.5455	0.	1281.8
11434	18.283	4.5455	5.e-002	7.6207
11435	18.283	4.2727	0.	1262.8
11436	18.191	4.3636	0.	1283.1
11437	18.283	4.3636	5.e-002	7.6158
11438	18.283	4.0909	0.	1264.
11439	18.191	4.1818	0.	1284.2
11440	18.283	4.1818	5.e-002	7.6109
11441	18.283	3.9091	0.	1265.
11442	18.191	4.	0.	1285.3
11443	18.283	4.	5.e-002	7.6062
11444	18.283	3.7273	0.	1265.8
11445	18.191	3.8182	0.	1286.1
11446	18.283	3.8182	5.e-002	7.6018
11447	18.283	3.5455	0.	1266.5
11448	18.191	3.6364	0.	1286.8
11449	18.283	3.6364	5.e-002	7.5981
11450	18.283	3.3636	0.	1267.
11451	18.191	3.4545	0.	1287.4
11452	18.283	3.4545	5.e-002	7.5952
11453	18.283	3.1818	0.	1267.3
11454	18.191	3.2727	0.	1287.7
11455	18.283	3.2727	5.e-002	7.5932
11456	18.283	3.	0.	1267.4
11457	18.191	3.0909	0.	1287.9
11458	18.283	3.0909	5.e-002	7.5922
11459	18.283	2.8182	0.	1267.3
11460	18.191	2.9091	0.	1287.9
11461	18.283	2.9091	5.e-002	7.5922
11462	18.283	2.6364	0.	1267.
11463	18.191	2.7273	0.	1287.7
11464	18.283	2.7273	5.e-002	7.5932
11465	18.283	2.4545	0.	1266.5
11466	18.191	2.5455	0.	1287.4
11467	18.283	2.5455	5.e-002	7.5952
11468	18.283	2.2727	0.	1265.8
11469	18.191	2.3636	0.	1286.8
11470	18.283	2.3636	5.e-002	7.5981
11471	18.283	2.0909	0.	1265.
11472	18.191	2.1818	0.	1286.1
11473	18.283	2.1818	5.e-002	7.6018
11474	18.283	1.9091	0.	1264.
11475	18.191	2.	0.	1285.3
11476	18.283	2.	5.e-002	7.6062
11477	18.283	1.7273	0.	1262.8
11478	18.191	1.8182	0.	1284.2
11479	18.283	1.8182	5.e-002	7.6109
11480	18.283	1.5455	0.	1261.5
11481	18.191	1.6364	0.	1283.1
11482	18.283	1.6364	5.e-002	7.6158
11483	18.283	1.3636	0.	1260.1
11484	18.191	1.4545	0.	1281.8
11485	18.283	1.4545	5.e-002	7.6207
11486	18.283	1.1818	0.	1258.6
11487	18.191	1.2727	0.	1280.4
11488	18.283	1.2727	5.e-002	7.6251
11489	18.283	1.	0.	1257.
11490	18.191	1.0909	0.	1279.
11491	18.283	1.0909	5.e-002	7.6287
11492	18.283	0.81818	0.	1255.5
11493	18.191	0.90909	0.	1277.6
11494	18.283	0.90909	5.e-002	7.6311
11495	18.283	0.63636	0.	1254.
11496	18.191	0.72727	0.	1276.3
11497	18.283	0.72727	5.e-002	7.6305
11498	18.283	0.45455	0.	1252.8
11499	18.191	0.54545	0.	1275.
11500	18.283	0.54545	5.e-002	7.6029
11501	18.283	0.27273	0.	1253.2
11502	18.191	0.36364	0.	1274.1
11503	18.283	0.36364	5.e-002	7.1865
11504	18.191	0.18182	0.	1276.2
11505	18.283	0.18182	5.e-002	1.08
11506	18.283	9.0909e-002	0.	1244.2
11507	18.098	5.7273	0.	1296.9
11508	18.006	5.8182	0.	1320.1
11509	18.098	5.8182	5.e-002	0.97256
11510	18.098	5.9091	0.	1288.1
11511	18.098	5.5455	0.	1296.2
11512	18.006	5.6364	0.	1317.6
11513	18.098	5.6364	5.e-002	7.1908
11514	18.098	5.3636	0.	1297.2
11515	18.006	5.4545	0.	1318.3
11516	18.098	5.4545	5.e-002	7.6152
11517	18.098	5.1818	0.	1298.3
11518	18.006	5.2727	0.	1319.3
11519	18.098	5.2727	5.e-002	7.6441
11520	18.098	5.	0.	1299.6
11521	18.006	5.0909	0.	1320.4
11522	18.098	5.0909	5.e-002	7.6457
11523	18.098	4.8182	0.	1300.9
11524	18.006	4.9091	0.	1321.6
11525	18.098	4.9091	5.e-002	7.6446
11526	18.098	4.6364	0.	1302.1
11527	18.006	4.7273	0.	1322.8
11528	18.098	4.7273	5.e-002	7.6423
11529	18.098	4.4545	0.	1303.3
11530	18.006	4.5455	0.	1323.9
11531	18.098	4.5455	5.e-002	7.6394
11532	18.098	4.2727	0.	1304.5
11533	18.006	4.3636	0.	1325.
11534	18.098	4.3636	5.e-002	7.6361
11535	18.098	4.0909	0.	1305.5
11536	18.006	4.1818	0.	1326.
11537	18.098	4.1818	5.e-002	7.6326
11538	18.098	3.9091	0.	1306.4
11539	18.006	4.	0.	1326.9
11540	18.098	4.	5.e-002	7.6292
11541	18.098	3.7273	0.	1307.1
11542	18.006	3.8182	0.	1327.6
11543	18.098	3.8182	5.e-002	7.626
11544	18.098	3.5455	0.	1307.7
11545	18.006	3.6364	0.	1328.2
11546	18.098	3.6364	5.e-002	7.6233
11547	18.098	3.3636	0.	1308.1
11548	18.006	3.4545	0.	1328.7
11549	18.098	3.4545	5.e-002	7.6212
11550	18.098	3.1818	0.	1308.3
11551	18.006	3.2727	0.	1329.
11552	18.098	3.2727	5.e-002	7.6197
11553	18.098	3.	0.	1308.4
11554	18.006	3.0909	0.	1329.2
11555	18.098	3.0909	5.e-002	7.6189
11556	18.098	2.8182	0.	1308.3
11557	18.006	2.9091	0.	1329.2
11558	18.098	2.9091	5.e-002	7.6189
11559	18.098	2.6364	0.	1308.1
11560	18.006	2.7273	0.	1329.
11561	18.098	2.7273	5.e-002	7.6197
11562	18.098	2.4545	0.	1307.7
11563	18.006	2.5455	0.	1328.7
11564	18.098	2.5455	5.e-002	7.6212
11565	18.098	2.2727	0.	1307.1
11566	18.006	2.3636	0.	1328.2
11567	18.098	2.3636	5.e-002	7.6233
11568	18.098	2.0909	0.	1306.4
11569	18.006	2.1818	0.	1327.6
11570	18.098	2.1818	5.e-002	7.626
11571	18.098	1.9091	0.	1305.5
11572	18.006	2.	0.	1326.9
11573	18.098	2.	5.e-002	7.6292
11574	18.098	1.7273	0.	1304.5
11575	18.006	1.8182	0.	1326.
11576	18.098	1.8182	5.e-002	7.6326
11577	18.098	1.5455	0.	1303.3
11578	18.006	1.6364	0.	1325.
11579	18.098	1.6364	5.e-002	7.6361
11580	18.098	1.3636	0.	1302.1
11581	18.006	1.4545	0.	1323.9
11582	18.098	1.4545	5.e-002	7.6394
11583	18.098	1.1818	0.	1300.9
11584	18.006	1.2727	0.	1322.8
11585	18.098	1.2727	5.e-002	7.6423
11586	18.098	1.	0.	1299.6
11587	18.006	1.0909	0.	1321.6
11588	18.098	1.0909	5.e-002	7.6446
11589	18.098	0.81818	0.	1298.3
11590	18.006	0.90909	0.	1320.4
11591	18.098	0.90909	5.e-002	7.6457
11592	18.098	0.63636	0.	1297.2
11593	18.006	0.72727	0.	1319.3
11594	18.098	0.72727	5.e-002	7.644
11595	18.098	0.45455	0.	1296.2
11596	18.006	0.54545	0.	1318.3
11597	18.098	0.54545	5.e-002	7.6152
11598	18.098	0.27273	0.	1296.9
11599	18.006	0.36364	0.	1317.6
11600	18.098	0.36364	5.e-002	7.1908
11601	18.006	0.18182	0.	1320.1
11602	18.098	0.18182	5.e-002	0.97255
11603	18.098	9.0909e-002	0.	1288.1
11604	17.914	5.7273	0.	1340.6
11605	17.821	5.8182	0.	1364.
11606	17.914	5.8182	5.e-002	0.87693
11607	17.914	5.9091	0.	1332.
11608	17.914	5.5455	0.	1339.7
11609	17.821	5.6364	0.	1361.3
11610	17.914	5.6364	5.e-002	7.1989
11611	17.914	5.3636	0.	1340.4
11612	17.821	5.4545	0.	1361.8
11613	17.914	5.4545	5.e-002	7.6305
11614	17.914	5.1818	0.	1341.4
11615	17.821	5.2727	0.	1362.6
11616	17.914	5.2727	5.e-002	7.6604
11617	17.914	5.	0.	1342.4
11618	17.821	5.0909	0.	1363.4
11619	17.914	5.0909	5.e-002	7.6628
11620	17.914	4.8182	0.	1343.4
11621	17.821	4.9091	0.	1364.4
11622	17.914	4.9091	5.e-002	7.6626
11623	17.914	4.6364	0.	1344.5
11624	17.821	4.7273	0.	1365.3
11625	17.914	4.7273	5.e-002	7.6614
11626	17.914	4.4545	0.	1345.5
11627	17.821	4.5455	0.	1366.3
11628	17.914	4.5455	5.e-002	7.6596
11629	17.914	4.2727	0.	1346.5
11630	17.821	4.3636	0.	1367.2
11631	17.914	4.3636	5.e-002	7.6574
11632	17.914	4.0909	0.	1347.3
11633	17.821	4.1818	0.	1368.
11634	17.914	4.1818	5.e-002	7.6551
11635	17.914	3.9091	0.	1348.1
11636	17.821	4.	0.	1368.8
11637	17.914	4.	5.e-002	7.6527
11638	17.914	3.7273	0.	1348.7
11639	17.821	3.8182	0.	1369.4
11640	17.914	3.8182	5.e-002	7.6505
11641	17.914	3.5455	0.	1349.2
11642	17.821	3.6364	0.	1370.
11643	17.914	3.6364	5.e-002	7.6485
11644	17.914	3.3636	0.	1349.6
11645	17.821	3.4545	0.	1370.4
11646	17.914	3.4545	5.e-002	7.647
11647	17.914	3.1818	0.	1349.8
11648	17.821	3.2727	0.	1370.6
11649	17.914	3.2727	5.e-002	7.6459
11650	17.914	3.	0.	1349.9
11651	17.821	3.0909	0.	1370.8
11652	17.914	3.0909	5.e-002	7.6454
11653	17.914	2.8182	0.	1349.8
11654	17.821	2.9091	0.	1370.8
11655	17.914	2.9091	5.e-002	7.6454
11656	17.914	2.6364	0.	1349.6
11657	17.821	2.7273	0.	1370.6
11658	17.914	2.7273	5.e-002	7.6459
11659	17.914	2.4545	0.	1349.2
11660	17.821	2.5455	0.	1370.4
11661	17.914	2.5455	5.e-002	7.647
11662	17.914	2.2727	0.	1348.7
11663	17.821	2.3636	0.	1370.
11664	17.914	2.3636	5.e-002	7.6485
11665	17.914	2.0909	0.	1348.1
11666	17.821	2.1818	0.	1369.4
11667	17.914	2.1818	5.e-002	7.6505
11668	17.914	1.9091	0.	1347.3
11669	17.821	2.	0.	1368.8
11670	17.914	2.	5.e-002	7.6527
11671	17.914	1.7273	0.	1346.5
11672	17.821	1.8182	0.	1368.
11673	17.914	1.8182	5.e-002	7.6551
11674	17.914	1.5455	0.	1345.5
11675	17.821	1.6364	0.	1367.2
11676	17.914	1.6364	5.e-002	7.6574
11677	17.914	1.3636	0.	1344.5
11678	17.821	1.4545	0.	1366.3
11679	17.914	1.4545	5.e-002	7.6596
11680	17.914	1.1818	0.	1343.4
11681	17.821	1.2727	0.	1365.3
11682	17.914	1.2727	5.e-002	7.6614
11683	17.914	1.	0.	1342.4
11684	17.821	1.0909	0.	1364.4
11685	17.914	1.0909	5.e-002	7.6626
11686	17.914	0.81818	0.	1341.4
11687	17.821	0.90909	0.	1363.4
11688	17.914	0.90909	5.e-002	7.6628
11689	17.914	0.63636	0.	1340.4
11690	17.821	0.72727	0.	1362.6
11691	17.914	0.72727	5.e-002	7.6604
11692	17.914	0.45455	0.	1339.7
11693	17.821	0.54545	0.	1361.8
11694	17.914	0.54545	5.e-002	7.6305
11695	17.914	0.27273	0.	1340.6
11696	17.821	0.36364	0.	1361.3
11697	17.914	0.36364	5.e-002	7.1989
11698	17.821	0.18182	0.	1364.
11699	17.914	0.18182	5.e-002	0.87693
11700	17.914	9.0909e-002	0.	1332.
11701	17.729	5.7273	0.	1384.5
11702	17.637	5.8182	0.	1408.
11703	17.729	5.8182	5.e-002	0.79198
11704	17.729	5.9091	0.	1376.
11705	17.729	5.5455	0.	1383.3
11706	17.637	5.6364	0.	1405.1
11707	17.729	5.6364	5.e-002	7.21
11708	17.729	5.3636	0.	1383.9
11709	17.637	5.4545	0.	1405.4
11710	17.729	5.4545	5.e-002	7.6484
11711	17.729	5.1818	0.	1384.6
11712	17.637	5.2727	0.	1406.
11713	17.729	5.2727	5.e-002	7.679
11714	17.729	5.	0.	1385.4
11715	17.637	5.0909	0.	1406.7
11716	17.729	5.0909	5.e-002	7.682
11717	17.729	4.8182	0.	1386.2
11718	17.637	4.9091	0.	1407.4
11719	17.729	4.9091	5.e-002	7.6825
11720	17.729	4.6364	0.	1387.1
11721	17.637	4.7273	0.	1408.2
11722	17.729	4.7273	5.e-002	7.6821
11723	17.729	4.4545	0.	1388.
11724	17.637	4.5455	0.	1409.
11725	17.729	4.5455	5.e-002	7.6812
11726	17.729	4.2727	0.	1388.7
11727	17.637	4.3636	0.	1409.7
11728	17.729	4.3636	5.e-002	7.6799
11729	17.729	4.0909	0.	1389.5
11730	17.637	4.1818	0.	1410.4
11731	17.729	4.1818	5.e-002	7.6784
11732	17.729	3.9091	0.	1390.1
11733	17.637	4.	0.	1411.
11734	17.729	4.	5.e-002	7.6768
11735	17.729	3.7273	0.	1390.7
11736	17.637	3.8182	0.	1411.6
11737	17.729	3.8182	5.e-002	7.6753
11738	17.729	3.5455	0.	1391.1
11739	17.637	3.6364	0.	1412.
11740	17.729	3.6364	5.e-002	7.674
11741	17.729	3.3636	0.	1391.4
11742	17.637	3.4545	0.	1412.4
11743	17.729	3.4545	5.e-002	7.6729
11744	17.729	3.1818	0.	1391.6
11745	17.637	3.2727	0.	1412.6
11746	17.729	3.2727	5.e-002	7.6722
11747	17.729	3.	0.	1391.6
11748	17.637	3.0909	0.	1412.7
11749	17.729	3.0909	5.e-002	7.6718
11750	17.729	2.8182	0.	1391.6
11751	17.637	2.9091	0.	1412.7
11752	17.729	2.9091	5.e-002	7.6718
11753	17.729	2.6364	0.	1391.4
11754	17.637	2.7273	0.	1412.6
11755	17.729	2.7273	5.e-002	7.6722
11756	17.729	2.4545	0.	1391.1
11757	17.637	2.5455	0.	1412.4
11758	17.729	2.5455	5.e-002	7.6729
11759	17.729	2.2727	0.	1390.7
11760	17.637	2.3636	0.	1412.
11761	17.729	2.3636	5.e-002	7.674
11762	17.729	2.0909	0.	1390.1
11763	17.637	2.1818	0.	1411.6
11764	17.729	2.1818	5.e-002	7.6753
11765	17.729	1.9091	0.	1389.5
11766	17.637	2.	0.	1411.
11767	17.729	2.	5.e-002	7.6768
11768	17.729	1.7273	0.	1388.7
11769	17.637	1.8182	0.	1410.4
11770	17.729	1.8182	5.e-002	7.6784
11771	17.729	1.5455	0.	1388.
11772	17.637	1.6364	0.	1409.7
11773	17.729	1.6364	5.e-002	7.6799
11774	17.729	1.3636	0.	1387.1
11775	17.637	1.4545	0.	1409.
11776	17.729	1.4545	5.e-002	7.6812
11777	17.729	1.1818	0.	1386.2
11778	17.637	1.2727	0.	1408.2
11779	17.729	1.2727	5.e-002	7.6821
11780	17.729	1.	0.	1385.4
11781	17.637	1.0909	0.	1407.4
11782	17.729	1.0909	5.e-002	7.6825
11783	17.729	0.81818	0.	1384.6
11784	17.637	0.90909	0.	1406.7
11785	17.729	0.90909	5.e-002	7.682
11786	17.729	0.63636	0.	1383.9
11787	17.637	0.72727	0.	1406.
11788	17.729	0.72727	5.e-002	7.679
11789	17.729	0.45455	0.	1383.3
11790	17.637	0.54545	0.	1405.4
11791	17.729	0.54545	5.e-002	7.6484
11792	17.729	0.27273	0.	1384.5
11793	17.637	0.36364	0.	1405.1
11794	17.729	0.36364	5.e-002	7.21
11795	17.637	0.18182	0.	1408.
11796	17.729	0.18182	5.e-002	0.79197
11797	17.729	9.0909e-002	0.	1376.
11798	17.544	5.7273	0.	1428.4
11799	17.452	5.8182	0.	1452.1
11800	17.544	5.8182	5.e-002	0.7167
11801	17.544	5.9091	0.	1420.2
11802	17.544	5.5455	0.	1427.1
11803	17.452	5.6364	0.	1449.1
11804	17.544	5.6364	5.e-002	7.2237
11805	17.544	5.3636	0.	1427.5
11806	17.452	5.4545	0.	1449.2
11807	17.544	5.4545	5.e-002	7.6684
11808	17.544	5.1818	0.	1428.
11809	17.452	5.2727	0.	1449.6
11810	17.544	5.2727	5.e-002	7.6996
11811	17.544	5.	0.	1428.6
11812	17.452	5.0909	0.	1450.1
11813	17.544	5.0909	5.e-002	7.7031
11814	17.544	4.8182	0.	1429.3
11815	17.452	4.9091	0.	1450.6
11816	17.544	4.9091	5.e-002	7.704
11817	17.544	4.6364	0.	1430.
11818	17.452	4.7273	0.	1451.3
11819	17.544	4.7273	5.e-002	7.7042
11820	17.544	4.4545	0.	1430.7
11821	17.452	4.5455	0.	1451.9
11822	17.544	4.5455	5.e-002	7.704
11823	17.544	4.2727	0.	1431.3
11824	17.452	4.3636	0.	1452.5
11825	17.544	4.3636	5.e-002	7.7033
11826	17.544	4.0909	0.	1431.9
11827	17.452	4.1818	0.	1453.1
11828	17.544	4.1818	5.e-002	7.7025
11829	17.544	3.9091	0.	1432.5
11830	17.452	4.	0.	1453.6
11831	17.544	4.	5.e-002	7.7016
11832	17.544	3.7273	0.	1432.9
11833	17.452	3.8182	0.	1454.
11834	17.544	3.8182	5.e-002	7.7006
11835	17.544	3.5455	0.	1433.3
11836	17.452	3.6364	0.	1454.4
11837	17.544	3.6364	5.e-002	7.6997
11838	17.544	3.3636	0.	1433.5
11839	17.452	3.4545	0.	1454.7
11840	17.544	3.4545	5.e-002	7.699
11841	17.544	3.1818	0.	1433.7
11842	17.452	3.2727	0.	1454.9
11843	17.544	3.2727	5.e-002	7.6985
11844	17.544	3.	0.	1433.8
11845	17.452	3.0909	0.	1455.
11846	17.544	3.0909	5.e-002	7.6983
11847	17.544	2.8182	0.	1433.7
11848	17.452	2.9091	0.	1455.
11849	17.544	2.9091	5.e-002	7.6983
11850	17.544	2.6364	0.	1433.5
11851	17.452	2.7273	0.	1454.9
11852	17.544	2.7273	5.e-002	7.6985
11853	17.544	2.4545	0.	1433.3
11854	17.452	2.5455	0.	1454.7
11855	17.544	2.5455	5.e-002	7.699
11856	17.544	2.2727	0.	1432.9
11857	17.452	2.3636	0.	1454.4
11858	17.544	2.3636	5.e-002	7.6997
11859	17.544	2.0909	0.	1432.5
11860	17.452	2.1818	0.	1454.
11861	17.544	2.1818	5.e-002	7.7006
11862	17.544	1.9091	0.	1431.9
11863	17.452	2.	0.	1453.6
11864	17.544	2.	5.e-002	7.7016
11865	17.544	1.7273	0.	1431.3
11866	17.452	1.8182	0.	1453.1
11867	17.544	1.8182	5.e-002	7.7025
11868	17.544	1.5455	0.	1430.7
11869	17.452	1.6364	0.	1452.5
11870	17.544	1.6364	5.e-002	7.7033
11871	17.544	1.3636	0.	1430.
11872	17.452	1.4545	0.	1451.9
11873	17.544	1.4545	5.e-002	7.704
11874	17.544	1.1818	0.	1429.3
11875	17.452	1.2727	0.	1451.3
11876	17.544	1.2727	5.e-002	7.7042
11877	17.544	1.	0.	1428.6
11878	17.452	1.0909	0.	1450.6
11879	17.544	1.0909	5.e-002	7.704
11880	17.544	0.81818	0.	1428.
11881	17.452	0.90909	0.	1450.1
11882	17.544	0.90909	5.e-002	7.7031
11883	17.544	0.63636	0.	1427.5
11884	17.452	0.72727	0.	1449.6
11885	17.544	0.72727	5.e-002	7.6996
11886	17.544	0.45455	0.	1427.1
11887	17.452	0.54545	0.	1449.2
11888	17.544	0.54545	5.e-002	7.6684
11889	17.544	0.27273	0.	1428.4
11890	17.452	0.36364	0.	1449.1
11891	17.544	0.36364	5.e-002	7.2237
11892	17.452	0.18182	0.	1452.1
11893	17.544	0.18182	5.e-002	0.71669
11894	17.544	9.0909e-002	0.	1420.2
11895	17.36	5.7273	0.	1472.6
11896	17.267	5.8182	0.	1496.4
11897	17.36	5.8182	5.e-002	0.65024
11898	17.36	5.9091	0.	1464.5
11899	17.36	5.5455	0.	1471.1
11900	17.267	5.6364	0.	1493.2
11901	17.36	5.6364	5.e-002	7.2396
11902	17.36	5.3636	0.	1471.2
11903	17.267	5.4545	0.	1493.1
11904	17.36	5.4545	5.e-002	7.6902
11905	17.36	5.1818	0.	1471.6
11906	17.267	5.2727	0.	1493.4
11907	17.36	5.2727	5.e-002	7.7219
11908	17.36	5.	0.	1472.1
11909	17.267	5.0909	0.	1493.7
11910	17.36	5.0909	5.e-002	7.7257
11911	17.36	4.8182	0.	1472.6
11912	17.267	4.9091	0.	1494.1
11913	17.36	4.9091	5.e-002	7.727
11914	17.36	4.6364	0.	1473.1
11915	17.267	4.7273	0.	1494.6
11916	17.36	4.7273	5.e-002	7.7277
11917	17.36	4.4545	0.	1473.7
11918	17.267	4.5455	0.	1495.1
11919	17.36	4.5455	5.e-002	7.7279
11920	17.36	4.2727	0.	1474.2
11921	17.267	4.3636	0.	1495.5
11922	17.36	4.3636	5.e-002	7.7278
11923	17.36	4.0909	0.	1474.7
11924	17.267	4.1818	0.	1496.
11925	17.36	4.1818	5.e-002	7.7274
11926	17.36	3.9091	0.	1475.1
11927	17.267	4.	0.	1496.4
11928	17.36	4.	5.e-002	7.727
11929	17.36	3.7273	0.	1475.5
11930	17.267	3.8182	0.	1496.8
11931	17.36	3.8182	5.e-002	7.7264
11932	17.36	3.5455	0.	1475.8
11933	17.267	3.6364	0.	1497.1
11934	17.36	3.6364	5.e-002	7.7259
11935	17.36	3.3636	0.	1476.
11936	17.267	3.4545	0.	1497.3
11937	17.36	3.4545	5.e-002	7.7255
11938	17.36	3.1818	0.	1476.1
11939	17.267	3.2727	0.	1497.5
11940	17.36	3.2727	5.e-002	7.7252
11941	17.36	3.	0.	1476.2
11942	17.267	3.0909	0.	1497.6
11943	17.36	3.0909	5.e-002	7.725
11944	17.36	2.8182	0.	1476.1
11945	17.267	2.9091	0.	1497.6
11946	17.36	2.9091	5.e-002	7.725
11947	17.36	2.6364	0.	1476.
11948	17.267	2.7273	0.	1497.5
11949	17.36	2.7273	5.e-002	7.7252
11950	17.36	2.4545	0.	1475.8
11951	17.267	2.5455	0.	1497.3
11952	17.36	2.5455	5.e-002	7.7255
11953	17.36	2.2727	0.	1475.5
11954	17.267	2.3636	0.	1497.1
11955	17.36	2.3636	5.e-002	7.7259
11956	17.36	2.0909	0.	1475.1
11957	17.267	2.1818	0.	1496.8
11958	17.36	2.1818	5.e-002	7.7264
11959	17.36	1.9091	0.	1474.7
11960	17.267	2.	0.	1496.4
11961	17.36	2.	5.e-002	7.727
11962	17.36	1.7273	0.	1474.2
11963	17.267	1.8182	0.	1496.
11964	17.36	1.8182	5.e-002	7.7274
11965	17.36	1.5455	0.	1473.7
11966	17.267	1.6364	0.	1495.5
11967	17.36	1.6364	5.e-002	7.7278
11968	17.36	1.3636	0.	1473.1
11969	17.267	1.4545	0.	1495.1
11970	17.36	1.4545	5.e-002	7.7279
11971	17.36	1.1818	0.	1472.6
11972	17.267	1.2727	0.	1494.6
11973	17.36	1.2727	5.e-002	7.7277
11974	17.36	1.	0.	1472.1
11975	17.267	1.0909	0.	1494.1
11976	17.36	1.0909	5.e-002	7.727
11977	17.36	0.81818	0.	1471.6
11978	17.267	0.90909	0.	1493.7
11979	17.36	0.90909	5.e-002	7.7257
11980	17.36	0.63636	0.	1471.2
11981	17.267	0.72727	0.	1493.4
11982	17.36	0.72727	5.e-002	7.7219
11983	17.36	0.45455	0.	1471.1
11984	17.267	0.54545	0.	1493.1
11985	17.36	0.54545	5.e-002	7.6902
11986	17.36	0.27273	0.	1472.6
11987	17.267	0.36364	0.	1493.2
11988	17.36	0.36364	5.e-002	7.2396
11989	17.267	0.18182	0.	1496.4
11990	17.36	0.18182	5.e-002	0.65024
11991	17.36	9.0909e-002	0.	1464.5
11992	17.175	5.7273	0.	1516.8
11993	17.083	5.8182	0.	1540.8
11994	17.175	5.8182	5.e-002	0.59187
11995	17.175	5.9091	0.	1508.9
11996	17.175	5.5455	0.	1515.2
11997	17.083	5.6364	0.	1537.5
11998	17.175	5.6364	5.e-002	7.2575
11999	17.175	5.3636	0.	1515.2
12000	17.083	5.4545	0.	1537.3
12001	17.175	5.4545	5.e-002	7.7135
12002	17.175	5.1818	0.	1515.4
12003	17.083	5.2727	0.	1537.4
12004	17.175	5.2727	5.e-002	7.7457
12005	17.175	5.	0.	1515.7
12006	17.083	5.0909	0.	1537.5
12007	17.175	5.0909	5.e-002	7.7497
12008	17.175	4.8182	0.	1516.1
12009	17.083	4.9091	0.	1537.8
12010	17.175	4.9091	5.e-002	7.7513
12011	17.175	4.6364	0.	1516.5
12012	17.083	4.7273	0.	1538.1
12013	17.175	4.7273	5.e-002	7.7522
12014	17.175	4.4545	0.	1516.9
12015	17.083	4.5455	0.	1538.5
12016	17.175	4.5455	5.e-002	7.7528
12017	17.175	4.2727	0.	1517.3
12018	17.083	4.3636	0.	1538.8
12019	17.175	4.3636	5.e-002	7.7531
12020	17.175	4.0909	0.	1517.7
12021	17.083	4.1818	0.	1539.2
12022	17.175	4.1818	5.e-002	7.7531
12023	17.175	3.9091	0.	1518.
12024	17.083	4.	0.	1539.5
12025	17.175	4.	5.e-002	7.753
12026	17.175	3.7273	0.	1518.4
12027	17.083	3.8182	0.	1539.8
12028	17.175	3.8182	5.e-002	7.7528
12029	17.175	3.5455	0.	1518.6
12030	17.083	3.6364	0.	1540.1
12031	17.175	3.6364	5.e-002	7.7526
12032	17.175	3.3636	0.	1518.8
12033	17.083	3.4545	0.	1540.3
12034	17.175	3.4545	5.e-002	7.7524
12035	17.175	3.1818	0.	1518.9
12036	17.083	3.2727	0.	1540.4
12037	17.175	3.2727	5.e-002	7.7522
12038	17.175	3.	0.	1518.9
12039	17.083	3.0909	0.	1540.5
12040	17.175	3.0909	5.e-002	7.7522
12041	17.175	2.8182	0.	1518.9
12042	17.083	2.9091	0.	1540.5
12043	17.175	2.9091	5.e-002	7.7522
12044	17.175	2.6364	0.	1518.8
12045	17.083	2.7273	0.	1540.4
12046	17.175	2.7273	5.e-002	7.7522
12047	17.175	2.4545	0.	1518.6
12048	17.083	2.5455	0.	1540.3
12049	17.175	2.5455	5.e-002	7.7524
12050	17.175	2.2727	0.	1518.4
12051	17.083	2.3636	0.	1540.1
12052	17.175	2.3636	5.e-002	7.7526
12053	17.175	2.0909	0.	1518.
12054	17.083	2.1818	0.	1539.8
12055	17.175	2.1818	5.e-002	7.7528
12056	17.175	1.9091	0.	1517.7
12057	17.083	2.	0.	1539.5
12058	17.175	2.	5.e-002	7.753
12059	17.175	1.7273	0.	1517.3
12060	17.083	1.8182	0.	1539.2
12061	17.175	1.8182	5.e-002	7.7531
12062	17.175	1.5455	0.	1516.9
12063	17.083	1.6364	0.	1538.8
12064	17.175	1.6364	5.e-002	7.7531
12065	17.175	1.3636	0.	1516.5
12066	17.083	1.4545	0.	1538.5
12067	17.175	1.4545	5.e-002	7.7528
12068	17.175	1.1818	0.	1516.1
12069	17.083	1.2727	0.	1538.1
12070	17.175	1.2727	5.e-002	7.7522
12071	17.175	1.	0.	1515.7
12072	17.083	1.0909	0.	1537.8
12073	17.175	1.0909	5.e-002	7.7513
12074	17.175	0.81818	0.	1515.4
12075	17.083	0.90909	0.	1537.5
12076	17.175	0.90909	5.e-002	7.7497
12077	17.175	0.63636	0.	1515.2
12078	17.083	0.72727	0.	1537.4
12079	17.175	0.72727	5.e-002	7.7457
12080	17.175	0.45455	0.	1515.2
12081	17.083	0.54545	0.	1537.3
12082	17.175	0.54545	5.e-002	7.7135
12083	17.175	0.27273	0.	1516.8
12084	17.083	0.36364	0.	1537.5
12085	17.175	0.36364	5.e-002	7.2575
12086	17.083	0.18182	0.	1540.8
12087	17.175	0.18182	5.e-002	0.59187
12088	17.175	9.0909e-002	0.	1508.9
12089	16.99	5.7273	0.	1561.3
12090	16.898	5.8182	0.	1585.3
12091	16.99	5.8182	5.e-002	0.54091
12092	16.99	5.9091	0.	1553.5
12093	16.99	5.5455	0.	1559.5
12094	16.898	5.6364	0.	1582.
12095	16.99	5.6364	5.e-002	7.2771
12096	16.99	5.3636	0.	1559.4
12097	16.898	5.4545	0.	1581.6
12098	16.99	5.4545	5.e-002	7.7382
12099	16.99	5.1818	0.	1559.4
12100	16.898	5.2727	0.	1581.5
12101	16.99	5.2727	5.e-002	7.7708
12102	16.99	5.	0.	1559.6
12103	16.898	5.0909	0.	1581.6
12104	16.99	5.0909	5.e-002	7.7749
12105	16.99	4.8182	0.	1559.8
12106	16.898	4.9091	0.	1581.7
12107	16.99	4.9091	5.e-002	7.7766
12108	16.99	4.6364	0.	1560.1
12109	16.898	4.7273	0.	1581.9
12110	16.99	4.7273	5.e-002	7.7778
12111	16.99	4.4545	0.	1560.4
12112	16.898	4.5455	0.	1582.2
12113	16.99	4.5455	5.e-002	7.7787
12114	16.99	4.2727	0.	1560.7
12115	16.898	4.3636	0.	1582.4
12116	16.99	4.3636	5.e-002	7.7792
12117	16.99	4.0909	0.	1561.
12118	16.898	4.1818	0.	1582.7
12119	16.99	4.1818	5.e-002	7.7796
12120	16.99	3.9091	0.	1561.3
12121	16.898	4.	0.	1582.9
12122	16.99	4.	5.e-002	7.7797
12123	16.99	3.7273	0.	1561.5
12124	16.898	3.8182	0.	1583.1
12125	16.99	3.8182	5.e-002	7.7798
12126	16.99	3.5455	0.	1561.7
12127	16.898	3.6364	0.	1583.3
12128	16.99	3.6364	5.e-002	7.7798
12129	16.99	3.3636	0.	1561.8
12130	16.898	3.4545	0.	1583.5
12131	16.99	3.4545	5.e-002	7.7797
12132	16.99	3.1818	0.	1561.9
12133	16.898	3.2727	0.	1583.6
12134	16.99	3.2727	5.e-002	7.7797
12135	16.99	3.	0.	1561.9
12136	16.898	3.0909	0.	1583.6
12137	16.99	3.0909	5.e-002	7.7797
12138	16.99	2.8182	0.	1561.9
12139	16.898	2.9091	0.	1583.6
12140	16.99	2.9091	5.e-002	7.7797
12141	16.99	2.6364	0.	1561.8
12142	16.898	2.7273	0.	1583.6
12143	16.99	2.7273	5.e-002	7.7797
12144	16.99	2.4545	0.	1561.7
12145	16.898	2.5455	0.	1583.5
12146	16.99	2.5455	5.e-002	7.7797
12147	16.99	2.2727	0.	1561.5
12148	16.898	2.3636	0.	1583.3
12149	16.99	2.3636	5.e-002	7.7798
12150	16.99	2.0909	0.	1561.3
12151	16.898	2.1818	0.	1583.1
12152	16.99	2.1818	5.e-002	7.7798
12153	16.99	1.9091	0.	1561.
12154	16.898	2.	0.	1582.9
12155	16.99	2.	5.e-002	7.7797
12156	16.99	1.7273	0.	1560.7
12157	16.898	1.8182	0.	1582.7
12158	16.99	1.8182	5.e-002	7.7796
12159	16.99	1.5455	0.	1560.4
12160	16.898	1.6364	0.	1582.4
12161	16.99	1.6364	5.e-002	7.7793
12162	16.99	1.3636	0.	1560.1
12163	16.898	1.4545	0.	1582.2
12164	16.99	1.4545	5.e-002	7.7787
12165	16.99	1.1818	0.	1559.8
12166	16.898	1.2727	0.	1581.9
12167	16.99	1.2727	5.e-002	7.7778
12168	16.99	1.	0.	1559.6
12169	16.898	1.0909	0.	1581.7
12170	16.99	1.0909	5.e-002	7.7766
12171	16.99	0.81818	0.	1559.4
12172	16.898	0.90909	0.	1581.6
12173	16.99	0.90909	5.e-002	7.7749
12174	16.99	0.63636	0.	1559.4
12175	16.898	0.72727	0.	1581.5
12176	16.99	0.72727	5.e-002	7.7708
12177	16.99	0.45455	0.	1559.5
12178	16.898	0.54545	0.	1581.6
12179	16.99	0.54545	5.e-002	7.7382
12180	16.99	0.27273	0.	1561.3
12181	16.898	0.36364	0.	1582.
12182	16.99	0.36364	5.e-002	7.2771
12183	16.898	0.18182	0.	1585.3
12184	16.99	0.18182	5.e-002	0.54091
12185	16.99	9.0909e-002	0.	1553.5
12186	16.806	5.7273	0.	1605.8
12187	16.713	5.8182	0.	1630.1
12188	16.806	5.8182	5.e-002	0.49675
12189	16.806	5.9091	0.	1598.3
12190	16.806	5.5455	0.	1604.
12191	16.713	5.6364	0.	1626.6
12192	16.806	5.6364	5.e-002	7.2982
12193	16.806	5.3636	0.	1603.7
12194	16.713	5.4545	0.	1626.1
12195	16.806	5.4545	5.e-002	7.7641
12196	16.806	5.1818	0.	1603.6
12197	16.713	5.2727	0.	1625.9
12198	16.806	5.2727	5.e-002	7.7969
12199	16.806	5.	0.	1603.7
12200	16.713	5.0909	0.	1625.8
12201	16.806	5.0909	5.e-002	7.8011
12202	16.806	4.8182	0.	1603.8
12203	16.713	4.9091	0.	1625.9
12204	16.806	4.9091	5.e-002	7.803
12205	16.806	4.6364	0.	1603.9
12206	16.713	4.7273	0.	1625.9
12207	16.806	4.7273	5.e-002	7.8044
12208	16.806	4.4545	0.	1604.1
12209	16.713	4.5455	0.	1626.1
12210	16.806	4.5455	5.e-002	7.8054
12211	16.806	4.2727	0.	1604.3
12212	16.713	4.3636	0.	1626.2
12213	16.806	4.3636	5.e-002	7.8062
12214	16.806	4.0909	0.	1604.5
12215	16.713	4.1818	0.	1626.4
12216	16.806	4.1818	5.e-002	7.8067
12217	16.806	3.9091	0.	1604.7
12218	16.713	4.	0.	1626.6
12219	16.806	4.	5.e-002	7.8071
12220	16.806	3.7273	0.	1604.9
12221	16.713	3.8182	0.	1626.7
12222	16.806	3.8182	5.e-002	7.8074
12223	16.806	3.5455	0.	1605.1
12224	16.713	3.6364	0.	1626.8
12225	16.806	3.6364	5.e-002	7.8075
12226	16.806	3.3636	0.	1605.2
12227	16.713	3.4545	0.	1627.
12228	16.806	3.4545	5.e-002	7.8076
12229	16.806	3.1818	0.	1605.2
12230	16.713	3.2727	0.	1627.
12231	16.806	3.2727	5.e-002	7.8076
12232	16.806	3.	0.	1605.3
12233	16.713	3.0909	0.	1627.1
12234	16.806	3.0909	5.e-002	7.8077
12235	16.806	2.8182	0.	1605.2
12236	16.713	2.9091	0.	1627.1
12237	16.806	2.9091	5.e-002	7.8077
12238	16.806	2.6364	0.	1605.2
12239	16.713	2.7273	0.	1627.
12240	16.806	2.7273	5.e-002	7.8076
12241	16.806	2.4545	0.	1605.1
12242	16.713	2.5455	0.	1627.
12243	16.806	2.5455	5.e-002	7.8076
12244	16.806	2.2727	0.	1604.9
12245	16.713	2.3636	0.	1626.8
12246	16.806	2.3636	5.e-002	7.8075
12247	16.806	2.0909	0.	1604.7
12248	16.713	2.1818	0.	1626.7
12249	16.806	2.1818	5.e-002	7.8074
12250	16.806	1.9091	0.	1604.5
12251	16.713	2.	0.	1626.6
12252	16.806	2.	5.e-002	7.8071
12253	16.806	1.7273	0.	1604.3
12254	16.713	1.8182	0.	1626.4
12255	16.806	1.8182	5.e-002	7.8067
12256	16.806	1.5455	0.	1604.1
12257	16.713	1.6364	0.	1626.2
12258	16.806	1.6364	5.e-002	7.8062
12259	16.806	1.3636	0.	1603.9
12260	16.713	1.4545	0.	1626.1
12261	16.806	1.4545	5.e-002	7.8054
12262	16.806	1.1818	0.	1603.8
12263	16.713	1.2727	0.	1625.9
12264	16.806	1.2727	5.e-002	7.8044
12265	16.806	1.	0.	1603.7
12266	16.713	1.0909	0.	1625.9
12267	16.806	1.0909	5.e-002	7.803
12268	16.806	0.81818	0.	1603.6
12269	16.713	0.90909	0.	1625.8
12270	16.806	0.90909	5.e-002	7.8011
12271	16.806	0.63636	0.	1603.7
12272	16.713	0.72727	0.	1625.9
12273	16.806	0.72727	5.e-002	7.797
12274	16.806	0.45455	0.	1604.
12275	16.713	0.54545	0.	1626.1
12276	16.806	0.54545	5.e-002	7.7641
12277	16.806	0.27273	0.	1605.8
12278	16.713	0.36364	0.	1626.6
12279	16.806	0.36364	5.e-002	7.2982
12280	16.713	0.18182	0.	1630.1
12281	16.806	0.18182	5.e-002	0.49674
12282	16.806	9.0909e-002	0.	1598.3
12283	16.621	5.7273	0.	1650.6
12284	16.529	5.8182	0.	1674.9
12285	16.621	5.8182	5.e-002	0.45877
12286	16.621	5.9091	0.	1643.2
12287	16.621	5.5455	0.	1648.6
12288	16.529	5.6364	0.	1671.4
12289	16.621	5.6364	5.e-002	7.3205
12290	16.621	5.3636	0.	1648.2
12291	16.529	5.4545	0.	1670.8
12292	16.621	5.4545	5.e-002	7.791
12293	16.621	5.1818	0.	1648.1
12294	16.529	5.2727	0.	1670.5
12295	16.621	5.2727	5.e-002	7.8241
12296	16.621	5.	0.	1648.
12297	16.529	5.0909	0.	1670.3
12298	16.621	5.0909	5.e-002	7.8283
12299	16.621	4.8182	0.	1648.
12300	16.529	4.9091	0.	1670.2
12301	16.621	4.9091	5.e-002	7.8303
12302	16.621	4.6364	0.	1648.
12303	16.529	4.7273	0.	1670.2
12304	16.621	4.7273	5.e-002	7.8318
12305	16.621	4.4545	0.	1648.1
12306	16.529	4.5455	0.	1670.2
12307	16.621	4.5455	5.e-002	7.8329
12308	16.621	4.2727	0.	1648.2
12309	16.529	4.3636	0.	1670.3
12310	16.621	4.3636	5.e-002	7.8339
12311	16.621	4.0909	0.	1648.4
12312	16.529	4.1818	0.	1670.4
12313	16.621	4.1818	5.e-002	7.8346
12314	16.621	3.9091	0.	1648.5
12315	16.529	4.	0.	1670.5
12316	16.621	4.	5.e-002	7.8351
12317	16.621	3.7273	0.	1648.6
12318	16.529	3.8182	0.	1670.6
12319	16.621	3.8182	5.e-002	7.8355
12320	16.621	3.5455	0.	1648.7
12321	16.529	3.6364	0.	1670.6
12322	16.621	3.6364	5.e-002	7.8358
12323	16.621	3.3636	0.	1648.8
12324	16.529	3.4545	0.	1670.7
12325	16.621	3.4545	5.e-002	7.8359
12326	16.621	3.1818	0.	1648.8
12327	16.529	3.2727	0.	1670.8
12328	16.621	3.2727	5.e-002	7.8361
12329	16.621	3.	0.	1648.8
12330	16.529	3.0909	0.	1670.8
12331	16.621	3.0909	5.e-002	7.8361
12332	16.621	2.8182	0.	1648.8
12333	16.529	2.9091	0.	1670.8
12334	16.621	2.9091	5.e-002	7.8361
12335	16.621	2.6364	0.	1648.8
12336	16.529	2.7273	0.	1670.8
12337	16.621	2.7273	5.e-002	7.8361
12338	16.621	2.4545	0.	1648.7
12339	16.529	2.5455	0.	1670.7
12340	16.621	2.5455	5.e-002	7.8359
12341	16.621	2.2727	0.	1648.6
12342	16.529	2.3636	0.	1670.6
12343	16.621	2.3636	5.e-002	7.8358
12344	16.621	2.0909	0.	1648.5
12345	16.529	2.1818	0.	1670.6
12346	16.621	2.1818	5.e-002	7.8355
12347	16.621	1.9091	0.	1648.4
12348	16.529	2.	0.	1670.5
12349	16.621	2.	5.e-002	7.8351
12350	16.621	1.7273	0.	1648.2
12351	16.529	1.8182	0.	1670.4
12352	16.621	1.8182	5.e-002	7.8346
12353	16.621	1.5455	0.	1648.1
12354	16.529	1.6364	0.	1670.3
12355	16.621	1.6364	5.e-002	7.8339
12356	16.621	1.3636	0.	1648.
12357	16.529	1.4545	0.	1670.2
12358	16.621	1.4545	5.e-002	7.8329
12359	16.621	1.1818	0.	1648.
12360	16.529	1.2727	0.	1670.2
12361	16.621	1.2727	5.e-002	7.8318
12362	16.621	1.	0.	1648.
12363	16.529	1.0909	0.	1670.2
12364	16.621	1.0909	5.e-002	7.8303
12365	16.621	0.81818	0.	1648.1
12366	16.529	0.90909	0.	1670.3
12367	16.621	0.90909	5.e-002	7.8283
12368	16.621	0.63636	0.	1648.2
12369	16.529	0.72727	0.	1670.5
12370	16.621	0.72727	5.e-002	7.8241
12371	16.621	0.45455	0.	1648.6
12372	16.529	0.54545	0.	1670.8
12373	16.621	0.54545	5.e-002	7.791
12374	16.621	0.27273	0.	1650.6
12375	16.529	0.36364	0.	1671.4
12376	16.621	0.36364	5.e-002	7.3205
12377	16.529	0.18182	0.	1674.9
12378	16.621	0.18182	5.e-002	0.45876
12379	16.621	9.0909e-002	0.	1643.2
12380	16.436	5.7273	0.	1695.5
12381	16.344	5.8182	0.	1720.
12382	16.436	5.8182	5.e-002	0.42638
12383	16.436	5.9091	0.	1688.2
12384	16.436	5.5455	0.	1693.5
12385	16.344	5.6364	0.	1716.3
12386	16.436	5.6364	5.e-002	7.344
12387	16.436	5.3636	0.	1693.
12388	16.344	5.4545	0.	1715.6
12389	16.436	5.4545	5.e-002	7.8187
12390	16.436	5.1818	0.	1692.7
12391	16.344	5.2727	0.	1715.2
12392	16.436	5.2727	5.e-002	7.8521
12393	16.436	5.	0.	1692.5
12394	16.344	5.0909	0.	1715.
12395	16.436	5.0909	5.e-002	7.8563
12396	16.436	4.8182	0.	1692.4
12397	16.344	4.9091	0.	1714.8
12398	16.436	4.9091	5.e-002	7.8583
12399	16.436	4.6364	0.	1692.3
12400	16.344	4.7273	0.	1714.7
12401	16.436	4.7273	5.e-002	7.8599
12402	16.436	4.4545	0.	1692.3
12403	16.344	4.5455	0.	1714.6
12404	16.436	4.5455	5.e-002	7.8612
12405	16.436	4.2727	0.	1692.4
12406	16.344	4.3636	0.	1714.6
12407	16.436	4.3636	5.e-002	7.8622
12408	16.436	4.0909	0.	1692.4
12409	16.344	4.1818	0.	1714.6
12410	16.436	4.1818	5.e-002	7.8631
12411	16.436	3.9091	0.	1692.5
12412	16.344	4.	0.	1714.6
12413	16.436	4.	5.e-002	7.8637
12414	16.436	3.7273	0.	1692.6
12415	16.344	3.8182	0.	1714.7
12416	16.436	3.8182	5.e-002	7.8642
12417	16.436	3.5455	0.	1692.6
12418	16.344	3.6364	0.	1714.7
12419	16.436	3.6364	5.e-002	7.8646
12420	16.436	3.3636	0.	1692.7
12421	16.344	3.4545	0.	1714.7
12422	16.436	3.4545	5.e-002	7.8648
12423	16.436	3.1818	0.	1692.7
12424	16.344	3.2727	0.	1714.8
12425	16.436	3.2727	5.e-002	7.865
12426	16.436	3.	0.	1692.7
12427	16.344	3.0909	0.	1714.8
12428	16.436	3.0909	5.e-002	7.8651
12429	16.436	2.8182	0.	1692.7
12430	16.344	2.9091	0.	1714.8
12431	16.436	2.9091	5.e-002	7.8651
12432	16.436	2.6364	0.	1692.7
12433	16.344	2.7273	0.	1714.8
12434	16.436	2.7273	5.e-002	7.865
12435	16.436	2.4545	0.	1692.6
12436	16.344	2.5455	0.	1714.7
12437	16.436	2.5455	5.e-002	7.8648
12438	16.436	2.2727	0.	1692.6
12439	16.344	2.3636	0.	1714.7
12440	16.436	2.3636	5.e-002	7.8646
12441	16.436	2.0909	0.	1692.5
12442	16.344	2.1818	0.	1714.7
12443	16.436	2.1818	5.e-002	7.8642
12444	16.436	1.9091	0.	1692.4
12445	16.344	2.	0.	1714.6
12446	16.436	2.	5.e-002	7.8637
12447	16.436	1.7273	0.	1692.4
12448	16.344	1.8182	0.	1714.6
12449	16.436	1.8182	5.e-002	7.8631
12450	16.436	1.5455	0.	1692.3
12451	16.344	1.6364	0.	1714.6
12452	16.436	1.6364	5.e-002	7.8622
12453	16.436	1.3636	0.	1692.3
12454	16.344	1.4545	0.	1714.6
12455	16.436	1.4545	5.e-002	7.8612
12456	16.436	1.1818	0.	1692.4
12457	16.344	1.2727	0.	1714.7
12458	16.436	1.2727	5.e-002	7.8599
12459	16.436	1.	0.	1692.5
12460	16.344	1.0909	0.	1714.8
12461	16.436	1.0909	5.e-002	7.8583
12462	16.436	0.81818	0.	1692.7
12463	16.344	0.90909	0.	1715.
12464	16.436	0.90909	5.e-002	7.8563
12465	16.436	0.63636	0.	1693.
12466	16.344	0.72727	0.	1715.2
12467	16.436	0.72727	5.e-002	7.8521
12468	16.436	0.45455	0.	1693.5
12469	16.344	0.54545	0.	1715.6
12470	16.436	0.54545	5.e-002	7.8187
12471	16.436	0.27273	0.	1695.5
12472	16.344	0.36364	0.	1716.3
12473	16.436	0.36364	5.e-002	7.344
12474	16.344	0.18182	0.	1720.
12475	16.436	0.18182	5.e-002	0.42637
12476	16.436	9.0909e-002	0.	1688.2
12477	16.252	5.7273	0.	1740.6
12478	16.159	5.8182	0.	1765.2
12479	16.252	5.8182	5.e-002	0.39896
12480	16.252	5.9091	0.	1733.5
12481	16.252	5.5455	0.	1738.5
12482	16.159	5.6364	0.	1761.5
12483	16.252	5.6364	5.e-002	7.3685
12484	16.252	5.3636	0.	1737.9
12485	16.159	5.4545	0.	1760.7
12486	16.252	5.4545	5.e-002	7.8473
12487	16.252	5.1818	0.	1737.5
12488	16.159	5.2727	0.	1760.2
12489	16.252	5.2727	5.e-002	7.8809
12490	16.252	5.	0.	1737.2
12491	16.159	5.0909	0.	1759.8
12492	16.252	5.0909	5.e-002	7.8851
12493	16.252	4.8182	0.	1737.
12494	16.159	4.9091	0.	1759.6
12495	16.252	4.9091	5.e-002	7.8872
12496	16.252	4.6364	0.	1736.9
12497	16.159	4.7273	0.	1759.3
12498	16.252	4.7273	5.e-002	7.8888
12499	16.252	4.4545	0.	1736.8
12500	16.159	4.5455	0.	1759.2
12501	16.252	4.5455	5.e-002	7.8901
12502	16.252	4.2727	0.	1736.7
12503	16.159	4.3636	0.	1759.1
12504	16.252	4.3636	5.e-002	7.8913
12505	16.252	4.0909	0.	1736.7
12506	16.159	4.1818	0.	1759.
12507	16.252	4.1818	5.e-002	7.8922
12508	16.252	3.9091	0.	1736.7
12509	16.159	4.	0.	1759.
12510	16.252	4.	5.e-002	7.8929
12511	16.252	3.7273	0.	1736.7
12512	16.159	3.8182	0.	1759.
12513	16.252	3.8182	5.e-002	7.8935
12514	16.252	3.5455	0.	1736.8
12515	16.159	3.6364	0.	1759.
12516	16.252	3.6364	5.e-002	7.8939
12517	16.252	3.3636	0.	1736.8
12518	16.159	3.4545	0.	1759.
12519	16.252	3.4545	5.e-002	7.8942
12520	16.252	3.1818	0.	1736.8
12521	16.159	3.2727	0.	1759.
12522	16.252	3.2727	5.e-002	7.8944
12523	16.252	3.	0.	1736.8
12524	16.159	3.0909	0.	1759.
12525	16.252	3.0909	5.e-002	7.8945
12526	16.252	2.8182	0.	1736.8
12527	16.159	2.9091	0.	1759.
12528	16.252	2.9091	5.e-002	7.8945
12529	16.252	2.6364	0.	1736.8
12530	16.159	2.7273	0.	1759.
12531	16.252	2.7273	5.e-002	7.8944
12532	16.252	2.4545	0.	1736.8
12533	16.159	2.5455	0.	1759.
12534	16.252	2.5455	5.e-002	7.8942
12535	16.252	2.2727	0.	1736.7
12536	16.159	2.3636	0.	1759.
12537	16.252	2.3636	5.e-002	7.8939
12538	16.252	2.0909	0.	1736.7
12539	16.159	2.1818	0.	1759.
12540	16.252	2.1818	5.e-002	7.8935
12541	16.252	1.9091	0.	1736.7
12542	16.159	2.	0.	1759.
12543	16.252	2.	5.e-002	7.8929
12544	16.252	1.7273	0.	1736.7
12545	16.159	1.8182	0.	1759.
12546	16.252	1.8182	5.e-002	7.8922
12547	16.252	1.5455	0.	1736.8
12548	16.159	1.6364	0.	1759.1
12549	16.252	1.6364	5.e-002	7.8913
12550	16.252	1.3636	0.	1736.9
12551	16.159	1.4545	0.	1759.2
12552	16.252	1.4545	5.e-002	7.8901
12553	16.252	1.1818	0.	1737.
12554	16.159	1.2727	0.	1759.3
12555	16.252	1.2727	5.e-002	7.8888
12556	16.252	1.	0.	1737.2
12557	16.159	1.0909	0.	1759.6
12558	16.252	1.0909	5.e-002	7.8872
12559	16.252	0.81818	0.	1737.5
12560	16.159	0.90909	0.	1759.8
12561	16.252	0.90909	5.e-002	7.8851
12562	16.252	0.63636	0.	1737.9
12563	16.159	0.72727	0.	1760.2
12564	16.252	0.72727	5.e-002	7.8809
12565	16.252	0.45455	0.	1738.5
12566	16.159	0.54545	0.	1760.7
12567	16.252	0.54545	5.e-002	7.8473
12568	16.252	0.27273	0.	1740.6
12569	16.159	0.36364	0.	1761.5
12570	16.252	0.36364	5.e-002	7.3685
12571	16.159	0.18182	0.	1765.2
12572	16.252	0.18182	5.e-002	0.39896
12573	16.252	9.0909e-002	0.	1733.5
12574	16.067	5.7273	0.	1785.9
12575	15.975	5.8182	0.	1810.6
12576	16.067	5.8182	5.e-002	0.3759
12577	16.067	5.9091	0.	1778.9
12578	16.067	5.5455	0.	1783.7
12579	15.975	5.6364	0.	1806.8
12580	16.067	5.6364	5.e-002	7.3939
12581	16.067	5.3636	0.	1783.
12582	15.975	5.4545	0.	1806.
12583	16.067	5.4545	5.e-002	7.8766
12584	16.067	5.1818	0.	1782.5
12585	15.975	5.2727	0.	1805.4
12586	16.067	5.2727	5.e-002	7.9104
12587	16.067	5.	0.	1782.1
12588	15.975	5.0909	0.	1804.9
12589	16.067	5.0909	5.e-002	7.9146
12590	16.067	4.8182	0.	1781.8
12591	15.975	4.9091	0.	1804.5
12592	16.067	4.9091	5.e-002	7.9166
12593	16.067	4.6364	0.	1781.6
12594	15.975	4.7273	0.	1804.3
12595	16.067	4.7273	5.e-002	7.9183
12596	16.067	4.4545	0.	1781.5
12597	15.975	4.5455	0.	1804.
12598	16.067	4.5455	5.e-002	7.9197
12599	16.067	4.2727	0.	1781.4
12600	15.975	4.3636	0.	1803.9
12601	16.067	4.3636	5.e-002	7.9209
12602	16.067	4.0909	0.	1781.3
12603	15.975	4.1818	0.	1803.7
12604	16.067	4.1818	5.e-002	7.9219
12605	16.067	3.9091	0.	1781.2
12606	15.975	4.	0.	1803.6
12607	16.067	4.	5.e-002	7.9227
12608	16.067	3.7273	0.	1781.2
12609	15.975	3.8182	0.	1803.6
12610	16.067	3.8182	5.e-002	7.9233
12611	16.067	3.5455	0.	1781.2
12612	15.975	3.6364	0.	1803.5
12613	16.067	3.6364	5.e-002	7.9238
12614	16.067	3.3636	0.	1781.2
12615	15.975	3.4545	0.	1803.5
12616	16.067	3.4545	5.e-002	7.9241
12617	16.067	3.1818	0.	1781.2
12618	15.975	3.2727	0.	1803.5
12619	16.067	3.2727	5.e-002	7.9244
12620	16.067	3.	0.	1781.2
12621	15.975	3.0909	0.	1803.5
12622	16.067	3.0909	5.e-002	7.9245
12623	16.067	2.8182	0.	1781.2
12624	15.975	2.9091	0.	1803.5
12625	16.067	2.9091	5.e-002	7.9245
12626	16.067	2.6364	0.	1781.2
12627	15.975	2.7273	0.	1803.5
12628	16.067	2.7273	5.e-002	7.9244
12629	16.067	2.4545	0.	1781.2
12630	15.975	2.5455	0.	1803.5
12631	16.067	2.5455	5.e-002	7.9241
12632	16.067	2.2727	0.	1781.2
12633	15.975	2.3636	0.	1803.5
12634	16.067	2.3636	5.e-002	7.9238
12635	16.067	2.0909	0.	1781.2
12636	15.975	2.1818	0.	1803.6
12637	16.067	2.1818	5.e-002	7.9233
12638	16.067	1.9091	0.	1781.3
12639	15.975	2.	0.	1803.6
12640	16.067	2.	5.e-002	7.9227
12641	16.067	1.7273	0.	1781.4
12642	15.975	1.8182	0.	1803.7
12643	16.067	1.8182	5.e-002	7.9219
12644	16.067	1.5455	0.	1781.5
12645	15.975	1.6364	0.	1803.9
12646	16.067	1.6364	5.e-002	7.9209
12647	16.067	1.3636	0.	1781.6
12648	15.975	1.4545	0.	1804.
12649	16.067	1.4545	5.e-002	7.9197
12650	16.067	1.1818	0.	1781.8
12651	15.975	1.2727	0.	1804.3
12652	16.067	1.2727	5.e-002	7.9183
12653	16.067	1.	0.	1782.1
12654	15.975	1.0909	0.	1804.5
12655	16.067	1.0909	5.e-002	7.9166
12656	16.067	0.81818	0.	1782.5
12657	15.975	0.90909	0.	1804.9
12658	16.067	0.90909	5.e-002	7.9146
12659	16.067	0.63636	0.	1783.
12660	15.975	0.72727	0.	1805.4
12661	16.067	0.72727	5.e-002	7.9104
12662	16.067	0.45455	0.	1783.7
12663	15.975	0.54545	0.	1806.
12664	16.067	0.54545	5.e-002	7.8766
12665	16.067	0.27273	0.	1785.9
12666	15.975	0.36364	0.	1806.8
12667	16.067	0.36364	5.e-002	7.3939
12668	15.975	0.18182	0.	1810.6
12669	16.067	0.18182	5.e-002	0.3759
12670	16.067	9.0909e-002	0.	1778.9
12671	15.882	5.7273	0.	1831.3
12672	15.79	5.8182	0.	1856.1
12673	15.882	5.8182	5.e-002	0.35652
12674	15.882	5.9091	0.	1824.5
12675	15.882	5.5455	0.	1829.
12676	15.79	5.6364	0.	1852.3
12677	15.882	5.6364	5.e-002	7.4201
12678	15.882	5.3636	0.	1828.3
12679	15.79	5.4545	0.	1851.4
12680	15.882	5.4545	5.e-002	7.9064
12681	15.882	5.1818	0.	1827.7
12682	15.79	5.2727	0.	1850.7
12683	15.882	5.2727	5.e-002	7.9404
12684	15.882	5.	0.	1827.3
12685	15.79	5.0909	0.	1850.2
12686	15.882	5.0909	5.e-002	7.9447
12687	15.882	4.8182	0.	1826.9
12688	15.79	4.9091	0.	1849.7
12689	15.882	4.9091	5.e-002	7.9467
12690	15.882	4.6364	0.	1826.6
12691	15.79	4.7273	0.	1849.4
12692	15.882	4.7273	5.e-002	7.9484
12693	15.882	4.4545	0.	1826.4
12694	15.79	4.5455	0.	1849.1
12695	15.882	4.5455	5.e-002	7.9498
12696	15.882	4.2727	0.	1826.2
12697	15.79	4.3636	0.	1848.8
12698	15.882	4.3636	5.e-002	7.951
12699	15.882	4.0909	0.	1826.1
12700	15.79	4.1818	0.	1848.7
12701	15.882	4.1818	5.e-002	7.9521
12702	15.882	3.9091	0.	1826.
12703	15.79	4.	0.	1848.5
12704	15.882	4.	5.e-002	7.9529
12705	15.882	3.7273	0.	1825.9
12706	15.79	3.8182	0.	1848.4
12707	15.882	3.8182	5.e-002	7.9536
12708	15.882	3.5455	0.	1825.8
12709	15.79	3.6364	0.	1848.3
12710	15.882	3.6364	5.e-002	7.9541
12711	15.882	3.3636	0.	1825.8
12712	15.79	3.4545	0.	1848.3
12713	15.882	3.4545	5.e-002	7.9545
12714	15.882	3.1818	0.	1825.8
12715	15.79	3.2727	0.	1848.2
12716	15.882	3.2727	5.e-002	7.9548
12717	15.882	3.	0.	1825.8
12718	15.79	3.0909	0.	1848.2
12719	15.882	3.0909	5.e-002	7.9549
12720	15.882	2.8182	0.	1825.8
12721	15.79	2.9091	0.	1848.2
12722	15.882	2.9091	5.e-002	7.9549
12723	15.882	2.6364	0.	1825.8
12724	15.79	2.7273	0.	1848.2
12725	15.882	2.7273	5.e-002	7.9548
12726	15.882	2.4545	0.	1825.8
12727	15.79	2.5455	0.	1848.3
12728	15.882	2.5455	5.e-002	7.9545
12729	15.882	2.2727	0.	1825.9
12730	15.79	2.3636	0.	1848.3
12731	15.882	2.3636	5.e-002	7.9541
12732	15.882	2.0909	0.	1826.
12733	15.79	2.1818	0.	1848.4
12734	15.882	2.1818	5.e-002	7.9536
12735	15.882	1.9091	0.	1826.1
12736	15.79	2.	0.	1848.5
12737	15.882	2.	5.e-002	7.9529
12738	15.882	1.7273	0.	1826.2
12739	15.79	1.8182	0.	1848.7
12740	15.882	1.8182	5.e-002	7.9521
12741	15.882	1.5455	0.	1826.4
12742	15.79	1.6364	0.	1848.8
12743	15.882	1.6364	5.e-002	7.951
12744	15.882	1.3636	0.	1826.6
12745	15.79	1.4545	0.	1849.1
12746	15.882	1.4545	5.e-002	7.9498
12747	15.882	1.1818	0.	1826.9
12748	15.79	1.2727	0.	1849.4
12749	15.882	1.2727	5.e-002	7.9484
12750	15.882	1.	0.	1827.3
12751	15.79	1.0909	0.	1849.7
12752	15.882	1.0909	5.e-002	7.9467
12753	15.882	0.81818	0.	1827.7
12754	15.79	0.90909	0.	1850.2
12755	15.882	0.90909	5.e-002	7.9447
12756	15.882	0.63636	0.	1828.3
12757	15.79	0.72727	0.	1850.7
12758	15.882	0.72727	5.e-002	7.9404
12759	15.882	0.45455	0.	1829.
12760	15.79	0.54545	0.	1851.4
12761	15.882	0.54545	5.e-002	7.9064
12762	15.882	0.27273	0.	1831.3
12763	15.79	0.36364	0.	1852.3
12764	15.882	0.36364	5.e-002	7.4201
12765	15.79	0.18182	0.	1856.1
12766	15.882	0.18182	5.e-002	0.35652
12767	15.882	9.0909e-002	0.	1824.5
12768	15.698	5.7273	0.	1876.9
12769	15.605	5.8182	0.	1901.9
12770	15.698	5.8182	5.e-002	0.34018
12771	15.698	5.9091	0.	1870.2
12772	15.698	5.5455	0.	1874.6
12773	15.605	5.6364	0.	1898.
12774	15.698	5.6364	5.e-002	7.4472
12775	15.698	5.3636	0.	1873.8
12776	15.605	5.4545	0.	1897.
12777	15.698	5.4545	5.e-002	7.937
12778	15.698	5.1818	0.	1873.1
12779	15.605	5.2727	0.	1896.3
12780	15.698	5.2727	5.e-002	7.9711
12781	15.698	5.	0.	1872.6
12782	15.605	5.0909	0.	1895.7
12783	15.698	5.0909	5.e-002	7.9754
12784	15.698	4.8182	0.	1872.2
12785	15.605	4.9091	0.	1895.1
12786	15.698	4.9091	5.e-002	7.9774
12787	15.698	4.6364	0.	1871.8
12788	15.605	4.7273	0.	1894.7
12789	15.698	4.7273	5.e-002	7.9791
12790	15.698	4.4545	0.	1871.5
12791	15.605	4.5455	0.	1894.3
12792	15.698	4.5455	5.e-002	7.9805
12793	15.698	4.2727	0.	1871.3
12794	15.605	4.3636	0.	1894.
12795	15.698	4.3636	5.e-002	7.9818
12796	15.698	4.0909	0.	1871.1
12797	15.605	4.1818	0.	1893.8
12798	15.698	4.1818	5.e-002	7.9829
12799	15.698	3.9091	0.	1870.9
12800	15.605	4.	0.	1893.6
12801	15.698	4.	5.e-002	7.9837
12802	15.698	3.7273	0.	1870.8
12803	15.605	3.8182	0.	1893.5
12804	15.698	3.8182	5.e-002	7.9845
12805	15.698	3.5455	0.	1870.7
12806	15.605	3.6364	0.	1893.3
12807	15.698	3.6364	5.e-002	7.985
12808	15.698	3.3636	0.	1870.7
12809	15.605	3.4545	0.	1893.3
12810	15.698	3.4545	5.e-002	7.9854
12811	15.698	3.1818	0.	1870.6
12812	15.605	3.2727	0.	1893.2
12813	15.698	3.2727	5.e-002	7.9857
12814	15.698	3.	0.	1870.6
12815	15.605	3.0909	0.	1893.2
12816	15.698	3.0909	5.e-002	7.9858
12817	15.698	2.8182	0.	1870.6
12818	15.605	2.9091	0.	1893.2
12819	15.698	2.9091	5.e-002	7.9858
12820	15.698	2.6364	0.	1870.7
12821	15.605	2.7273	0.	1893.2
12822	15.698	2.7273	5.e-002	7.9857
12823	15.698	2.4545	0.	1870.7
12824	15.605	2.5455	0.	1893.3
12825	15.698	2.5455	5.e-002	7.9854
12826	15.698	2.2727	0.	1870.8
12827	15.605	2.3636	0.	1893.3
12828	15.698	2.3636	5.e-002	7.985
12829	15.698	2.0909	0.	1870.9
12830	15.605	2.1818	0.	1893.5
12831	15.698	2.1818	5.e-002	7.9845
12832	15.698	1.9091	0.	1871.1
12833	15.605	2.	0.	1893.6
12834	15.698	2.	5.e-002	7.9837
12835	15.698	1.7273	0.	1871.3
12836	15.605	1.8182	0.	1893.8
12837	15.698	1.8182	5.e-002	7.9829
12838	15.698	1.5455	0.	1871.5
12839	15.605	1.6364	0.	1894.
12840	15.698	1.6364	5.e-002	7.9818
12841	15.698	1.3636	0.	1871.8
12842	15.605	1.4545	0.	1894.3
12843	15.698	1.4545	5.e-002	7.9805
12844	15.698	1.1818	0.	1872.2
12845	15.605	1.2727	0.	1894.7
12846	15.698	1.2727	5.e-002	7.9791
12847	15.698	1.	0.	1872.6
12848	15.605	1.0909	0.	1895.1
12849	15.698	1.0909	5.e-002	7.9774
12850	15.698	0.81818	0.	1873.1
12851	15.605	0.90909	0.	1895.7
12852	15.698	0.90909	5.e-002	7.9754
12853	15.698	0.63636	0.	1873.8
12854	15.605	0.72727	0.	1896.3
12855	15.698	0.72727	5.e-002	7.9711
12856	15.698	0.45455	0.	1874.6
12857	15.605	0.54545	0.	1897.
12858	15.698	0.54545	5.e-002	7.937
12859	15.698	0.27273	0.	1876.9
12860	15.605	0.36364	0.	1898.
12861	15.698	0.36364	5.e-002	7.4472
12862	15.605	0.18182	0.	1901.9
12863	15.698	0.18182	5.e-002	0.34018
12864	15.698	9.0909e-002	0.	1870.2
12865	15.513	5.7273	0.	1922.8
12866	15.421	5.8182	0.	1947.8
12867	15.513	5.8182	5.e-002	0.32621
12868	15.513	5.9091	0.	1916.2
12869	15.513	5.5455	0.	1920.4
12870	15.421	5.6364	0.	1943.9
12871	15.513	5.6364	5.e-002	7.475
12872	15.513	5.3636	0.	1919.5
12873	15.421	5.4545	0.	1942.8
12874	15.513	5.4545	5.e-002	7.968
12875	15.513	5.1818	0.	1918.8
12876	15.421	5.2727	0.	1942.
12877	15.513	5.2727	5.e-002	8.0024
12878	15.513	5.	0.	1918.2
12879	15.421	5.0909	0.	1941.4
12880	15.513	5.0909	5.e-002	8.0066
12881	15.513	4.8182	0.	1917.6
12882	15.421	4.9091	0.	1940.8
12883	15.513	4.9091	5.e-002	8.0087
12884	15.513	4.6364	0.	1917.2
12885	15.421	4.7273	0.	1940.3
12886	15.513	4.7273	5.e-002	8.0104
12887	15.513	4.4545	0.	1916.8
12888	15.421	4.5455	0.	1939.8
12889	15.513	4.5455	5.e-002	8.0118
12890	15.513	4.2727	0.	1916.5
12891	15.421	4.3636	0.	1939.5
12892	15.513	4.3636	5.e-002	8.0131
12893	15.513	4.0909	0.	1916.3
12894	15.421	4.1818	0.	1939.2
12895	15.513	4.1818	5.e-002	8.0142
12896	15.513	3.9091	0.	1916.1
12897	15.421	4.	0.	1938.9
12898	15.513	4.	5.e-002	8.0151
12899	15.513	3.7273	0.	1916.
12900	15.421	3.8182	0.	1938.7
12901	15.513	3.8182	5.e-002	8.0159
12902	15.513	3.5455	0.	1915.8
12903	15.421	3.6364	0.	1938.6
12904	15.513	3.6364	5.e-002	8.0164
12905	15.513	3.3636	0.	1915.8
12906	15.421	3.4545	0.	1938.5
12907	15.513	3.4545	5.e-002	8.0169
12908	15.513	3.1818	0.	1915.7
12909	15.421	3.2727	0.	1938.4
12910	15.513	3.2727	5.e-002	8.0172
12911	15.513	3.	0.	1915.7
12912	15.421	3.0909	0.	1938.4
12913	15.513	3.0909	5.e-002	8.0173
12914	15.513	2.8182	0.	1915.7
12915	15.421	2.9091	0.	1938.4
12916	15.513	2.9091	5.e-002	8.0173
12917	15.513	2.6364	0.	1915.8
12918	15.421	2.7273	0.	1938.4
12919	15.513	2.7273	5.e-002	8.0172
12920	15.513	2.4545	0.	1915.8
12921	15.421	2.5455	0.	1938.5
12922	15.513	2.5455	5.e-002	8.0169
12923	15.513	2.2727	0.	1916.
12924	15.421	2.3636	0.	1938.6
12925	15.513	2.3636	5.e-002	8.0164
12926	15.513	2.0909	0.	1916.1
12927	15.421	2.1818	0.	1938.7
12928	15.513	2.1818	5.e-002	8.0159
12929	15.513	1.9091	0.	1916.3
12930	15.421	2.	0.	1938.9
12931	15.513	2.	5.e-002	8.0151
12932	15.513	1.7273	0.	1916.5
12933	15.421	1.8182	0.	1939.2
12934	15.513	1.8182	5.e-002	8.0142
12935	15.513	1.5455	0.	1916.8
12936	15.421	1.6364	0.	1939.5
12937	15.513	1.6364	5.e-002	8.0131
12938	15.513	1.3636	0.	1917.2
12939	15.421	1.4545	0.	1939.8
12940	15.513	1.4545	5.e-002	8.0118
12941	15.513	1.1818	0.	1917.6
12942	15.421	1.2727	0.	1940.3
12943	15.513	1.2727	5.e-002	8.0104
12944	15.513	1.	0.	1918.2
12945	15.421	1.0909	0.	1940.8
12946	15.513	1.0909	5.e-002	8.0087
12947	15.513	0.81818	0.	1918.8
12948	15.421	0.90909	0.	1941.4
12949	15.513	0.90909	5.e-002	8.0066
12950	15.513	0.63636	0.	1919.5
12951	15.421	0.72727	0.	1942.
12952	15.513	0.72727	5.e-002	8.0024
12953	15.513	0.45455	0.	1920.4
12954	15.421	0.54545	0.	1942.8
12955	15.513	0.54545	5.e-002	7.968
12956	15.513	0.27273	0.	1922.8
12957	15.421	0.36364	0.	1943.9
12958	15.513	0.36364	5.e-002	7.475
12959	15.421	0.18182	0.	1947.8
12960	15.513	0.18182	5.e-002	0.32621
12961	15.513	9.0909e-002	0.	1916.2
12962	15.328	5.7273	0.	1968.8
12963	15.236	5.8182	0.	1993.9
12964	15.328	5.8182	5.e-002	0.314
12965	15.328	5.9091	0.	1962.3
12966	15.328	5.5455	0.	1966.3
12967	15.236	5.6364	0.	1990.
12968	15.328	5.6364	5.e-002	7.5034
12969	15.328	5.3636	0.	1965.4
12970	15.236	5.4545	0.	1988.9
12971	15.328	5.4545	5.e-002	7.9996
12972	15.328	5.1818	0.	1964.6
12973	15.236	5.2727	0.	1988.
12974	15.328	5.2727	5.e-002	8.0341
12975	15.328	5.	0.	1963.9
12976	15.236	5.0909	0.	1987.2
12977	15.328	5.0909	5.e-002	8.0383
12978	15.328	4.8182	0.	1963.3
12979	15.236	4.9091	0.	1986.6
12980	15.328	4.9091	5.e-002	8.0404
12981	15.328	4.6364	0.	1962.8
12982	15.236	4.7273	0.	1986.
12983	15.328	4.7273	5.e-002	8.0421
12984	15.328	4.4545	0.	1962.4
12985	15.236	4.5455	0.	1985.5
12986	15.328	4.5455	5.e-002	8.0436
12987	15.328	4.2727	0.	1962.1
12988	15.236	4.3636	0.	1985.1
12989	15.328	4.3636	5.e-002	8.0449
12990	15.328	4.0909	0.	1961.8
12991	15.236	4.1818	0.	1984.8
12992	15.328	4.1818	5.e-002	8.046
12993	15.328	3.9091	0.	1961.5
12994	15.236	4.	0.	1984.5
12995	15.328	4.	5.e-002	8.0469
12996	15.328	3.7273	0.	1961.3
12997	15.236	3.8182	0.	1984.2
12998	15.328	3.8182	5.e-002	8.0477
12999	15.328	3.5455	0.	1961.2
13000	15.236	3.6364	0.	1984.1
13001	15.328	3.6364	5.e-002	8.0483
13002	15.328	3.3636	0.	1961.1
13003	15.236	3.4545	0.	1983.9
13004	15.328	3.4545	5.e-002	8.0488
13005	15.328	3.1818	0.	1961.
13006	15.236	3.2727	0.	1983.9
13007	15.328	3.2727	5.e-002	8.0491
13008	15.328	3.	0.	1961.
13009	15.236	3.0909	0.	1983.8
13010	15.328	3.0909	5.e-002	8.0492
13011	15.328	2.8182	0.	1961.
13012	15.236	2.9091	0.	1983.8
13013	15.328	2.9091	5.e-002	8.0492
13014	15.328	2.6364	0.	1961.1
13015	15.236	2.7273	0.	1983.9
13016	15.328	2.7273	5.e-002	8.0491
13017	15.328	2.4545	0.	1961.2
13018	15.236	2.5455	0.	1983.9
13019	15.328	2.5455	5.e-002	8.0488
13020	15.328	2.2727	0.	1961.3
13021	15.236	2.3636	0.	1984.1
13022	15.328	2.3636	5.e-002	8.0483
13023	15.328	2.0909	0.	1961.5
13024	15.236	2.1818	0.	1984.2
13025	15.328	2.1818	5.e-002	8.0477
13026	15.328	1.9091	0.	1961.8
13027	15.236	2.	0.	1984.5
13028	15.328	2.	5.e-002	8.0469
13029	15.328	1.7273	0.	1962.1
13030	15.236	1.8182	0.	1984.8
13031	15.328	1.8182	5.e-002	8.046
13032	15.328	1.5455	0.	1962.4
13033	15.236	1.6364	0.	1985.1
13034	15.328	1.6364	5.e-002	8.0449
13035	15.328	1.3636	0.	1962.8
13036	15.236	1.4545	0.	1985.5
13037	15.328	1.4545	5.e-002	8.0436
13038	15.328	1.1818	0.	1963.3
13039	15.236	1.2727	0.	1986.
13040	15.328	1.2727	5.e-002	8.0421
13041	15.328	1.	0.	1963.9
13042	15.236	1.0909	0.	1986.6
13043	15.328	1.0909	5.e-002	8.0404
13044	15.328	0.81818	0.	1964.6
13045	15.236	0.90909	0.	1987.2
13046	15.328	0.90909	5.e-002	8.0383
13047	15.328	0.63636	0.	1965.4
13048	15.236	0.72727	0.	1988.
13049	15.328	0.72727	5.e-002	8.0341
13050	15.328	0.45455	0.	1966.3
13051	15.236	0.54545	0.	1988.9
13052	15.328	0.54545	5.e-002	7.9996
13053	15.328	0.27273	0.	1968.8
13054	15.236	0.36364	0.	1990.
13055	15.328	0.36364	5.e-002	7.5034
13056	15.236	0.18182	0.	1993.9
13057	15.328	0.18182	5.e-002	0.314
13058	15.328	9.0909e-002	0.	1962.3
13059	15.144	5.7273	0.	2015.
13060	15.051	5.8182	0.	2040.2
13061	15.144	5.8182	5.e-002	0.30294
13062	15.144	5.9091	0.	2008.7
13063	15.144	5.5455	0.	2012.5
13064	15.051	5.6364	0.	2036.3
13065	15.144	5.6364	5.e-002	7.5324
13066	15.144	5.3636	0.	2011.4
13067	15.051	5.4545	0.	2035.1
13068	15.144	5.4545	5.e-002	8.0316
13069	15.144	5.1818	0.	2010.6
13070	15.051	5.2727	0.	2034.1
13071	15.144	5.2727	5.e-002	8.0663
13072	15.144	5.	0.	2009.9
13073	15.051	5.0909	0.	2033.3
13074	15.144	5.0909	5.e-002	8.0705
13075	15.144	4.8182	0.	2009.2
13076	15.051	4.9091	0.	2032.6
13077	15.144	4.9091	5.e-002	8.0726
13078	15.144	4.6364	0.	2008.7
13079	15.051	4.7273	0.	2032.
13080	15.144	4.7273	5.e-002	8.0743
13081	15.144	4.4545	0.	2008.2
13082	15.051	4.5455	0.	2031.4
13083	15.144	4.5455	5.e-002	8.0758
13084	15.144	4.2727	0.	2007.8
13085	15.051	4.3636	0.	2031.
13086	15.144	4.3636	5.e-002	8.0771
13087	15.144	4.0909	0.	2007.4
13088	15.051	4.1818	0.	2030.6
13089	15.144	4.1818	5.e-002	8.0783
13090	15.144	3.9091	0.	2007.2
13091	15.051	4.	0.	2030.2
13092	15.144	4.	5.e-002	8.0792
13093	15.144	3.7273	0.	2006.9
13094	15.051	3.8182	0.	2030.
13095	15.144	3.8182	5.e-002	8.08
13096	15.144	3.5455	0.	2006.8
13097	15.051	3.6364	0.	2029.8
13098	15.144	3.6364	5.e-002	8.0807
13099	15.144	3.3636	0.	2006.7
13100	15.051	3.4545	0.	2029.6
13101	15.144	3.4545	5.e-002	8.0811
13102	15.144	3.1818	0.	2006.6
13103	15.051	3.2727	0.	2029.5
13104	15.144	3.2727	5.e-002	8.0814
13105	15.144	3.	0.	2006.6
13106	15.051	3.0909	0.	2029.5
13107	15.144	3.0909	5.e-002	8.0816
13108	15.144	2.8182	0.	2006.6
13109	15.051	2.9091	0.	2029.5
13110	15.144	2.9091	5.e-002	8.0816
13111	15.144	2.6364	0.	2006.7
13112	15.051	2.7273	0.	2029.5
13113	15.144	2.7273	5.e-002	8.0814
13114	15.144	2.4545	0.	2006.8
13115	15.051	2.5455	0.	2029.6
13116	15.144	2.5455	5.e-002	8.0811
13117	15.144	2.2727	0.	2006.9
13118	15.051	2.3636	0.	2029.8
13119	15.144	2.3636	5.e-002	8.0807
13120	15.144	2.0909	0.	2007.2
13121	15.051	2.1818	0.	2030.
13122	15.144	2.1818	5.e-002	8.08
13123	15.144	1.9091	0.	2007.4
13124	15.051	2.	0.	2030.2
13125	15.144	2.	5.e-002	8.0792
13126	15.144	1.7273	0.	2007.8
13127	15.051	1.8182	0.	2030.6
13128	15.144	1.8182	5.e-002	8.0783
13129	15.144	1.5455	0.	2008.2
13130	15.051	1.6364	0.	2031.
13131	15.144	1.6364	5.e-002	8.0771
13132	15.144	1.3636	0.	2008.7
13133	15.051	1.4545	0.	2031.4
13134	15.144	1.4545	5.e-002	8.0758
13135	15.144	1.1818	0.	2009.2
13136	15.051	1.2727	0.	2032.
13137	15.144	1.2727	5.e-002	8.0743
13138	15.144	1.	0.	2009.9
13139	15.051	1.0909	0.	2032.6
13140	15.144	1.0909	5.e-002	8.0726
13141	15.144	0.81818	0.	2010.6
13142	15.051	0.90909	0.	2033.3
13143	15.144	0.90909	5.e-002	8.0705
13144	15.144	0.63636	0.	2011.4
13145	15.051	0.72727	0.	2034.1
13146	15.144	0.72727	5.e-002	8.0663
13147	15.144	0.45455	0.	2012.5
13148	15.051	0.54545	0.	2035.1
13149	15.144	0.54545	5.e-002	8.0316
13150	15.144	0.27273	0.	2015.
13151	15.051	0.36364	0.	2036.3
13152	15.144	0.36364	5.e-002	7.5324
13153	15.051	0.18182	0.	2040.2
13154	15.144	0.18182	5.e-002	0.30294
13155	15.144	9.0909e-002	0.	2008.7
13156	14.959	5.7273	0.	2061.4
13157	14.867	5.8182	0.	2086.7
13158	14.959	5.8182	5.e-002	0.2925
13159	14.959	5.9091	0.	2055.2
13160	14.959	5.5455	0.	2058.8
13161	14.867	5.6364	0.	2082.7
13162	14.959	5.6364	5.e-002	7.5621
13163	14.959	5.3636	0.	2057.7
13164	14.867	5.4545	0.	2081.5
13165	14.959	5.4545	5.e-002	8.0641
13166	14.959	5.1818	0.	2056.8
13167	14.867	5.2727	0.	2080.5
13168	14.959	5.2727	5.e-002	8.099
13169	14.959	5.	0.	2056.
13170	14.867	5.0909	0.	2079.6
13171	14.959	5.0909	5.e-002	8.1032
13172	14.959	4.8182	0.	2055.3
13173	14.867	4.9091	0.	2078.8
13174	14.959	4.9091	5.e-002	8.1053
13175	14.959	4.6364	0.	2054.7
13176	14.867	4.7273	0.	2078.1
13177	14.959	4.7273	5.e-002	8.107
13178	14.959	4.4545	0.	2054.2
13179	14.867	4.5455	0.	2077.5
13180	14.959	4.5455	5.e-002	8.1085
13181	14.959	4.2727	0.	2053.7
13182	14.867	4.3636	0.	2077.
13183	14.959	4.3636	5.e-002	8.1099
13184	14.959	4.0909	0.	2053.3
13185	14.867	4.1818	0.	2076.6
13186	14.959	4.1818	5.e-002	8.111
13187	14.959	3.9091	0.	2053.
13188	14.867	4.	0.	2076.2
13189	14.959	4.	5.e-002	8.112
13190	14.959	3.7273	0.	2052.8
13191	14.867	3.8182	0.	2075.9
13192	14.959	3.8182	5.e-002	8.1128
13193	14.959	3.5455	0.	2052.6
13194	14.867	3.6364	0.	2075.7
13195	14.959	3.6364	5.e-002	8.1135
13196	14.959	3.3636	0.	2052.4
13197	14.867	3.4545	0.	2075.5
13198	14.959	3.4545	5.e-002	8.114
13199	14.959	3.1818	0.	2052.3
13200	14.867	3.2727	0.	2075.4
13201	14.959	3.2727	5.e-002	8.1143
13202	14.959	3.	0.	2052.3
13203	14.867	3.0909	0.	2075.3
13204	14.959	3.0909	5.e-002	8.1144
13205	14.959	2.8182	0.	2052.3
13206	14.867	2.9091	0.	2075.3
13207	14.959	2.9091	5.e-002	8.1144
13208	14.959	2.6364	0.	2052.4
13209	14.867	2.7273	0.	2075.4
13210	14.959	2.7273	5.e-002	8.1143
13211	14.959	2.4545	0.	2052.6
13212	14.867	2.5455	0.	2075.5
13213	14.959	2.5455	5.e-002	8.114
13214	14.959	2.2727	0.	2052.8
13215	14.867	2.3636	0.	2075.7
13216	14.959	2.3636	5.e-002	8.1135
13217	14.959	2.0909	0.	2053.
13218	14.867	2.1818	0.	2075.9
13219	14.959	2.1818	5.e-002	8.1128
13220	14.959	1.9091	0.	2053.3
13221	14.867	2.	0.	2076.2
13222	14.959	2.	5.e-002	8.112
13223	14.959	1.7273	0.	2053.7
13224	14.867	1.8182	0.	2076.6
13225	14.959	1.8182	5.e-002	8.111
13226	14.959	1.5455	0.	2054.2
13227	14.867	1.6364	0.	2077.
13228	14.959	1.6364	5.e-002	8.1099
13229	14.959	1.3636	0.	2054.7
13230	14.867	1.4545	0.	2077.5
13231	14.959	1.4545	5.e-002	8.1085
13232	14.959	1.1818	0.	2055.3
13233	14.867	1.2727	0.	2078.1
13234	14.959	1.2727	5.e-002	8.107
13235	14.959	1.	0.	2056.
13236	14.867	1.0909	0.	2078.8
13237	14.959	1.0909	5.e-002	8.1053
13238	14.959	0.81818	0.	2056.8
13239	14.867	0.90909	0.	2079.6
13240	14.959	0.90909	5.e-002	8.1032
13241	14.959	0.63636	0.	2057.7
13242	14.867	0.72727	0.	2080.5
13243	14.959	0.72727	5.e-002	8.099
13244	14.959	0.45455	0.	2058.8
13245	14.867	0.54545	0.	2081.5
13246	14.959	0.54545	5.e-002	8.0641
13247	14.959	0.27273	0.	2061.4
13248	14.867	0.36364	0.	2082.7
13249	14.959	0.36364	5.e-002	7.5621
13250	14.867	0.18182	0.	2086.7
13251	14.959	0.18182	5.e-002	0.2925
13252	14.959	9.0909e-002	0.	2055.2
13253	14.774	5.7273	0.	2107.9
13254	14.682	5.8182	0.	2133.4
13255	14.774	5.8182	5.e-002	0.28218
13256	14.774	5.9091	0.	2101.9
13257	14.774	5.5455	0.	2105.4
13258	14.682	5.6364	0.	2129.4
13259	14.774	5.6364	5.e-002	7.5923
13260	14.774	5.3636	0.	2104.2
13261	14.682	5.4545	0.	2128.1
13262	14.774	5.4545	5.e-002	8.097
13263	14.774	5.1818	0.	2103.2
13264	14.682	5.2727	0.	2127.
13265	14.774	5.2727	5.e-002	8.132
13266	14.774	5.	0.	2102.4
13267	14.682	5.0909	0.	2126.1
13268	14.774	5.0909	5.e-002	8.1363
13269	14.774	4.8182	0.	2101.6
13270	14.682	4.9091	0.	2125.3
13271	14.774	4.9091	5.e-002	8.1384
13272	14.774	4.6364	0.	2100.9
13273	14.682	4.7273	0.	2124.5
13274	14.774	4.7273	5.e-002	8.1401
13275	14.774	4.4545	0.	2100.4
13276	14.682	4.5455	0.	2123.9
13277	14.774	4.5455	5.e-002	8.1417
13278	14.774	4.2727	0.	2099.9
13279	14.682	4.3636	0.	2123.3
13280	14.774	4.3636	5.e-002	8.143
13281	14.774	4.0909	0.	2099.4
13282	14.682	4.1818	0.	2122.8
13283	14.774	4.1818	5.e-002	8.1442
13284	14.774	3.9091	0.	2099.1
13285	14.682	4.	0.	2122.4
13286	14.774	4.	5.e-002	8.1452
13287	14.774	3.7273	0.	2098.8
13288	14.682	3.8182	0.	2122.1
13289	14.774	3.8182	5.e-002	8.1461
13290	14.774	3.5455	0.	2098.6
13291	14.682	3.6364	0.	2121.8
13292	14.774	3.6364	5.e-002	8.1467
13293	14.774	3.3636	0.	2098.4
13294	14.682	3.4545	0.	2121.6
13295	14.774	3.4545	5.e-002	8.1472
13296	14.774	3.1818	0.	2098.3
13297	14.682	3.2727	0.	2121.5
13298	14.774	3.2727	5.e-002	8.1476
13299	14.774	3.	0.	2098.3
13300	14.682	3.0909	0.	2121.4
13301	14.774	3.0909	5.e-002	8.1477
13302	14.774	2.8182	0.	2098.3
13303	14.682	2.9091	0.	2121.4
13304	14.774	2.9091	5.e-002	8.1477
13305	14.774	2.6364	0.	2098.4
13306	14.682	2.7273	0.	2121.5
13307	14.774	2.7273	5.e-002	8.1476
13308	14.774	2.4545	0.	2098.6
13309	14.682	2.5455	0.	2121.6
13310	14.774	2.5455	5.e-002	8.1472
13311	14.774	2.2727	0.	2098.8
13312	14.682	2.3636	0.	2121.8
13313	14.774	2.3636	5.e-002	8.1467
13314	14.774	2.0909	0.	2099.1
13315	14.682	2.1818	0.	2122.1
13316	14.774	2.1818	5.e-002	8.1461
13317	14.774	1.9091	0.	2099.4
13318	14.682	2.	0.	2122.4
13319	14.774	2.	5.e-002	8.1452
13320	14.774	1.7273	0.	2099.9
13321	14.682	1.8182	0.	2122.8
13322	14.774	1.8182	5.e-002	8.1442
13323	14.774	1.5455	0.	2100.4
13324	14.682	1.6364	0.	2123.3
13325	14.774	1.6364	5.e-002	8.143
13326	14.774	1.3636	0.	2100.9
13327	14.682	1.4545	0.	2123.9
13328	14.774	1.4545	5.e-002	8.1417
13329	14.774	1.1818	0.	2101.6
13330	14.682	1.2727	0.	2124.5
13331	14.774	1.2727	5.e-002	8.1401
13332	14.774	1.	0.	2102.4
13333	14.682	1.0909	0.	2125.3
13334	14.774	1.0909	5.e-002	8.1384
13335	14.774	0.81818	0.	2103.2
13336	14.682	0.90909	0.	2126.1
13337	14.774	0.90909	5.e-002	8.1363
13338	14.774	0.63636	0.	2104.2
13339	14.682	0.72727	0.	2127.
13340	14.774	0.72727	5.e-002	8.132
13341	14.774	0.45455	0.	2105.4
13342	14.682	0.54545	0.	2128.1
13343	14.774	0.54545	5.e-002	8.097
13344	14.774	0.27273	0.	2107.9
13345	14.682	0.36364	0.	2129.4
13346	14.774	0.36364	5.e-002	7.5923
13347	14.682	0.18182	0.	2133.4
13348	14.774	0.18182	5.e-002	0.28219
13349	14.774	9.0909e-002	0.	2101.9
13350	14.59	5.7273	0.	2154.7
13351	14.497	5.8182	0.	2180.3
13352	14.59	5.8182	5.e-002	0.27157
13353	14.59	5.9091	0.	2148.8
13354	14.59	5.5455	0.	2152.1
13355	14.497	5.6364	0.	2176.3
13356	14.59	5.6364	5.e-002	7.623
13357	14.59	5.3636	0.	2150.9
13358	14.497	5.4545	0.	2174.9
13359	14.59	5.4545	5.e-002	8.1303
13360	14.59	5.1818	0.	2149.8
13361	14.497	5.2727	0.	2173.8
13362	14.59	5.2727	5.e-002	8.1655
13363	14.59	5.	0.	2148.9
13364	14.497	5.0909	0.	2172.8
13365	14.59	5.0909	5.e-002	8.1698
13366	14.59	4.8182	0.	2148.1
13367	14.497	4.9091	0.	2171.9
13368	14.59	4.9091	5.e-002	8.1719
13369	14.59	4.6364	0.	2147.4
13370	14.497	4.7273	0.	2171.1
13371	14.59	4.7273	5.e-002	8.1737
13372	14.59	4.4545	0.	2146.7
13373	14.497	4.5455	0.	2170.4
13374	14.59	4.5455	5.e-002	8.1753
13375	14.59	4.2727	0.	2146.2
13376	14.497	4.3636	0.	2169.8
13377	14.59	4.3636	5.e-002	8.1767
13378	14.59	4.0909	0.	2145.7
13379	14.497	4.1818	0.	2169.2
13380	14.59	4.1818	5.e-002	8.1779
13381	14.59	3.9091	0.	2145.3
13382	14.497	4.	0.	2168.8
13383	14.59	4.	5.e-002	8.1789
13384	14.59	3.7273	0.	2145.
13385	14.497	3.8182	0.	2168.4
13386	14.59	3.8182	5.e-002	8.1798
13387	14.59	3.5455	0.	2144.8
13388	14.497	3.6364	0.	2168.1
13389	14.59	3.6364	5.e-002	8.1805
13390	14.59	3.3636	0.	2144.6
13391	14.497	3.4545	0.	2167.9
13392	14.59	3.4545	5.e-002	8.181
13393	14.59	3.1818	0.	2144.5
13394	14.497	3.2727	0.	2167.8
13395	14.59	3.2727	5.e-002	8.1813
13396	14.59	3.	0.	2144.5
13397	14.497	3.0909	0.	2167.7
13398	14.59	3.0909	5.e-002	8.1815
13399	14.59	2.8182	0.	2144.5
13400	14.497	2.9091	0.	2167.7
13401	14.59	2.9091	5.e-002	8.1815
13402	14.59	2.6364	0.	2144.6
13403	14.497	2.7273	0.	2167.8
13404	14.59	2.7273	5.e-002	8.1813
13405	14.59	2.4545	0.	2144.8
13406	14.497	2.5455	0.	2167.9
13407	14.59	2.5455	5.e-002	8.181
13408	14.59	2.2727	0.	2145.
13409	14.497	2.3636	0.	2168.1
13410	14.59	2.3636	5.e-002	8.1805
13411	14.59	2.0909	0.	2145.3
13412	14.497	2.1818	0.	2168.4
13413	14.59	2.1818	5.e-002	8.1798
13414	14.59	1.9091	0.	2145.7
13415	14.497	2.	0.	2168.8
13416	14.59	2.	5.e-002	8.1789
13417	14.59	1.7273	0.	2146.2
13418	14.497	1.8182	0.	2169.2
13419	14.59	1.8182	5.e-002	8.1779
13420	14.59	1.5455	0.	2146.7
13421	14.497	1.6364	0.	2169.8
13422	14.59	1.6364	5.e-002	8.1767
13423	14.59	1.3636	0.	2147.4
13424	14.497	1.4545	0.	2170.4
13425	14.59	1.4545	5.e-002	8.1753
13426	14.59	1.1818	0.	2148.1
13427	14.497	1.2727	0.	2171.1
13428	14.59	1.2727	5.e-002	8.1737
13429	14.59	1.	0.	2148.9
13430	14.497	1.0909	0.	2171.9
13431	14.59	1.0909	5.e-002	8.1719
13432	14.59	0.81818	0.	2149.8
13433	14.497	0.90909	0.	2172.8
13434	14.59	0.90909	5.e-002	8.1698
13435	14.59	0.63636	0.	2150.9
13436	14.497	0.72727	0.	2173.8
13437	14.59	0.72727	5.e-002	8.1655
13438	14.59	0.45455	0.	2152.1
13439	14.497	0.54545	0.	2174.9
13440	14.59	0.54545	5.e-002	8.1303
13441	14.59	0.27273	0.	2154.7
13442	14.497	0.36364	0.	2176.3
13443	14.59	0.36364	5.e-002	7.623
13444	14.497	0.18182	0.	2180.3
13445	14.59	0.18182	5.e-002	0.27157
13446	14.59	9.0909e-002	0.	2148.8
13447	14.405	5.7273	0.	2201.7
13448	14.312	5.8182	0.	2227.4
13449	14.405	5.8182	5.e-002	0.26026
13450	14.405	5.9091	0.	2195.9
13451	14.405	5.5455	0.	2199.
13452	14.312	5.6364	0.	2223.3
13453	14.405	5.6364	5.e-002	7.6543
13454	14.405	5.3636	0.	2197.7
13455	14.312	5.4545	0.	2221.9
13456	14.405	5.4545	5.e-002	8.1639
13457	14.405	5.1818	0.	2196.7
13458	14.312	5.2727	0.	2220.7
13459	14.405	5.2727	5.e-002	8.1994
13460	14.405	5.	0.	2195.7
13461	14.312	5.0909	0.	2219.7
13462	14.405	5.0909	5.e-002	8.2037
13463	14.405	4.8182	0.	2194.8
13464	14.312	4.9091	0.	2218.7
13465	14.405	4.9091	5.e-002	8.2059
13466	14.405	4.6364	0.	2194.
13467	14.312	4.7273	0.	2217.8
13468	14.405	4.7273	5.e-002	8.2077
13469	14.405	4.4545	0.	2193.3
13470	14.312	4.5455	0.	2217.1
13471	14.405	4.5455	5.e-002	8.2093
13472	14.405	4.2727	0.	2192.7
13473	14.312	4.3636	0.	2216.4
13474	14.405	4.3636	5.e-002	8.2107
13475	14.405	4.0909	0.	2192.2
13476	14.312	4.1818	0.	2215.9
13477	14.405	4.1818	5.e-002	8.212
13478	14.405	3.9091	0.	2191.8
13479	14.312	4.	0.	2215.4
13480	14.405	4.	5.e-002	8.213
13481	14.405	3.7273	0.	2191.5
13482	14.312	3.8182	0.	2215.
13483	14.405	3.8182	5.e-002	8.2139
13484	14.405	3.5455	0.	2191.2
13485	14.312	3.6364	0.	2214.6
13486	14.405	3.6364	5.e-002	8.2146
13487	14.405	3.3636	0.	2191.
13488	14.312	3.4545	0.	2214.4
13489	14.405	3.4545	5.e-002	8.2152
13490	14.405	3.1818	0.	2190.9
13491	14.312	3.2727	0.	2214.2
13492	14.405	3.2727	5.e-002	8.2155
13493	14.405	3.	0.	2190.9
13494	14.312	3.0909	0.	2214.2
13495	14.405	3.0909	5.e-002	8.2157
13496	14.405	2.8182	0.	2190.9
13497	14.312	2.9091	0.	2214.2
13498	14.405	2.9091	5.e-002	8.2157
13499	14.405	2.6364	0.	2191.
13500	14.312	2.7273	0.	2214.2
13501	14.405	2.7273	5.e-002	8.2155
13502	14.405	2.4545	0.	2191.2
13503	14.312	2.5455	0.	2214.4
13504	14.405	2.5455	5.e-002	8.2152
13505	14.405	2.2727	0.	2191.5
13506	14.312	2.3636	0.	2214.6
13507	14.405	2.3636	5.e-002	8.2146
13508	14.405	2.0909	0.	2191.8
13509	14.312	2.1818	0.	2215.
13510	14.405	2.1818	5.e-002	8.2139
13511	14.405	1.9091	0.	2192.2
13512	14.312	2.	0.	2215.4
13513	14.405	2.	5.e-002	8.213
13514	14.405	1.7273	0.	2192.7
13515	14.312	1.8182	0.	2215.9
13516	14.405	1.8182	5.e-002	8.212
13517	14.405	1.5455	0.	2193.3
13518	14.312	1.6364	0.	2216.4
13519	14.405	1.6364	5.e-002	8.2107
13520	14.405	1.3636	0.	2194.
13521	14.312	1.4545	0.	2217.1
13522	14.405	1.4545	5.e-002	8.2093
13523	14.405	1.1818	0.	2194.8
13524	14.312	1.2727	0.	2217.8
13525	14.405	1.2727	5.e-002	8.2077
13526	14.405	1.	0.	2195.7
13527	14.312	1.0909	0.	2218.7
13528	14.405	1.0909	5.e-002	8.2059
13529	14.405	0.81818	0.	2196.7
13530	14.312	0.90909	0.	2219.7
13531	14.405	0.90909	5.e-002	8.2037
13532	14.405	0.63636	0.	2197.7
13533	14.312	0.72727	0.	2220.7
13534	14.405	0.72727	5.e-002	8.1994
13535	14.405	0.45455	0.	2199.
13536	14.312	0.54545	0.	2221.9
13537	14.405	0.54545	5.e-002	8.1639
13538	14.405	0.27273	0.	2201.7
13539	14.312	0.36364	0.	2223.3
13540	14.405	0.36364	5.e-002	7.6543
13541	14.312	0.18182	0.	2227.4
13542	14.405	0.18182	5.e-002	0.26026
13543	14.405	9.0909e-002	0.	2195.9
13544	14.22	5.7273	0.	2248.8
13545	14.128	5.8182	0.	2274.6
13546	14.22	5.8182	5.e-002	0.24792
13547	14.22	5.9091	0.	2243.2
13548	14.22	5.5455	0.	2246.1
13549	14.128	5.6364	0.	2270.6
13550	14.22	5.6364	5.e-002	7.6862
13551	14.22	5.3636	0.	2244.8
13552	14.128	5.4545	0.	2269.1
13553	14.22	5.4545	5.e-002	8.198
13554	14.22	5.1818	0.	2243.7
13555	14.128	5.2727	0.	2267.8
13556	14.22	5.2727	5.e-002	8.2336
13557	14.22	5.	0.	2242.6
13558	14.128	5.0909	0.	2266.7
13559	14.22	5.0909	5.e-002	8.238
13560	14.22	4.8182	0.	2241.7
13561	14.128	4.9091	0.	2265.7
13562	14.22	4.9091	5.e-002	8.2402
13563	14.22	4.6364	0.	2240.9
13564	14.128	4.7273	0.	2264.8
13565	14.22	4.7273	5.e-002	8.2421
13566	14.22	4.4545	0.	2240.1
13567	14.128	4.5455	0.	2264.
13568	14.22	4.5455	5.e-002	8.2438
13569	14.22	4.2727	0.	2239.5
13570	14.128	4.3636	0.	2263.3
13571	14.22	4.3636	5.e-002	8.2452
13572	14.22	4.0909	0.	2238.9
13573	14.128	4.1818	0.	2262.7
13574	14.22	4.1818	5.e-002	8.2465
13575	14.22	3.9091	0.	2238.5
13576	14.128	4.	0.	2262.1
13577	14.22	4.	5.e-002	8.2476
13578	14.22	3.7273	0.	2238.1
13579	14.128	3.8182	0.	2261.7
13580	14.22	3.8182	5.e-002	8.2485
13581	14.22	3.5455	0.	2237.8
13582	14.128	3.6364	0.	2261.4
13583	14.22	3.6364	5.e-002	8.2493
13584	14.22	3.3636	0.	2237.6
13585	14.128	3.4545	0.	2261.1
13586	14.22	3.4545	5.e-002	8.2498
13587	14.22	3.1818	0.	2237.5
13588	14.128	3.2727	0.	2260.9
13589	14.22	3.2727	5.e-002	8.2502
13590	14.22	3.	0.	2237.4
13591	14.128	3.0909	0.	2260.9
13592	14.22	3.0909	5.e-002	8.2503
13593	14.22	2.8182	0.	2237.5
13594	14.128	2.9091	0.	2260.9
13595	14.22	2.9091	5.e-002	8.2503
13596	14.22	2.6364	0.	2237.6
13597	14.128	2.7273	0.	2260.9
13598	14.22	2.7273	5.e-002	8.2502
13599	14.22	2.4545	0.	2237.8
13600	14.128	2.5455	0.	2261.1
13601	14.22	2.5455	5.e-002	8.2498
13602	14.22	2.2727	0.	2238.1
13603	14.128	2.3636	0.	2261.4
13604	14.22	2.3636	5.e-002	8.2493
13605	14.22	2.0909	0.	2238.5
13606	14.128	2.1818	0.	2261.7
13607	14.22	2.1818	5.e-002	8.2485
13608	14.22	1.9091	0.	2238.9
13609	14.128	2.	0.	2262.1
13610	14.22	2.	5.e-002	8.2476
13611	14.22	1.7273	0.	2239.5
13612	14.128	1.8182	0.	2262.7
13613	14.22	1.8182	5.e-002	8.2465
13614	14.22	1.5455	0.	2240.1
13615	14.128	1.6364	0.	2263.3
13616	14.22	1.6364	5.e-002	8.2452
13617	14.22	1.3636	0.	2240.9
13618	14.128	1.4545	0.	2264.
13619	14.22	1.4545	5.e-002	8.2438
13620	14.22	1.1818	0.	2241.7
13621	14.128	1.2727	0.	2264.8
13622	14.22	1.2727	5.e-002	8.2421
13623	14.22	1.	0.	2242.6
13624	14.128	1.0909	0.	2265.7
13625	14.22	1.0909	5.e-002	8.2402
13626	14.22	0.81818	0.	2243.7
13627	14.128	0.90909	0.	2266.7
13628	14.22	0.90909	5.e-002	8.238
13629	14.22	0.63636	0.	2244.8
13630	14.128	0.72727	0.	2267.8
13631	14.22	0.72727	5.e-002	8.2336
13632	14.22	0.45455	0.	2246.1
13633	14.128	0.54545	0.	2269.1
13634	14.22	0.54545	5.e-002	8.198
13635	14.22	0.27273	0.	2248.8
13636	14.128	0.36364	0.	2270.6
13637	14.22	0.36364	5.e-002	7.6862
13638	14.128	0.18182	0.	2274.6
13639	14.22	0.18182	5.e-002	0.24793
13640	14.22	9.0909e-002	0.	2243.2
13641	14.035	5.7273	0.	2296.2
13642	13.943	5.8182	0.	2322.1
13643	14.035	5.8182	5.e-002	0.23425
13644	14.035	5.9091	0.	2290.7
13645	14.035	5.5455	0.	2293.5
13646	13.943	5.6364	0.	2318.
13647	14.035	5.6364	5.e-002	7.7185
13648	14.035	5.3636	0.	2292.1
13649	13.943	5.4545	0.	2316.5
13650	14.035	5.4545	5.e-002	8.2325
13651	14.035	5.1818	0.	2290.9
13652	13.943	5.2727	0.	2315.2
13653	14.035	5.2727	5.e-002	8.2683
13654	14.035	5.	0.	2289.8
13655	13.943	5.0909	0.	2314.
13656	14.035	5.0909	5.e-002	8.2728
13657	14.035	4.8182	0.	2288.8
13658	13.943	4.9091	0.	2312.9
13659	14.035	4.9091	5.e-002	8.275
13660	14.035	4.6364	0.	2287.9
13661	13.943	4.7273	0.	2312.
13662	14.035	4.7273	5.e-002	8.2769
13663	14.035	4.4545	0.	2287.1
13664	13.943	4.5455	0.	2311.1
13665	14.035	4.5455	5.e-002	8.2787
13666	14.035	4.2727	0.	2286.4
13667	13.943	4.3636	0.	2310.4
13668	14.035	4.3636	5.e-002	8.2802
13669	14.035	4.0909	0.	2285.8
13670	13.943	4.1818	0.	2309.7
13671	14.035	4.1818	5.e-002	8.2815
13672	14.035	3.9091	0.	2285.3
13673	13.943	4.	0.	2309.1
13674	14.035	4.	5.e-002	8.2826
13675	14.035	3.7273	0.	2284.9
13676	13.943	3.8182	0.	2308.7
13677	14.035	3.8182	5.e-002	8.2836
13678	14.035	3.5455	0.	2284.6
13679	13.943	3.6364	0.	2308.3
13680	14.035	3.6364	5.e-002	8.2843
13681	14.035	3.3636	0.	2284.4
13682	13.943	3.4545	0.	2308.
13683	14.035	3.4545	5.e-002	8.2849
13684	14.035	3.1818	0.	2284.3
13685	13.943	3.2727	0.	2307.8
13686	14.035	3.2727	5.e-002	8.2853
13687	14.035	3.	0.	2284.2
13688	13.943	3.0909	0.	2307.7
13689	14.035	3.0909	5.e-002	8.2855
13690	14.035	2.8182	0.	2284.3
13691	13.943	2.9091	0.	2307.7
13692	14.035	2.9091	5.e-002	8.2855
13693	14.035	2.6364	0.	2284.4
13694	13.943	2.7273	0.	2307.8
13695	14.035	2.7273	5.e-002	8.2853
13696	14.035	2.4545	0.	2284.6
13697	13.943	2.5455	0.	2308.
13698	14.035	2.5455	5.e-002	8.2849
13699	14.035	2.2727	0.	2284.9
13700	13.943	2.3636	0.	2308.3
13701	14.035	2.3636	5.e-002	8.2843
13702	14.035	2.0909	0.	2285.3
13703	13.943	2.1818	0.	2308.7
13704	14.035	2.1818	5.e-002	8.2836
13705	14.035	1.9091	0.	2285.8
13706	13.943	2.	0.	2309.1
13707	14.035	2.	5.e-002	8.2826
13708	14.035	1.7273	0.	2286.4
13709	13.943	1.8182	0.	2309.7
13710	14.035	1.8182	5.e-002	8.2815
13711	14.035	1.5455	0.	2287.1
13712	13.943	1.6364	0.	2310.4
13713	14.035	1.6364	5.e-002	8.2802
13714	14.035	1.3636	0.	2287.9
13715	13.943	1.4545	0.	2311.1
13716	14.035	1.4545	5.e-002	8.2787
13717	14.035	1.1818	0.	2288.8
13718	13.943	1.2727	0.	2312.
13719	14.035	1.2727	5.e-002	8.2769
13720	14.035	1.	0.	2289.8
13721	13.943	1.0909	0.	2312.9
13722	14.035	1.0909	5.e-002	8.275
13723	14.035	0.81818	0.	2290.9
13724	13.943	0.90909	0.	2314.
13725	14.035	0.90909	5.e-002	8.2728
13726	14.035	0.63636	0.	2292.1
13727	13.943	0.72727	0.	2315.2
13728	14.035	0.72727	5.e-002	8.2683
13729	14.035	0.45455	0.	2293.5
13730	13.943	0.54545	0.	2316.5
13731	14.035	0.54545	5.e-002	8.2325
13732	14.035	0.27273	0.	2296.2
13733	13.943	0.36364	0.	2318.
13734	14.035	0.36364	5.e-002	7.7185
13735	13.943	0.18182	0.	2322.1
13736	14.035	0.18182	5.e-002	0.23425
13737	14.035	9.0909e-002	0.	2290.7
13738	13.851	5.7273	0.	2343.8
13739	13.758	5.8182	0.	2369.8
13740	13.851	5.8182	5.e-002	0.21897
13741	13.851	5.9091	0.	2338.4
13742	13.851	5.5455	0.	2341.
13743	13.758	5.6364	0.	2365.7
13744	13.851	5.6364	5.e-002	7.7514
13745	13.851	5.3636	0.	2339.5
13746	13.758	5.4545	0.	2364.1
13747	13.851	5.4545	5.e-002	8.2673
13748	13.851	5.1818	0.	2338.3
13749	13.758	5.2727	0.	2362.7
13750	13.851	5.2727	5.e-002	8.3034
13751	13.851	5.	0.	2337.1
13752	13.758	5.0909	0.	2361.5
13753	13.851	5.0909	5.e-002	8.3079
13754	13.851	4.8182	0.	2336.1
13755	13.758	4.9091	0.	2360.3
13756	13.851	4.9091	5.e-002	8.3102
13757	13.851	4.6364	0.	2335.1
13758	13.758	4.7273	0.	2359.3
13759	13.851	4.7273	5.e-002	8.3122
13760	13.851	4.4545	0.	2334.3
13761	13.758	4.5455	0.	2358.4
13762	13.851	4.5455	5.e-002	8.314
13763	13.851	4.2727	0.	2333.6
13764	13.758	4.3636	0.	2357.6
13765	13.851	4.3636	5.e-002	8.3156
13766	13.851	4.0909	0.	2332.9
13767	13.758	4.1818	0.	2356.9
13768	13.851	4.1818	5.e-002	8.3169
13769	13.851	3.9091	0.	2332.4
13770	13.758	4.	0.	2356.3
13771	13.851	4.	5.e-002	8.3181
13772	13.851	3.7273	0.	2332.
13773	13.758	3.8182	0.	2355.8
13774	13.851	3.8182	5.e-002	8.3191
13775	13.851	3.5455	0.	2331.6
13776	13.758	3.6364	0.	2355.4
13777	13.851	3.6364	5.e-002	8.3199
13778	13.851	3.3636	0.	2331.4
13779	13.758	3.4545	0.	2355.1
13780	13.851	3.4545	5.e-002	8.3205
13781	13.851	3.1818	0.	2331.2
13782	13.758	3.2727	0.	2354.9
13783	13.851	3.2727	5.e-002	8.3208
13784	13.851	3.	0.	2331.2
13785	13.758	3.0909	0.	2354.8
13786	13.851	3.0909	5.e-002	8.321
13787	13.851	2.8182	0.	2331.2
13788	13.758	2.9091	0.	2354.8
13789	13.851	2.9091	5.e-002	8.321
13790	13.851	2.6364	0.	2331.4
13791	13.758	2.7273	0.	2354.9
13792	13.851	2.7273	5.e-002	8.3208
13793	13.851	2.4545	0.	2331.6
13794	13.758	2.5455	0.	2355.1
13795	13.851	2.5455	5.e-002	8.3205
13796	13.851	2.2727	0.	2332.
13797	13.758	2.3636	0.	2355.4
13798	13.851	2.3636	5.e-002	8.3199
13799	13.851	2.0909	0.	2332.4
13800	13.758	2.1818	0.	2355.8
13801	13.851	2.1818	5.e-002	8.3191
13802	13.851	1.9091	0.	2332.9
13803	13.758	2.	0.	2356.3
13804	13.851	2.	5.e-002	8.3181
13805	13.851	1.7273	0.	2333.6
13806	13.758	1.8182	0.	2356.9
13807	13.851	1.8182	5.e-002	8.3169
13808	13.851	1.5455	0.	2334.3
13809	13.758	1.6364	0.	2357.6
13810	13.851	1.6364	5.e-002	8.3156
13811	13.851	1.3636	0.	2335.1
13812	13.758	1.4545	0.	2358.4
13813	13.851	1.4545	5.e-002	8.314
13814	13.851	1.1818	0.	2336.1
13815	13.758	1.2727	0.	2359.3
13816	13.851	1.2727	5.e-002	8.3122
13817	13.851	1.	0.	2337.1
13818	13.758	1.0909	0.	2360.3
13819	13.851	1.0909	5.e-002	8.3102
13820	13.851	0.81818	0.	2338.3
13821	13.758	0.90909	0.	2361.5
13822	13.851	0.90909	5.e-002	8.3079
13823	13.851	0.63636	0.	2339.5
13824	13.758	0.72727	0.	2362.7
13825	13.851	0.72727	5.e-002	8.3034
13826	13.851	0.45455	0.	2341.
13827	13.758	0.54545	0.	2364.1
13828	13.851	0.54545	5.e-002	8.2673
13829	13.851	0.27273	0.	2343.8
13830	13.758	0.36364	0.	2365.7
13831	13.851	0.36364	5.e-002	7.7514
13832	13.758	0.18182	0.	2369.8
13833	13.851	0.18182	5.e-002	0.21898
13834	13.851	9.0909e-002	0.	2338.4
13835	13.666	5.7273	0.	2391.5
13836	13.574	5.8182	0.	2417.7
13837	13.666	5.8182	5.e-002	0.20184
13838	13.666	5.9091	0.	2386.3
13839	13.666	5.5455	0.	2388.7
13840	13.574	5.6364	0.	2413.5
13841	13.666	5.6364	5.e-002	7.7848
13842	13.666	5.3636	0.	2387.2
13843	13.574	5.4545	0.	2411.8
13844	13.666	5.4545	5.e-002	8.3026
13845	13.666	5.1818	0.	2385.9
13846	13.574	5.2727	0.	2410.4
13847	13.666	5.2727	5.e-002	8.3388
13848	13.666	5.	0.	2384.7
13849	13.574	5.0909	0.	2409.1
13850	13.666	5.0909	5.e-002	8.3434
13851	13.666	4.8182	0.	2383.5
13852	13.574	4.9091	0.	2407.9
13853	13.666	4.9091	5.e-002	8.3458
13854	13.666	4.6364	0.	2382.6
13855	13.574	4.7273	0.	2406.9
13856	13.666	4.7273	5.e-002	8.3479
13857	13.666	4.4545	0.	2381.7
13858	13.574	4.5455	0.	2405.9
13859	13.666	4.5455	5.e-002	8.3497
13860	13.666	4.2727	0.	2380.9
13861	13.574	4.3636	0.	2405.
13862	13.666	4.3636	5.e-002	8.3514
13863	13.666	4.0909	0.	2380.2
13864	13.574	4.1818	0.	2404.3
13865	13.666	4.1818	5.e-002	8.3528
13866	13.666	3.9091	0.	2379.7
13867	13.574	4.	0.	2403.7
13868	13.666	4.	5.e-002	8.354
13869	13.666	3.7273	0.	2379.2
13870	13.574	3.8182	0.	2403.1
13871	13.666	3.8182	5.e-002	8.3551
13872	13.666	3.5455	0.	2378.8
13873	13.574	3.6364	0.	2402.7
13874	13.666	3.6364	5.e-002	8.3559
13875	13.666	3.3636	0.	2378.6
13876	13.574	3.4545	0.	2402.4
13877	13.666	3.4545	5.e-002	8.3565
13878	13.666	3.1818	0.	2378.4
13879	13.574	3.2727	0.	2402.2
13880	13.666	3.2727	5.e-002	8.3569
13881	13.666	3.	0.	2378.4
13882	13.574	3.0909	0.	2402.1
13883	13.666	3.0909	5.e-002	8.3571
13884	13.666	2.8182	0.	2378.4
13885	13.574	2.9091	0.	2402.1
13886	13.666	2.9091	5.e-002	8.3571
13887	13.666	2.6364	0.	2378.6
13888	13.574	2.7273	0.	2402.2
13889	13.666	2.7273	5.e-002	8.3569
13890	13.666	2.4545	0.	2378.8
13891	13.574	2.5455	0.	2402.4
13892	13.666	2.5455	5.e-002	8.3565
13893	13.666	2.2727	0.	2379.2
13894	13.574	2.3636	0.	2402.7
13895	13.666	2.3636	5.e-002	8.3559
13896	13.666	2.0909	0.	2379.7
13897	13.574	2.1818	0.	2403.1
13898	13.666	2.1818	5.e-002	8.3551
13899	13.666	1.9091	0.	2380.2
13900	13.574	2.	0.	2403.7
13901	13.666	2.	5.e-002	8.354
13902	13.666	1.7273	0.	2380.9
13903	13.574	1.8182	0.	2404.3
13904	13.666	1.8182	5.e-002	8.3528
13905	13.666	1.5455	0.	2381.7
13906	13.574	1.6364	0.	2405.
13907	13.666	1.6364	5.e-002	8.3514
13908	13.666	1.3636	0.	2382.6
13909	13.574	1.4545	0.	2405.9
13910	13.666	1.4545	5.e-002	8.3497
13911	13.666	1.1818	0.	2383.5
13912	13.574	1.2727	0.	2406.9
13913	13.666	1.2727	5.e-002	8.3479
13914	13.666	1.	0.	2384.7
13915	13.574	1.0909	0.	2407.9
13916	13.666	1.0909	5.e-002	8.3458
13917	13.666	0.81818	0.	2385.9
13918	13.574	0.90909	0.	2409.1
13919	13.666	0.90909	5.e-002	8.3434
13920	13.666	0.63636	0.	2387.2
13921	13.574	0.72727	0.	2410.4
13922	13.666	0.72727	5.e-002	8.3388
13923	13.666	0.45455	0.	2388.7
13924	13.574	0.54545	0.	2411.8
13925	13.666	0.54545	5.e-002	8.3026
13926	13.666	0.27273	0.	2391.5
13927	13.574	0.36364	0.	2413.5
13928	13.666	0.36364	5.e-002	7.7848
13929	13.574	0.18182	0.	2417.7
13930	13.666	0.18182	5.e-002	0.20184
13931	13.666	9.0909e-002	0.	2386.3
13932	13.481	5.7273	0.	2439.5
13933	13.389	5.8182	0.	2465.7
13934	13.481	5.8182	5.e-002	0.18263
13935	13.481	5.9091	0.	2434.4
13936	13.481	5.5455	0.	2436.6
13937	13.389	5.6364	0.	2461.5
13938	13.481	5.6364	5.e-002	7.8187
13939	13.481	5.3636	0.	2435.
13940	13.389	5.4545	0.	2459.8
13941	13.481	5.4545	5.e-002	8.3382
13942	13.481	5.1818	0.	2433.6
13943	13.389	5.2727	0.	2458.3
13944	13.481	5.2727	5.e-002	8.3746
13945	13.481	5.	0.	2432.4
13946	13.389	5.0909	0.	2457.
13947	13.481	5.0909	5.e-002	8.3794
13948	13.481	4.8182	0.	2431.2
13949	13.389	4.9091	0.	2455.7
13950	13.481	4.9091	5.e-002	8.3819
13951	13.481	4.6364	0.	2430.2
13952	13.389	4.7273	0.	2454.6
13953	13.481	4.7273	5.e-002	8.384
13954	13.481	4.4545	0.	2429.2
13955	13.389	4.5455	0.	2453.6
13956	13.481	4.5455	5.e-002	8.386
13957	13.481	4.2727	0.	2428.4
13958	13.389	4.3636	0.	2452.7
13959	13.481	4.3636	5.e-002	8.3877
13960	13.481	4.0909	0.	2427.7
13961	13.389	4.1818	0.	2451.9
13962	13.481	4.1818	5.e-002	8.3892
13963	13.481	3.9091	0.	2427.1
13964	13.389	4.	0.	2451.2
13965	13.481	4.	5.e-002	8.3904
13966	13.481	3.7273	0.	2426.6
13967	13.389	3.8182	0.	2450.6
13968	13.481	3.8182	5.e-002	8.3915
13969	13.481	3.5455	0.	2426.2
13970	13.389	3.6364	0.	2450.2
13971	13.481	3.6364	5.e-002	8.3923
13972	13.481	3.3636	0.	2425.9
13973	13.389	3.4545	0.	2449.8
13974	13.481	3.4545	5.e-002	8.393
13975	13.481	3.1818	0.	2425.8
13976	13.389	3.2727	0.	2449.6
13977	13.481	3.2727	5.e-002	8.3934
13978	13.481	3.	0.	2425.7
13979	13.389	3.0909	0.	2449.5
13980	13.481	3.0909	5.e-002	8.3936
13981	13.481	2.8182	0.	2425.8
13982	13.389	2.9091	0.	2449.5
13983	13.481	2.9091	5.e-002	8.3936
13984	13.481	2.6364	0.	2425.9
13985	13.389	2.7273	0.	2449.6
13986	13.481	2.7273	5.e-002	8.3934
13987	13.481	2.4545	0.	2426.2
13988	13.389	2.5455	0.	2449.8
13989	13.481	2.5455	5.e-002	8.393
13990	13.481	2.2727	0.	2426.6
13991	13.389	2.3636	0.	2450.2
13992	13.481	2.3636	5.e-002	8.3923
13993	13.481	2.0909	0.	2427.1
13994	13.389	2.1818	0.	2450.6
13995	13.481	2.1818	5.e-002	8.3915
13996	13.481	1.9091	0.	2427.7
13997	13.389	2.	0.	2451.2
13998	13.481	2.	5.e-002	8.3904
13999	13.481	1.7273	0.	2428.4
14000	13.389	1.8182	0.	2451.9
14001	13.481	1.8182	5.e-002	8.3892
14002	13.481	1.5455	0.	2429.2
14003	13.389	1.6364	0.	2452.7
14004	13.481	1.6364	5.e-002	8.3877
14005	13.481	1.3636	0.	2430.2
14006	13.389	1.4545	0.	2453.6
14007	13.481	1.4545	5.e-002	8.386
14008	13.481	1.1818	0.	2431.2
14009	13.389	1.2727	0.	2454.6
14010	13.481	1.2727	5.e-002	8.384
14011	13.481	1.	0.	2432.4
14012	13.389	1.0909	0.	2455.7
14013	13.481	1.0909	5.e-002	8.3819
14014	13.481	0.81818	0.	2433.6
14015	13.389	0.90909	0.	2457.
14016	13.481	0.90909	5.e-002	8.3794
14017	13.481	0.63636	0.	2435.
14018	13.389	0.72727	0.	2458.3
14019	13.481	0.72727	5.e-002	8.3746
14020	13.481	0.45455	0.	2436.6
14021	13.389	0.54545	0.	2459.8
14022	13.481	0.54545	5.e-002	8.3382
14023	13.481	0.27273	0.	2439.5
14024	13.389	0.36364	0.	2461.5
14025	13.481	0.36364	5.e-002	7.8187
14026	13.389	0.18182	0.	2465.7
14027	13.481	0.18182	5.e-002	0.18263
14028	13.481	9.0909e-002	0.	2434.4
14029	13.297	5.7273	0.	2487.6
14030	13.204	5.8182	0.	2514.
14031	13.297	5.8182	5.e-002	0.16113
14032	13.297	5.9091	0.	2482.7
14033	13.297	5.5455	0.	2484.7
14034	13.204	5.6364	0.	2509.8
14035	13.297	5.6364	5.e-002	7.8532
14036	13.297	5.3636	0.	2483.1
14037	13.204	5.4545	0.	2508.
14038	13.297	5.4545	5.e-002	8.3742
14039	13.297	5.1818	0.	2481.6
14040	13.204	5.2727	0.	2506.4
14041	13.297	5.2727	5.e-002	8.4109
14042	13.297	5.	0.	2480.3
14043	13.204	5.0909	0.	2505.
14044	13.297	5.0909	5.e-002	8.4158
14045	13.297	4.8182	0.	2479.1
14046	13.204	4.9091	0.	2503.7
14047	13.297	4.9091	5.e-002	8.4184
14048	13.297	4.6364	0.	2478.
14049	13.204	4.7273	0.	2502.5
14050	13.297	4.7273	5.e-002	8.4206
14051	13.297	4.4545	0.	2477.
14052	13.204	4.5455	0.	2501.4
14053	13.297	4.5455	5.e-002	8.4226
14054	13.297	4.2727	0.	2476.1
14055	13.204	4.3636	0.	2500.5
14056	13.297	4.3636	5.e-002	8.4244
14057	13.297	4.0909	0.	2475.3
14058	13.204	4.1818	0.	2499.6
14059	13.297	4.1818	5.e-002	8.426
14060	13.297	3.9091	0.	2474.7
14061	13.204	4.	0.	2498.9
14062	13.297	4.	5.e-002	8.4273
14063	13.297	3.7273	0.	2474.2
14064	13.204	3.8182	0.	2498.3
14065	13.297	3.8182	5.e-002	8.4284
14066	13.297	3.5455	0.	2473.8
14067	13.204	3.6364	0.	2497.8
14068	13.297	3.6364	5.e-002	8.4293
14069	13.297	3.3636	0.	2473.5
14070	13.204	3.4545	0.	2497.5
14071	13.297	3.4545	5.e-002	8.43
14072	13.297	3.1818	0.	2473.3
14073	13.204	3.2727	0.	2497.2
14074	13.297	3.2727	5.e-002	8.4304
14075	13.297	3.	0.	2473.2
14076	13.204	3.0909	0.	2497.1
14077	13.297	3.0909	5.e-002	8.4306
14078	13.297	2.8182	0.	2473.3
14079	13.204	2.9091	0.	2497.1
14080	13.297	2.9091	5.e-002	8.4306
14081	13.297	2.6364	0.	2473.5
14082	13.204	2.7273	0.	2497.2
14083	13.297	2.7273	5.e-002	8.4304
14084	13.297	2.4545	0.	2473.8
14085	13.204	2.5455	0.	2497.5
14086	13.297	2.5455	5.e-002	8.43
14087	13.297	2.2727	0.	2474.2
14088	13.204	2.3636	0.	2497.8
14089	13.297	2.3636	5.e-002	8.4293
14090	13.297	2.0909	0.	2474.7
14091	13.204	2.1818	0.	2498.3
14092	13.297	2.1818	5.e-002	8.4284
14093	13.297	1.9091	0.	2475.3
14094	13.204	2.	0.	2498.9
14095	13.297	2.	5.e-002	8.4273
14096	13.297	1.7273	0.	2476.1
14097	13.204	1.8182	0.	2499.6
14098	13.297	1.8182	5.e-002	8.426
14099	13.297	1.5455	0.	2477.
14100	13.204	1.6364	0.	2500.5
14101	13.297	1.6364	5.e-002	8.4244
14102	13.297	1.3636	0.	2478.
14103	13.204	1.4545	0.	2501.4
14104	13.297	1.4545	5.e-002	8.4226
14105	13.297	1.1818	0.	2479.1
14106	13.204	1.2727	0.	2502.5
14107	13.297	1.2727	5.e-002	8.4206
14108	13.297	1.	0.	2480.3
14109	13.204	1.0909	0.	2503.7
14110	13.297	1.0909	5.e-002	8.4184
14111	13.297	0.81818	0.	2481.6
14112	13.204	0.90909	0.	2505.
14113	13.297	0.90909	5.e-002	8.4158
14114	13.297	0.63636	0.	2483.1
14115	13.204	0.72727	0.	2506.4
14116	13.297	0.72727	5.e-002	8.4109
14117	13.297	0.45455	0.	2484.7
14118	13.204	0.54545	0.	2508.
14119	13.297	0.54545	5.e-002	8.3742
14120	13.297	0.27273	0.	2487.6
14121	13.204	0.36364	0.	2509.8
14122	13.297	0.36364	5.e-002	7.8532
14123	13.204	0.18182	0.	2514.
14124	13.297	0.18182	5.e-002	0.16113
14125	13.297	9.0909e-002	0.	2482.7
14126	13.112	5.7273	0.	2536.
14127	13.02	5.8182	0.	2562.5
14128	13.112	5.8182	5.e-002	0.13718
14129	13.112	5.9091	0.	2531.3
14130	13.112	5.5455	0.	2533.
14131	13.02	5.6364	0.	2558.2
14132	13.112	5.6364	5.e-002	7.8883
14133	13.112	5.3636	0.	2531.3
14134	13.02	5.4545	0.	2556.4
14135	13.112	5.4545	5.e-002	8.4107
14136	13.112	5.1818	0.	2529.8
14137	13.02	5.2727	0.	2554.7
14138	13.112	5.2727	5.e-002	8.4476
14139	13.112	5.	0.	2528.4
14140	13.02	5.0909	0.	2553.2
14141	13.112	5.0909	5.e-002	8.4526
14142	13.112	4.8182	0.	2527.1
14143	13.02	4.9091	0.	2551.9
14144	13.112	4.9091	5.e-002	8.4553
14145	13.112	4.6364	0.	2525.9
14146	13.02	4.7273	0.	2550.6
14147	13.112	4.7273	5.e-002	8.4577
14148	13.112	4.4545	0.	2524.9
14149	13.02	4.5455	0.	2549.5
14150	13.112	4.5455	5.e-002	8.4598
14151	13.112	4.2727	0.	2524.
14152	13.02	4.3636	0.	2548.5
14153	13.112	4.3636	5.e-002	8.4616
14154	13.112	4.0909	0.	2523.2
14155	13.02	4.1818	0.	2547.6
14156	13.112	4.1818	5.e-002	8.4633
14157	13.112	3.9091	0.	2522.5
14158	13.02	4.	0.	2546.8
14159	13.112	4.	5.e-002	8.4647
14160	13.112	3.7273	0.	2521.9
14161	13.02	3.8182	0.	2546.2
14162	13.112	3.8182	5.e-002	8.4659
14163	13.112	3.5455	0.	2521.5
14164	13.02	3.6364	0.	2545.6
14165	13.112	3.6364	5.e-002	8.4668
14166	13.112	3.3636	0.	2521.2
14167	13.02	3.4545	0.	2545.3
14168	13.112	3.4545	5.e-002	8.4675
14169	13.112	3.1818	0.	2521.
14170	13.02	3.2727	0.	2545.
14171	13.112	3.2727	5.e-002	8.4679
14172	13.112	3.	0.	2520.9
14173	13.02	3.0909	0.	2544.9
14174	13.112	3.0909	5.e-002	8.4682
14175	13.112	2.8182	0.	2521.
14176	13.02	2.9091	0.	2544.9
14177	13.112	2.9091	5.e-002	8.4682
14178	13.112	2.6364	0.	2521.2
14179	13.02	2.7273	0.	2545.
14180	13.112	2.7273	5.e-002	8.4679
14181	13.112	2.4545	0.	2521.5
14182	13.02	2.5455	0.	2545.3
14183	13.112	2.5455	5.e-002	8.4675
14184	13.112	2.2727	0.	2521.9
14185	13.02	2.3636	0.	2545.6
14186	13.112	2.3636	5.e-002	8.4668
14187	13.112	2.0909	0.	2522.5
14188	13.02	2.1818	0.	2546.2
14189	13.112	2.1818	5.e-002	8.4659
14190	13.112	1.9091	0.	2523.2
14191	13.02	2.	0.	2546.8
14192	13.112	2.	5.e-002	8.4647
14193	13.112	1.7273	0.	2524.
14194	13.02	1.8182	0.	2547.6
14195	13.112	1.8182	5.e-002	8.4633
14196	13.112	1.5455	0.	2524.9
14197	13.02	1.6364	0.	2548.5
14198	13.112	1.6364	5.e-002	8.4616
14199	13.112	1.3636	0.	2525.9
14200	13.02	1.4545	0.	2549.5
14201	13.112	1.4545	5.e-002	8.4598
14202	13.112	1.1818	0.	2527.1
14203	13.02	1.2727	0.	2550.6
14204	13.112	1.2727	5.e-002	8.4577
14205	13.112	1.	0.	2528.4
14206	13.02	1.0909	0.	2551.9
14207	13.112	1.0909	5.e-002	8.4553
14208	13.112	0.81818	0.	2529.8
14209	13.02	0.90909	0.	2553.2
14210	13.112	0.90909	5.e-002	8.4526
14211	13.112	0.63636	0.	2531.3
14212	13.02	0.72727	0.	2554.7
14213	13.112	0.72727	5.e-002	8.4476
14214	13.112	0.45455	0.	2533.
14215	13.02	0.54545	0.	2556.4
14216	13.112	0.54545	5.e-002	8.4107
14217	13.112	0.27273	0.	2536.
14218	13.02	0.36364	0.	2558.2
14219	13.112	0.36364	5.e-002	7.8883
14220	13.02	0.18182	0.	2562.5
14221	13.112	0.18182	5.e-002	0.13718
14222	13.112	9.0909e-002	0.	2531.3
14223	12.927	5.7273	0.	2584.5
14224	12.835	5.8182	0.	2611.2
14225	12.927	5.8182	5.e-002	0.11066
14226	12.927	5.9091	0.	2580.
14227	12.927	5.5455	0.	2581.5
14228	12.835	5.6364	0.	2606.9
14229	12.927	5.6364	5.e-002	7.924
14230	12.927	5.3636	0.	2579.7
14231	12.835	5.4545	0.	2604.9
14232	12.927	5.4545	5.e-002	8.4476
14233	12.927	5.1818	0.	2578.2
14234	12.835	5.2727	0.	2603.2
14235	12.927	5.2727	5.e-002	8.4848
14236	12.927	5.	0.	2576.7
14237	12.835	5.0909	0.	2601.7
14238	12.927	5.0909	5.e-002	8.4899
14239	12.927	4.8182	0.	2575.3
14240	12.835	4.9091	0.	2600.2
14241	12.927	4.9091	5.e-002	8.4928
14242	12.927	4.6364	0.	2574.1
14243	12.835	4.7273	0.	2598.9
14244	12.927	4.7273	5.e-002	8.4953
14245	12.927	4.4545	0.	2573.
14246	12.835	4.5455	0.	2597.7
14247	12.927	4.5455	5.e-002	8.4975
14248	12.927	4.2727	0.	2572.
14249	12.835	4.3636	0.	2596.6
14250	12.927	4.3636	5.e-002	8.4994
14251	12.927	4.0909	0.	2571.2
14252	12.835	4.1818	0.	2595.7
14253	12.927	4.1818	5.e-002	8.5012
14254	12.927	3.9091	0.	2570.4
14255	12.835	4.	0.	2594.9
14256	12.927	4.	5.e-002	8.5026
14257	12.927	3.7273	0.	2569.8
14258	12.835	3.8182	0.	2594.2
14259	12.927	3.8182	5.e-002	8.5039
14260	12.927	3.5455	0.	2569.4
14261	12.835	3.6364	0.	2593.6
14262	12.927	3.6364	5.e-002	8.5048
14263	12.927	3.3636	0.	2569.
14264	12.835	3.4545	0.	2593.2
14265	12.927	3.4545	5.e-002	8.5056
14266	12.927	3.1818	0.	2568.8
14267	12.835	3.2727	0.	2592.9
14268	12.927	3.2727	5.e-002	8.5061
14269	12.927	3.	0.	2568.8
14270	12.835	3.0909	0.	2592.8
14271	12.927	3.0909	5.e-002	8.5063
14272	12.927	2.8182	0.	2568.8
14273	12.835	2.9091	0.	2592.8
14274	12.927	2.9091	5.e-002	8.5063
14275	12.927	2.6364	0.	2569.
14276	12.835	2.7273	0.	2592.9
14277	12.927	2.7273	5.e-002	8.5061
14278	12.927	2.4545	0.	2569.4
14279	12.835	2.5455	0.	2593.2
14280	12.927	2.5455	5.e-002	8.5056
14281	12.927	2.2727	0.	2569.8
14282	12.835	2.3636	0.	2593.6
14283	12.927	2.3636	5.e-002	8.5048
14284	12.927	2.0909	0.	2570.4
14285	12.835	2.1818	0.	2594.2
14286	12.927	2.1818	5.e-002	8.5039
14287	12.927	1.9091	0.	2571.2
14288	12.835	2.	0.	2594.9
14289	12.927	2.	5.e-002	8.5026
14290	12.927	1.7273	0.	2572.
14291	12.835	1.8182	0.	2595.7
14292	12.927	1.8182	5.e-002	8.5012
14293	12.927	1.5455	0.	2573.
14294	12.835	1.6364	0.	2596.6
14295	12.927	1.6364	5.e-002	8.4994
14296	12.927	1.3636	0.	2574.1
14297	12.835	1.4545	0.	2597.7
14298	12.927	1.4545	5.e-002	8.4975
14299	12.927	1.1818	0.	2575.3
14300	12.835	1.2727	0.	2598.9
14301	12.927	1.2727	5.e-002	8.4953
14302	12.927	1.	0.	2576.7
14303	12.835	1.0909	0.	2600.2
14304	12.927	1.0909	5.e-002	8.4928
14305	12.927	0.81818	0.	2578.2
14306	12.835	0.90909	0.	2601.7
14307	12.927	0.90909	5.e-002	8.4899
14308	12.927	0.63636	0.	2579.7
14309	12.835	0.72727	0.	2603.2
14310	12.927	0.72727	5.e-002	8.4848
14311	12.927	0.45455	0.	2581.5
14312	12.835	0.54545	0.	2604.9
14313	12.927	0.54545	5.e-002	8.4476
14314	12.927	0.27273	0.	2584.5
14315	12.835	0.36364	0.	2606.9
14316	12.927	0.36364	5.e-002	7.924
14317	12.835	0.18182	0.	2611.2
14318	12.927	0.18182	5.e-002	0.11066
14319	12.927	9.0909e-002	0.	2580.
14320	12.743	5.7273	0.	2633.3
14321	12.65	5.8182	0.	2660.
14322	12.743	5.8182	5.e-002	8.1802e-002
14323	12.743	5.9091	0.	2628.9
14324	12.743	5.5455	0.	2630.2
14325	12.65	5.6364	0.	2655.7
14326	12.743	5.6364	5.e-002	7.9603
14327	12.743	5.3636	0.	2628.4
14328	12.65	5.4545	0.	2653.7
14329	12.743	5.4545	5.e-002	8.485
14330	12.743	5.1818	0.	2626.7
14331	12.65	5.2727	0.	2651.9
14332	12.743	5.2727	5.e-002	8.5223
14333	12.743	5.	0.	2625.2
14334	12.65	5.0909	0.	2650.3
14335	12.743	5.0909	5.e-002	8.5277
14336	12.743	4.8182	0.	2623.7
14337	12.65	4.9091	0.	2648.7
14338	12.743	4.9091	5.e-002	8.5307
14339	12.743	4.6364	0.	2622.4
14340	12.65	4.7273	0.	2647.3
14341	12.743	4.7273	5.e-002	8.5333
14342	12.743	4.4545	0.	2621.3
14343	12.65	4.5455	0.	2646.1
14344	12.743	4.5455	5.e-002	8.5356
14345	12.743	4.2727	0.	2620.2
14346	12.65	4.3636	0.	2644.9
14347	12.743	4.3636	5.e-002	8.5377
14348	12.743	4.0909	0.	2619.3
14349	12.65	4.1818	0.	2643.9
14350	12.743	4.1818	5.e-002	8.5395
14351	12.743	3.9091	0.	2618.6
14352	12.65	4.	0.	2643.1
14353	12.743	4.	5.e-002	8.5411
14354	12.743	3.7273	0.	2617.9
14355	12.65	3.8182	0.	2642.4
14356	12.743	3.8182	5.e-002	8.5424
14357	12.743	3.5455	0.	2617.4
14358	12.65	3.6364	0.	2641.8
14359	12.743	3.6364	5.e-002	8.5434
14360	12.743	3.3636	0.	2617.1
14361	12.65	3.4545	0.	2641.3
14362	12.743	3.4545	5.e-002	8.5442
14363	12.743	3.1818	0.	2616.9
14364	12.65	3.2727	0.	2641.1
14365	12.743	3.2727	5.e-002	8.5447
14366	12.743	3.	0.	2616.8
14367	12.65	3.0909	0.	2640.9
14368	12.743	3.0909	5.e-002	8.5449
14369	12.743	2.8182	0.	2616.9
14370	12.65	2.9091	0.	2640.9
14371	12.743	2.9091	5.e-002	8.5449
14372	12.743	2.6364	0.	2617.1
14373	12.65	2.7273	0.	2641.1
14374	12.743	2.7273	5.e-002	8.5447
14375	12.743	2.4545	0.	2617.4
14376	12.65	2.5455	0.	2641.3
14377	12.743	2.5455	5.e-002	8.5442
14378	12.743	2.2727	0.	2617.9
14379	12.65	2.3636	0.	2641.8
14380	12.743	2.3636	5.e-002	8.5434
14381	12.743	2.0909	0.	2618.6
14382	12.65	2.1818	0.	2642.4
14383	12.743	2.1818	5.e-002	8.5424
14384	12.743	1.9091	0.	2619.3
14385	12.65	2.	0.	2643.1
14386	12.743	2.	5.e-002	8.5411
14387	12.743	1.7273	0.	2620.2
14388	12.65	1.8182	0.	2643.9
14389	12.743	1.8182	5.e-002	8.5395
14390	12.743	1.5455	0.	2621.3
14391	12.65	1.6364	0.	2644.9
14392	12.743	1.6364	5.e-002	8.5377
14393	12.743	1.3636	0.	2622.4
14394	12.65	1.4545	0.	2646.1
14395	12.743	1.4545	5.e-002	8.5356
14396	12.743	1.1818	0.	2623.7
14397	12.65	1.2727	0.	2647.3
14398	12.743	1.2727	5.e-002	8.5333
14399	12.743	1.	0.	2625.2
14400	12.65	1.0909	0.	2648.7
14401	12.743	1.0909	5.e-002	8.5307
14402	12.743	0.81818	0.	2626.7
14403	12.65	0.90909	0.	2650.3
14404	12.743	0.90909	5.e-002	8.5277
14405	12.743	0.63636	0.	2628.4
14406	12.65	0.72727	0.	2651.9
14407	12.743	0.72727	5.e-002	8.5223
14408	12.743	0.45455	0.	2630.2
14409	12.65	0.54545	0.	2653.7
14410	12.743	0.54545	5.e-002	8.485
14411	12.743	0.27273	0.	2633.3
14412	12.65	0.36364	0.	2655.7
14413	12.743	0.36364	5.e-002	7.9603
14414	12.65	0.18182	0.	2660.
14415	12.743	0.18182	5.e-002	8.1806e-002
14416	12.743	9.0909e-002	0.	2628.9
14417	12.558	5.7273	0.	2682.3
14418	12.466	5.8182	0.	2709.1
14419	12.558	5.8182	5.e-002	5.19e-002
14420	12.558	5.9091	0.	2678.
14421	12.558	5.5455	0.	2679.1
14422	12.466	5.6364	0.	2704.7
14423	12.558	5.6364	5.e-002	7.9971
14424	12.558	5.3636	0.	2677.2
14425	12.466	5.4545	0.	2702.6
14426	12.558	5.4545	5.e-002	8.5228
14427	12.558	5.1818	0.	2675.4
14428	12.466	5.2727	0.	2700.8
14429	12.558	5.2727	5.e-002	8.5604
14430	12.558	5.	0.	2673.8
14431	12.466	5.0909	0.	2699.
14432	12.558	5.0909	5.e-002	8.5659
14433	12.558	4.8182	0.	2672.3
14434	12.466	4.9091	0.	2697.4
14435	12.558	4.9091	5.e-002	8.5691
14436	12.558	4.6364	0.	2670.9
14437	12.466	4.7273	0.	2696.
14438	12.558	4.7273	5.e-002	8.5718
14439	12.558	4.4545	0.	2669.7
14440	12.466	4.5455	0.	2694.6
14441	12.558	4.5455	5.e-002	8.5743
14442	12.558	4.2727	0.	2668.6
14443	12.466	4.3636	0.	2693.4
14444	12.558	4.3636	5.e-002	8.5765
14445	12.558	4.0909	0.	2667.7
14446	12.466	4.1818	0.	2692.4
14447	12.558	4.1818	5.e-002	8.5784
14448	12.558	3.9091	0.	2666.8
14449	12.466	4.	0.	2691.5
14450	12.558	4.	5.e-002	8.58
14451	12.558	3.7273	0.	2666.2
14452	12.466	3.8182	0.	2690.7
14453	12.558	3.8182	5.e-002	8.5814
14454	12.558	3.5455	0.	2665.7
14455	12.466	3.6364	0.	2690.1
14456	12.558	3.6364	5.e-002	8.5825
14457	12.558	3.3636	0.	2665.3
14458	12.466	3.4545	0.	2689.6
14459	12.558	3.4545	5.e-002	8.5833
14460	12.558	3.1818	0.	2665.1
14461	12.466	3.2727	0.	2689.3
14462	12.558	3.2727	5.e-002	8.5838
14463	12.558	3.	0.	2665.
14464	12.466	3.0909	0.	2689.2
14465	12.558	3.0909	5.e-002	8.5841
14466	12.558	2.8182	0.	2665.1
14467	12.466	2.9091	0.	2689.2
14468	12.558	2.9091	5.e-002	8.5841
14469	12.558	2.6364	0.	2665.3
14470	12.466	2.7273	0.	2689.3
14471	12.558	2.7273	5.e-002	8.5838
14472	12.558	2.4545	0.	2665.7
14473	12.466	2.5455	0.	2689.6
14474	12.558	2.5455	5.e-002	8.5833
14475	12.558	2.2727	0.	2666.2
14476	12.466	2.3636	0.	2690.1
14477	12.558	2.3636	5.e-002	8.5825
14478	12.558	2.0909	0.	2666.8
14479	12.466	2.1818	0.	2690.7
14480	12.558	2.1818	5.e-002	8.5814
14481	12.558	1.9091	0.	2667.7
14482	12.466	2.	0.	2691.5
14483	12.558	2.	5.e-002	8.58
14484	12.558	1.7273	0.	2668.6
14485	12.466	1.8182	0.	2692.4
14486	12.558	1.8182	5.e-002	8.5784
14487	12.558	1.5455	0.	2669.7
14488	12.466	1.6364	0.	2693.4
14489	12.558	1.6364	5.e-002	8.5765
14490	12.558	1.3636	0.	2670.9
14491	12.466	1.4545	0.	2694.6
14492	12.558	1.4545	5.e-002	8.5743
14493	12.558	1.1818	0.	2672.3
14494	12.466	1.2727	0.	2696.
14495	12.558	1.2727	5.e-002	8.5718
14496	12.558	1.	0.	2673.8
14497	12.466	1.0909	0.	2697.4
14498	12.558	1.0909	5.e-002	8.5691
14499	12.558	0.81818	0.	2675.4
14500	12.466	0.90909	0.	2699.
14501	12.558	0.90909	5.e-002	8.5659
14502	12.558	0.63636	0.	2677.2
14503	12.466	0.72727	0.	2700.8
14504	12.558	0.72727	5.e-002	8.5604
14505	12.558	0.45455	0.	2679.1
14506	12.466	0.54545	0.	2702.6
14507	12.558	0.54545	5.e-002	8.5228
14508	12.558	0.27273	0.	2682.3
14509	12.466	0.36364	0.	2704.7
14510	12.558	0.36364	5.e-002	7.9971
14511	12.466	0.18182	0.	2709.1
14512	12.558	0.18182	5.e-002	5.1898e-002
14513	12.558	9.0909e-002	0.	2678.
14514	12.373	5.7273	0.	2731.4
14515	12.281	5.8182	0.	2758.4
14516	12.373	5.8182	5.e-002	3.0375e-002
14517	12.373	5.9091	0.	2727.4
14518	12.373	5.5455	0.	2728.2
14519	12.281	5.6364	0.	2754.
14520	12.373	5.6364	5.e-002	8.0347
14521	12.373	5.3636	0.	2726.2
14522	12.281	5.4545	0.	2751.8
14523	12.373	5.4545	5.e-002	8.5611
14524	12.373	5.1818	0.	2724.4
14525	12.281	5.2727	0.	2749.8
14526	12.373	5.2727	5.e-002	8.5989
14527	12.373	5.	0.	2722.6
14528	12.281	5.0909	0.	2748.
14529	12.373	5.0909	5.e-002	8.6047
14530	12.373	4.8182	0.	2721.1
14531	12.281	4.9091	0.	2746.3
14532	12.373	4.9091	5.e-002	8.608
14533	12.373	4.6364	0.	2719.6
14534	12.281	4.7273	0.	2744.8
14535	12.373	4.7273	5.e-002	8.6109
14536	12.373	4.4545	0.	2718.3
14537	12.281	4.5455	0.	2743.4
14538	12.373	4.5455	5.e-002	8.6136
14539	12.373	4.2727	0.	2717.2
14540	12.281	4.3636	0.	2742.1
14541	12.373	4.3636	5.e-002	8.6159
14542	12.373	4.0909	0.	2716.2
14543	12.281	4.1818	0.	2741.
14544	12.373	4.1818	5.e-002	8.6179
14545	12.373	3.9091	0.	2715.3
14546	12.281	4.	0.	2740.
14547	12.373	4.	5.e-002	8.6196
14548	12.373	3.7273	0.	2714.6
14549	12.281	3.8182	0.	2739.2
14550	12.373	3.8182	5.e-002	8.6211
14551	12.373	3.5455	0.	2714.
14552	12.281	3.6364	0.	2738.6
14553	12.373	3.6364	5.e-002	8.6222
14554	12.373	3.3636	0.	2713.6
14555	12.281	3.4545	0.	2738.1
14556	12.373	3.4545	5.e-002	8.6231
14557	12.373	3.1818	0.	2713.4
14558	12.281	3.2727	0.	2737.7
14559	12.373	3.2727	5.e-002	8.6236
14560	12.373	3.	0.	2713.3
14561	12.281	3.0909	0.	2737.6
14562	12.373	3.0909	5.e-002	8.6239
14563	12.373	2.8182	0.	2713.4
14564	12.281	2.9091	0.	2737.6
14565	12.373	2.9091	5.e-002	8.6239
14566	12.373	2.6364	0.	2713.6
14567	12.281	2.7273	0.	2737.7
14568	12.373	2.7273	5.e-002	8.6236
14569	12.373	2.4545	0.	2714.
14570	12.281	2.5455	0.	2738.1
14571	12.373	2.5455	5.e-002	8.6231
14572	12.373	2.2727	0.	2714.6
14573	12.281	2.3636	0.	2738.6
14574	12.373	2.3636	5.e-002	8.6222
14575	12.373	2.0909	0.	2715.3
14576	12.281	2.1818	0.	2739.2
14577	12.373	2.1818	5.e-002	8.6211
14578	12.373	1.9091	0.	2716.2
14579	12.281	2.	0.	2740.
14580	12.373	2.	5.e-002	8.6196
14581	12.373	1.7273	0.	2717.2
14582	12.281	1.8182	0.	2741.
14583	12.373	1.8182	5.e-002	8.6179
14584	12.373	1.5455	0.	2718.3
14585	12.281	1.6364	0.	2742.1
14586	12.373	1.6364	5.e-002	8.6159
14587	12.373	1.3636	0.	2719.6
14588	12.281	1.4545	0.	2743.4
14589	12.373	1.4545	5.e-002	8.6136
14590	12.373	1.1818	0.	2721.1
14591	12.281	1.2727	0.	2744.8
14592	12.373	1.2727	5.e-002	8.6109
14593	12.373	1.	0.	2722.6
14594	12.281	1.0909	0.	2746.3
14595	12.373	1.0909	5.e-002	8.608
14596	12.373	0.81818	0.	2724.4
14597	12.281	0.90909	0.	2748.
14598	12.373	0.90909	5.e-002	8.6047
14599	12.373	0.63636	0.	2726.2
14600	12.281	0.72727	0.	2749.8
14601	12.373	0.72727	5.e-002	8.5989
14602	12.373	0.45455	0.	2728.2
14603	12.281	0.54545	0.	2751.8
14604	12.373	0.54545	5.e-002	8.5611
14605	12.373	0.27273	0.	2731.4
14606	12.281	0.36364	0.	2754.
14607	12.373	0.36364	5.e-002	8.0347
14608	12.281	0.18182	0.	2758.4
14609	12.373	0.18182	5.e-002	3.0371e-002
14610	12.373	9.0909e-002	0.	2727.4
14611	12.189	5.7273	0.	2780.8
14612	12.096	5.8182	0.	2807.9
14613	12.189	5.8182	5.e-002	4.7098e-002
14614	12.189	5.9091	0.	2777.
14615	12.189	5.5455	0.	2777.5
14616	12.096	5.6364	0.	2803.4
14617	12.189	5.6364	5.e-002	8.0731
14618	12.189	5.3636	0.	2775.4
14619	12.096	5.4545	0.	2801.1
14620	12.189	5.4545	5.e-002	8.6
14621	12.189	5.1818	0.	2773.5
14622	12.096	5.2727	0.	2799.1
14623	12.189	5.2727	5.e-002	8.6381
14624	12.189	5.	0.	2771.7
14625	12.096	5.0909	0.	2797.2
14626	12.189	5.0909	5.e-002	8.644
14627	12.189	4.8182	0.	2770.
14628	12.096	4.9091	0.	2795.4
14629	12.189	4.9091	5.e-002	8.6476
14630	12.189	4.6364	0.	2768.5
14631	12.096	4.7273	0.	2793.7
14632	12.189	4.7273	5.e-002	8.6507
14633	12.189	4.4545	0.	2767.1
14634	12.096	4.5455	0.	2792.3
14635	12.189	4.5455	5.e-002	8.6534
14636	12.189	4.2727	0.	2765.9
14637	12.096	4.3636	0.	2790.9
14638	12.189	4.3636	5.e-002	8.6559
14639	12.189	4.0909	0.	2764.8
14640	12.096	4.1818	0.	2789.7
14641	12.189	4.1818	5.e-002	8.658
14642	12.189	3.9091	0.	2763.9
14643	12.096	4.	0.	2788.7
14644	12.189	4.	5.e-002	8.6599
14645	12.189	3.7273	0.	2763.1
14646	12.096	3.8182	0.	2787.8
14647	12.189	3.8182	5.e-002	8.6614
14648	12.189	3.5455	0.	2762.5
14649	12.096	3.6364	0.	2787.2
14650	12.189	3.6364	5.e-002	8.6626
14651	12.189	3.3636	0.	2762.1
14652	12.096	3.4545	0.	2786.6
14653	12.189	3.4545	5.e-002	8.6635
14654	12.189	3.1818	0.	2761.9
14655	12.096	3.2727	0.	2786.3
14656	12.189	3.2727	5.e-002	8.6641
14657	12.189	3.	0.	2761.8
14658	12.096	3.0909	0.	2786.1
14659	12.189	3.0909	5.e-002	8.6644
14660	12.189	2.8182	0.	2761.9
14661	12.096	2.9091	0.	2786.1
14662	12.189	2.9091	5.e-002	8.6644
14663	12.189	2.6364	0.	2762.1
14664	12.096	2.7273	0.	2786.3
14665	12.189	2.7273	5.e-002	8.6641
14666	12.189	2.4545	0.	2762.5
14667	12.096	2.5455	0.	2786.6
14668	12.189	2.5455	5.e-002	8.6635
14669	12.189	2.2727	0.	2763.1
14670	12.096	2.3636	0.	2787.2
14671	12.189	2.3636	5.e-002	8.6626
14672	12.189	2.0909	0.	2763.9
14673	12.096	2.1818	0.	2787.8
14674	12.189	2.1818	5.e-002	8.6614
14675	12.189	1.9091	0.	2764.8
14676	12.096	2.	0.	2788.7
14677	12.189	2.	5.e-002	8.6599
14678	12.189	1.7273	0.	2765.9
14679	12.096	1.8182	0.	2789.7
14680	12.189	1.8182	5.e-002	8.658
14681	12.189	1.5455	0.	2767.1
14682	12.096	1.6364	0.	2790.9
14683	12.189	1.6364	5.e-002	8.6559
14684	12.189	1.3636	0.	2768.5
14685	12.096	1.4545	0.	2792.3
14686	12.189	1.4545	5.e-002	8.6534
14687	12.189	1.1818	0.	2770.
14688	12.096	1.2727	0.	2793.7
14689	12.189	1.2727	5.e-002	8.6507
14690	12.189	1.	0.	2771.7
14691	12.096	1.0909	0.	2795.4
14692	12.189	1.0909	5.e-002	8.6476
14693	12.189	0.81818	0.	2773.5
14694	12.096	0.90909	0.	2797.2
14695	12.189	0.90909	5.e-002	8.644
14696	12.189	0.63636	0.	2775.4
14697	12.096	0.72727	0.	2799.1
14698	12.189	0.72727	5.e-002	8.6381
14699	12.189	0.45455	0.	2777.5
14700	12.096	0.54545	0.	2801.1
14701	12.189	0.54545	5.e-002	8.6
14702	12.189	0.27273	0.	2780.8
14703	12.096	0.36364	0.	2803.4
14704	12.189	0.36364	5.e-002	8.0731
14705	12.096	0.18182	0.	2807.9
14706	12.189	0.18182	5.e-002	4.709e-002
14707	12.189	9.0909e-002	0.	2777.
14708	12.004	5.7273	0.	2830.4
14709	11.912	5.8182	0.	2857.6
14710	12.004	5.8182	5.e-002	8.7185e-002
14711	12.004	5.9091	0.	2826.7
14712	12.004	5.5455	0.	2827.
14713	11.912	5.6364	0.	2853.1
14714	12.004	5.6364	5.e-002	8.1122
14715	12.004	5.3636	0.	2824.8
14716	11.912	5.4545	0.	2850.7
14717	12.004	5.4545	5.e-002	8.6394
14718	12.004	5.1818	0.	2822.7
14719	11.912	5.2727	0.	2848.5
14720	12.004	5.2727	5.e-002	8.6778
14721	12.004	5.	0.	2820.9
14722	11.912	5.0909	0.	2846.5
14723	12.004	5.0909	5.e-002	8.684
14724	12.004	4.8182	0.	2819.1
14725	11.912	4.9091	0.	2844.6
14726	12.004	4.9091	5.e-002	8.6878
14727	12.004	4.6364	0.	2817.5
14728	11.912	4.7273	0.	2842.9
14729	12.004	4.7273	5.e-002	8.691
14730	12.004	4.4545	0.	2816.
14731	11.912	4.5455	0.	2841.3
14732	12.004	4.5455	5.e-002	8.694
14733	12.004	4.2727	0.	2814.7
14734	11.912	4.3636	0.	2839.9
14735	12.004	4.3636	5.e-002	8.6966
14736	12.004	4.0909	0.	2813.6
14737	11.912	4.1818	0.	2838.6
14738	12.004	4.1818	5.e-002	8.6989
14739	12.004	3.9091	0.	2812.6
14740	11.912	4.	0.	2837.5
14741	12.004	4.	5.e-002	8.7008
14742	12.004	3.7273	0.	2811.8
14743	11.912	3.8182	0.	2836.6
14744	12.004	3.8182	5.e-002	8.7024
14745	12.004	3.5455	0.	2811.2
14746	11.912	3.6364	0.	2835.9
14747	12.004	3.6364	5.e-002	8.7037
14748	12.004	3.3636	0.	2810.8
14749	11.912	3.4545	0.	2835.3
14750	12.004	3.4545	5.e-002	8.7046
14751	12.004	3.1818	0.	2810.5
14752	11.912	3.2727	0.	2835.
14753	12.004	3.2727	5.e-002	8.7053
14754	12.004	3.	0.	2810.4
14755	11.912	3.0909	0.	2834.8
14756	12.004	3.0909	5.e-002	8.7056
14757	12.004	2.8182	0.	2810.5
14758	11.912	2.9091	0.	2834.8
14759	12.004	2.9091	5.e-002	8.7056
14760	12.004	2.6364	0.	2810.8
14761	11.912	2.7273	0.	2835.
14762	12.004	2.7273	5.e-002	8.7053
14763	12.004	2.4545	0.	2811.2
14764	11.912	2.5455	0.	2835.3
14765	12.004	2.5455	5.e-002	8.7046
14766	12.004	2.2727	0.	2811.8
14767	11.912	2.3636	0.	2835.9
14768	12.004	2.3636	5.e-002	8.7037
14769	12.004	2.0909	0.	2812.6
14770	11.912	2.1818	0.	2836.6
14771	12.004	2.1818	5.e-002	8.7024
14772	12.004	1.9091	0.	2813.6
14773	11.912	2.	0.	2837.5
14774	12.004	2.	5.e-002	8.7008
14775	12.004	1.7273	0.	2814.7
14776	11.912	1.8182	0.	2838.6
14777	12.004	1.8182	5.e-002	8.6989
14778	12.004	1.5455	0.	2816.
14779	11.912	1.6364	0.	2839.9
14780	12.004	1.6364	5.e-002	8.6966
14781	12.004	1.3636	0.	2817.5
14782	11.912	1.4545	0.	2841.3
14783	12.004	1.4545	5.e-002	8.694
14784	12.004	1.1818	0.	2819.1
14785	11.912	1.2727	0.	2842.9
14786	12.004	1.2727	5.e-002	8.691
14787	12.004	1.	0.	2820.9
14788	11.912	1.0909	0.	2844.6
14789	12.004	1.0909	5.e-002	8.6878
14790	12.004	0.81818	0.	2822.7
14791	11.912	0.90909	0.	2846.5
14792	12.004	0.90909	5.e-002	8.684
14793	12.004	0.63636	0.	2824.8
14794	11.912	0.72727	0.	2848.5
14795	12.004	0.72727	5.e-002	8.6778
14796	12.004	0.45455	0.	2827.
14797	11.912	0.54545	0.	2850.7
14798	12.004	0.54545	5.e-002	8.6394
14799	12.004	0.27273	0.	2830.4
14800	11.912	0.36364	0.	2853.1
14801	12.004	0.36364	5.e-002	8.1122
14802	11.912	0.18182	0.	2857.6
14803	12.004	0.18182	5.e-002	8.7177e-002
14804	12.004	9.0909e-002	0.	2826.7
14805	11.819	5.7273	0.	2880.2
14806	11.727	5.8182	0.	2907.6
14807	11.819	5.8182	5.e-002	0.13532
14808	11.819	5.9091	0.	2876.7
14809	11.819	5.5455	0.	2876.7
14810	11.727	5.6364	0.	2902.9
14811	11.819	5.6364	5.e-002	8.1522
14812	11.819	5.3636	0.	2874.4
14813	11.727	5.4545	0.	2900.4
14814	11.819	5.4545	5.e-002	8.6795
14815	11.819	5.1818	0.	2872.2
14816	11.727	5.2727	0.	2898.1
14817	11.819	5.2727	5.e-002	8.7181
14818	11.819	5.	0.	2870.2
14819	11.727	5.0909	0.	2896.
14820	11.819	5.0909	5.e-002	8.7246
14821	11.819	4.8182	0.	2868.4
14822	11.727	4.9091	0.	2894.
14823	11.819	4.9091	5.e-002	8.7286
14824	11.819	4.6364	0.	2866.7
14825	11.727	4.7273	0.	2892.2
14826	11.819	4.7273	5.e-002	8.7321
14827	11.819	4.4545	0.	2865.1
14828	11.727	4.5455	0.	2890.5
14829	11.819	4.5455	5.e-002	8.7352
14830	11.819	4.2727	0.	2863.7
14831	11.727	4.3636	0.	2889.
14832	11.819	4.3636	5.e-002	8.738
14833	11.819	4.0909	0.	2862.5
14834	11.727	4.1818	0.	2887.7
14835	11.819	4.1818	5.e-002	8.7404
14836	11.819	3.9091	0.	2861.5
14837	11.727	4.	0.	2886.5
14838	11.819	4.	5.e-002	8.7424
14839	11.819	3.7273	0.	2860.7
14840	11.727	3.8182	0.	2885.6
14841	11.819	3.8182	5.e-002	8.7441
14842	11.819	3.5455	0.	2860.
14843	11.727	3.6364	0.	2884.8
14844	11.819	3.6364	5.e-002	8.7455
14845	11.819	3.3636	0.	2859.5
14846	11.727	3.4545	0.	2884.2
14847	11.819	3.4545	5.e-002	8.7465
14848	11.819	3.1818	0.	2859.2
14849	11.727	3.2727	0.	2883.8
14850	11.819	3.2727	5.e-002	8.7472
14851	11.819	3.	0.	2859.2
14852	11.727	3.0909	0.	2883.6
14853	11.819	3.0909	5.e-002	8.7475
14854	11.819	2.8182	0.	2859.2
14855	11.727	2.9091	0.	2883.6
14856	11.819	2.9091	5.e-002	8.7475
14857	11.819	2.6364	0.	2859.5
14858	11.727	2.7273	0.	2883.8
14859	11.819	2.7273	5.e-002	8.7472
14860	11.819	2.4545	0.	2860.
14861	11.727	2.5455	0.	2884.2
14862	11.819	2.5455	5.e-002	8.7465
14863	11.819	2.2727	0.	2860.7
14864	11.727	2.3636	0.	2884.8
14865	11.819	2.3636	5.e-002	8.7455
14866	11.819	2.0909	0.	2861.5
14867	11.727	2.1818	0.	2885.6
14868	11.819	2.1818	5.e-002	8.7441
14869	11.819	1.9091	0.	2862.5
14870	11.727	2.	0.	2886.5
14871	11.819	2.	5.e-002	8.7424
14872	11.819	1.7273	0.	2863.7
14873	11.727	1.8182	0.	2887.7
14874	11.819	1.8182	5.e-002	8.7404
14875	11.819	1.5455	0.	2865.1
14876	11.727	1.6364	0.	2889.
14877	11.819	1.6364	5.e-002	8.738
14878	11.819	1.3636	0.	2866.7
14879	11.727	1.4545	0.	2890.5
14880	11.819	1.4545	5.e-002	8.7352
14881	11.819	1.1818	0.	2868.4
14882	11.727	1.2727	0.	2892.2
14883	11.819	1.2727	5.e-002	8.7321
14884	11.819	1.	0.	2870.2
14885	11.727	1.0909	0.	2894.
14886	11.819	1.0909	5.e-002	8.7286
14887	11.819	0.81818	0.	2872.2
14888	11.727	0.90909	0.	2896.
14889	11.819	0.90909	5.e-002	8.7246
14890	11.819	0.63636	0.	2874.4
14891	11.727	0.72727	0.	2898.1
14892	11.819	0.72727	5.e-002	8.7181
14893	11.819	0.45455	0.	2876.7
14894	11.727	0.54545	0.	2900.4
14895	11.819	0.54545	5.e-002	8.6795
14896	11.819	0.27273	0.	2880.2
14897	11.727	0.36364	0.	2902.9
14898	11.819	0.36364	5.e-002	8.1522
14899	11.727	0.18182	0.	2907.6
14900	11.819	0.18182	5.e-002	0.13531
14901	11.819	9.0909e-002	0.	2876.7
14902	11.635	5.7273	0.	2930.2
14903	11.542	5.8182	0.	2957.7
14904	11.635	5.8182	5.e-002	0.18934
14905	11.635	5.9091	0.	2926.9
14906	11.635	5.5455	0.	2926.6
14907	11.542	5.6364	0.	2953.
14908	11.635	5.6364	5.e-002	8.1931
14909	11.635	5.3636	0.	2924.1
14910	11.542	5.4545	0.	2950.3
14911	11.635	5.4545	5.e-002	8.7202
14912	11.635	5.1818	0.	2921.9
14913	11.542	5.2727	0.	2947.9
14914	11.635	5.2727	5.e-002	8.7592
14915	11.635	5.	0.	2919.8
14916	11.542	5.0909	0.	2945.7
14917	11.635	5.0909	5.e-002	8.7659
14918	11.635	4.8182	0.	2917.8
14919	11.542	4.9091	0.	2943.6
14920	11.635	4.9091	5.e-002	8.7701
14921	11.635	4.6364	0.	2916.
14922	11.542	4.7273	0.	2941.6
14923	11.635	4.7273	5.e-002	8.7739
14924	11.635	4.4545	0.	2914.4
14925	11.542	4.5455	0.	2939.9
14926	11.635	4.5455	5.e-002	8.7772
14927	11.635	4.2727	0.	2912.9
14928	11.542	4.3636	0.	2938.3
14929	11.635	4.3636	5.e-002	8.7801
14930	11.635	4.0909	0.	2911.6
14931	11.542	4.1818	0.	2936.9
14932	11.635	4.1818	5.e-002	8.7827
14933	11.635	3.9091	0.	2910.5
14934	11.542	4.	0.	2935.6
14935	11.635	4.	5.e-002	8.7848
14936	11.635	3.7273	0.	2909.6
14937	11.542	3.8182	0.	2934.6
14938	11.635	3.8182	5.e-002	8.7866
14939	11.635	3.5455	0.	2908.9
14940	11.542	3.6364	0.	2933.8
14941	11.635	3.6364	5.e-002	8.7881
14942	11.635	3.3636	0.	2908.4
14943	11.542	3.4545	0.	2933.2
14944	11.635	3.4545	5.e-002	8.7891
14945	11.635	3.1818	0.	2908.1
14946	11.542	3.2727	0.	2932.7
14947	11.635	3.2727	5.e-002	8.7898
14948	11.635	3.	0.	2908.
14949	11.542	3.0909	0.	2932.5
14950	11.635	3.0909	5.e-002	8.7902
14951	11.635	2.8182	0.	2908.1
14952	11.542	2.9091	0.	2932.5
14953	11.635	2.9091	5.e-002	8.7902
14954	11.635	2.6364	0.	2908.4
14955	11.542	2.7273	0.	2932.7
14956	11.635	2.7273	5.e-002	8.7898
14957	11.635	2.4545	0.	2908.9
14958	11.542	2.5455	0.	2933.2
14959	11.635	2.5455	5.e-002	8.7891
14960	11.635	2.2727	0.	2909.6
14961	11.542	2.3636	0.	2933.8
14962	11.635	2.3636	5.e-002	8.7881
14963	11.635	2.0909	0.	2910.5
14964	11.542	2.1818	0.	2934.6
14965	11.635	2.1818	5.e-002	8.7866
14966	11.635	1.9091	0.	2911.6
14967	11.542	2.	0.	2935.6
14968	11.635	2.	5.e-002	8.7848
14969	11.635	1.7273	0.	2912.9
14970	11.542	1.8182	0.	2936.9
14971	11.635	1.8182	5.e-002	8.7827
14972	11.635	1.5455	0.	2914.4
14973	11.542	1.6364	0.	2938.3
14974	11.635	1.6364	5.e-002	8.7801
14975	11.635	1.3636	0.	2916.
14976	11.542	1.4545	0.	2939.9
14977	11.635	1.4545	5.e-002	8.7772
14978	11.635	1.1818	0.	2917.8
14979	11.542	1.2727	0.	2941.6
14980	11.635	1.2727	5.e-002	8.7739
14981	11.635	1.	0.	2919.8
14982	11.542	1.0909	0.	2943.6
14983	11.635	1.0909	5.e-002	8.7701
14984	11.635	0.81818	0.	2921.9
14985	11.542	0.90909	0.	2945.7
14986	11.635	0.90909	5.e-002	8.7659
14987	11.635	0.63636	0.	2924.1
14988	11.542	0.72727	0.	2947.9
14989	11.635	0.72727	5.e-002	8.7592
14990	11.635	0.45455	0.	2926.6
14991	11.542	0.54545	0.	2950.3
14992	11.635	0.54545	5.e-002	8.7202
14993	11.635	0.27273	0.	2930.2
14994	11.542	0.36364	0.	2953.
14995	11.635	0.36364	5.e-002	8.1931
14996	11.542	0.18182	0.	2957.7
14997	11.635	0.18182	5.e-002	0.18934
14998	11.635	9.0909e-002	0.	2926.9
14999	11.45	5.7273	0.	2980.4
15000	11.358	5.8182	0.	3008.
15001	11.45	5.8182	5.e-002	0.24906
15002	11.45	5.9091	0.	2977.4
15003	11.45	5.5455	0.	2976.7
15004	11.358	5.6364	0.	3003.2
15005	11.45	5.6364	5.e-002	8.2349
15006	11.45	5.3636	0.	2974.1
15007	11.358	5.4545	0.	3000.4
15008	11.45	5.4545	5.e-002	8.7617
15009	11.45	5.1818	0.	2971.7
15010	11.358	5.2727	0.	2997.9
15011	11.45	5.2727	5.e-002	8.8009
15012	11.45	5.	0.	2969.5
15013	11.358	5.0909	0.	2995.5
15014	11.45	5.0909	5.e-002	8.8079
15015	11.45	4.8182	0.	2967.4
15016	11.358	4.9091	0.	2993.3
15017	11.45	4.9091	5.e-002	8.8125
15018	11.45	4.6364	0.	2965.5
15019	11.358	4.7273	0.	2991.3
15020	11.45	4.7273	5.e-002	8.8164
15021	11.45	4.4545	0.	2963.7
15022	11.358	4.5455	0.	2989.4
15023	11.45	4.5455	5.e-002	8.82
15024	11.45	4.2727	0.	2962.2
15025	11.358	4.3636	0.	2987.7
15026	11.45	4.3636	5.e-002	8.8231
15027	11.45	4.0909	0.	2960.8
15028	11.358	4.1818	0.	2986.2
15029	11.45	4.1818	5.e-002	8.8258
15030	11.45	3.9091	0.	2959.7
15031	11.358	4.	0.	2984.9
15032	11.45	4.	5.e-002	8.8281
15033	11.45	3.7273	0.	2958.7
15034	11.358	3.8182	0.	2983.8
15035	11.45	3.8182	5.e-002	8.83
15036	11.45	3.5455	0.	2958.
15037	11.358	3.6364	0.	2982.9
15038	11.45	3.6364	5.e-002	8.8315
15039	11.45	3.3636	0.	2957.4
15040	11.358	3.4545	0.	2982.2
15041	11.45	3.4545	5.e-002	8.8326
15042	11.45	3.1818	0.	2957.1
15043	11.358	3.2727	0.	2981.8
15044	11.45	3.2727	5.e-002	8.8333
15045	11.45	3.	0.	2957.
15046	11.358	3.0909	0.	2981.6
15047	11.45	3.0909	5.e-002	8.8337
15048	11.45	2.8182	0.	2957.1
15049	11.358	2.9091	0.	2981.6
15050	11.45	2.9091	5.e-002	8.8337
15051	11.45	2.6364	0.	2957.4
15052	11.358	2.7273	0.	2981.8
15053	11.45	2.7273	5.e-002	8.8333
15054	11.45	2.4545	0.	2958.
15055	11.358	2.5455	0.	2982.2
15056	11.45	2.5455	5.e-002	8.8326
15057	11.45	2.2727	0.	2958.7
15058	11.358	2.3636	0.	2982.9
15059	11.45	2.3636	5.e-002	8.8315
15060	11.45	2.0909	0.	2959.7
15061	11.358	2.1818	0.	2983.8
15062	11.45	2.1818	5.e-002	8.83
15063	11.45	1.9091	0.	2960.8
15064	11.358	2.	0.	2984.9
15065	11.45	2.	5.e-002	8.8281
15066	11.45	1.7273	0.	2962.2
15067	11.358	1.8182	0.	2986.2
15068	11.45	1.8182	5.e-002	8.8258
15069	11.45	1.5455	0.	2963.7
15070	11.358	1.6364	0.	2987.7
15071	11.45	1.6364	5.e-002	8.8231
15072	11.45	1.3636	0.	2965.5
15073	11.358	1.4545	0.	2989.4
15074	11.45	1.4545	5.e-002	8.82
15075	11.45	1.1818	0.	2967.4
15076	11.358	1.2727	0.	2991.3
15077	11.45	1.2727	5.e-002	8.8164
15078	11.45	1.	0.	2969.5
15079	11.358	1.0909	0.	2993.3
15080	11.45	1.0909	5.e-002	8.8125
15081	11.45	0.81818	0.	2971.7
15082	11.358	0.90909	0.	2995.5
15083	11.45	0.90909	5.e-002	8.8079
15084	11.45	0.63636	0.	2974.1
15085	11.358	0.72727	0.	2997.9
15086	11.45	0.72727	5.e-002	8.8009
15087	11.45	0.45455	0.	2976.7
15088	11.358	0.54545	0.	3000.4
15089	11.45	0.54545	5.e-002	8.7617
15090	11.45	0.27273	0.	2980.4
15091	11.358	0.36364	0.	3003.2
15092	11.45	0.36364	5.e-002	8.2349
15093	11.358	0.18182	0.	3008.
15094	11.45	0.18182	5.e-002	0.24905
15095	11.45	9.0909e-002	0.	2977.4
15096	11.265	5.7273	0.	3030.8
15097	11.173	5.8182	0.	3058.6
15098	11.265	5.8182	5.e-002	0.31467
15099	11.265	5.9091	0.	3028.
15100	11.265	5.5455	0.	3026.9
15101	11.173	5.6364	0.	3053.7
15102	11.265	5.6364	5.e-002	8.2778
15103	11.265	5.3636	0.	3024.2
15104	11.173	5.4545	0.	3050.7
15105	11.265	5.4545	5.e-002	8.8039
15106	11.265	5.1818	0.	3021.7
15107	11.173	5.2727	0.	3048.1
15108	11.265	5.2727	5.e-002	8.8435
15109	11.265	5.	0.	3019.3
15110	11.173	5.0909	0.	3045.5
15111	11.265	5.0909	5.e-002	8.8508
15112	11.265	4.8182	0.	3017.1
15113	11.173	4.9091	0.	3043.2
15114	11.265	4.9091	5.e-002	8.8556
15115	11.265	4.6364	0.	3015.1
15116	11.173	4.7273	0.	3041.
15117	11.265	4.7273	5.e-002	8.8598
15118	11.265	4.4545	0.	3013.3
15119	11.173	4.5455	0.	3039.
15120	11.265	4.5455	5.e-002	8.8636
15121	11.265	4.2727	0.	3011.6
15122	11.173	4.3636	0.	3037.2
15123	11.265	4.3636	5.e-002	8.8669
15124	11.265	4.0909	0.	3010.2
15125	11.173	4.1818	0.	3035.6
15126	11.265	4.1818	5.e-002	8.8697
15127	11.265	3.9091	0.	3008.9
15128	11.173	4.	0.	3034.2
15129	11.265	4.	5.e-002	8.8722
15130	11.265	3.7273	0.	3007.9
15131	11.173	3.8182	0.	3033.1
15132	11.265	3.8182	5.e-002	8.8742
15133	11.265	3.5455	0.	3007.1
15134	11.173	3.6364	0.	3032.1
15135	11.265	3.6364	5.e-002	8.8758
15136	11.265	3.3636	0.	3006.6
15137	11.173	3.4545	0.	3031.4
15138	11.265	3.4545	5.e-002	8.877
15139	11.265	3.1818	0.	3006.2
15140	11.173	3.2727	0.	3030.9
15141	11.265	3.2727	5.e-002	8.8777
15142	11.265	3.	0.	3006.1
15143	11.173	3.0909	0.	3030.7
15144	11.265	3.0909	5.e-002	8.8781
15145	11.265	2.8182	0.	3006.2
15146	11.173	2.9091	0.	3030.7
15147	11.265	2.9091	5.e-002	8.8781
15148	11.265	2.6364	0.	3006.6
15149	11.173	2.7273	0.	3030.9
15150	11.265	2.7273	5.e-002	8.8777
15151	11.265	2.4545	0.	3007.1
15152	11.173	2.5455	0.	3031.4
15153	11.265	2.5455	5.e-002	8.877
15154	11.265	2.2727	0.	3007.9
15155	11.173	2.3636	0.	3032.1
15156	11.265	2.3636	5.e-002	8.8758
15157	11.265	2.0909	0.	3008.9
15158	11.173	2.1818	0.	3033.1
15159	11.265	2.1818	5.e-002	8.8742
15160	11.265	1.9091	0.	3010.2
15161	11.173	2.	0.	3034.2
15162	11.265	2.	5.e-002	8.8722
15163	11.265	1.7273	0.	3011.6
15164	11.173	1.8182	0.	3035.6
15165	11.265	1.8182	5.e-002	8.8697
15166	11.265	1.5455	0.	3013.3
15167	11.173	1.6364	0.	3037.2
15168	11.265	1.6364	5.e-002	8.8669
15169	11.265	1.3636	0.	3015.1
15170	11.173	1.4545	0.	3039.
15171	11.265	1.4545	5.e-002	8.8636
15172	11.265	1.1818	0.	3017.1
15173	11.173	1.2727	0.	3041.
15174	11.265	1.2727	5.e-002	8.8598
15175	11.265	1.	0.	3019.3
15176	11.173	1.0909	0.	3043.2
15177	11.265	1.0909	5.e-002	8.8556
15178	11.265	0.81818	0.	3021.7
15179	11.173	0.90909	0.	3045.5
15180	11.265	0.90909	5.e-002	8.8508
15181	11.265	0.63636	0.	3024.2
15182	11.173	0.72727	0.	3048.1
15183	11.265	0.72727	5.e-002	8.8435
15184	11.265	0.45455	0.	3026.9
15185	11.173	0.54545	0.	3050.7
15186	11.265	0.54545	5.e-002	8.8039
15187	11.265	0.27273	0.	3030.8
15188	11.173	0.36364	0.	3053.7
15189	11.265	0.36364	5.e-002	8.2778
15190	11.173	0.18182	0.	3058.6
15191	11.265	0.18182	5.e-002	0.31467
15192	11.265	9.0909e-002	0.	3028.
15193	11.081	5.7273	0.	3081.4
15194	10.988	5.8182	0.	3109.4
15195	11.081	5.8182	5.e-002	0.38656
15196	11.081	5.9091	0.	3078.9
15197	11.081	5.5455	0.	3077.4
15198	10.988	5.6364	0.	3104.3
15199	11.081	5.6364	5.e-002	8.3219
15200	11.081	5.3636	0.	3074.5
15201	10.988	5.4545	0.	3101.2
15202	11.081	5.4545	5.e-002	8.847
15203	11.081	5.1818	0.	3071.9
15204	10.988	5.2727	0.	3098.4
15205	11.081	5.2727	5.e-002	8.8869
15206	11.081	5.	0.	3069.4
15207	10.988	5.0909	0.	3095.7
15208	11.081	5.0909	5.e-002	8.8946
15209	11.081	4.8182	0.	3067.
15210	10.988	4.9091	0.	3093.2
15211	11.081	4.9091	5.e-002	8.8997
15212	11.081	4.6364	0.	3064.9
15213	10.988	4.7273	0.	3090.9
15214	11.081	4.7273	5.e-002	8.9042
15215	11.081	4.4545	0.	3062.9
15216	10.988	4.5455	0.	3088.8
15217	11.081	4.5455	5.e-002	8.9082
15218	11.081	4.2727	0.	3061.2
15219	10.988	4.3636	0.	3086.9
15220	11.081	4.3636	5.e-002	8.9116
15221	11.081	4.0909	0.	3059.6
15222	10.988	4.1818	0.	3085.2
15223	11.081	4.1818	5.e-002	8.9147
15224	11.081	3.9091	0.	3058.3
15225	10.988	4.	0.	3083.7
15226	11.081	4.	5.e-002	8.9172
15227	11.081	3.7273	0.	3057.2
15228	10.988	3.8182	0.	3082.5
15229	11.081	3.8182	5.e-002	8.9193
15230	11.081	3.5455	0.	3056.4
15231	10.988	3.6364	0.	3081.5
15232	11.081	3.6364	5.e-002	8.921
15233	11.081	3.3636	0.	3055.8
15234	10.988	3.4545	0.	3080.7
15235	11.081	3.4545	5.e-002	8.9223
15236	11.081	3.1818	0.	3055.4
15237	10.988	3.2727	0.	3080.2
15238	11.081	3.2727	5.e-002	8.9231
15239	11.081	3.	0.	3055.3
15240	10.988	3.0909	0.	3079.9
15241	11.081	3.0909	5.e-002	8.9235
15242	11.081	2.8182	0.	3055.4
15243	10.988	2.9091	0.	3079.9
15244	11.081	2.9091	5.e-002	8.9235
15245	11.081	2.6364	0.	3055.8
15246	10.988	2.7273	0.	3080.2
15247	11.081	2.7273	5.e-002	8.9231
15248	11.081	2.4545	0.	3056.4
15249	10.988	2.5455	0.	3080.7
15250	11.081	2.5455	5.e-002	8.9223
15251	11.081	2.2727	0.	3057.2
15252	10.988	2.3636	0.	3081.5
15253	11.081	2.3636	5.e-002	8.921
15254	11.081	2.0909	0.	3058.3
15255	10.988	2.1818	0.	3082.5
15256	11.081	2.1818	5.e-002	8.9193
15257	11.081	1.9091	0.	3059.6
15258	10.988	2.	0.	3083.7
15259	11.081	2.	5.e-002	8.9172
15260	11.081	1.7273	0.	3061.2
15261	10.988	1.8182	0.	3085.2
15262	11.081	1.8182	5.e-002	8.9147
15263	11.081	1.5455	0.	3062.9
15264	10.988	1.6364	0.	3086.9
15265	11.081	1.6364	5.e-002	8.9116
15266	11.081	1.3636	0.	3064.9
15267	10.988	1.4545	0.	3088.8
15268	11.081	1.4545	5.e-002	8.9082
15269	11.081	1.1818	0.	3067.
15270	10.988	1.2727	0.	3090.9
15271	11.081	1.2727	5.e-002	8.9042
15272	11.081	1.	0.	3069.4
15273	10.988	1.0909	0.	3093.2
15274	11.081	1.0909	5.e-002	8.8997
15275	11.081	0.81818	0.	3071.9
15276	10.988	0.90909	0.	3095.7
15277	11.081	0.90909	5.e-002	8.8946
15278	11.081	0.63636	0.	3074.5
15279	10.988	0.72727	0.	3098.4
15280	11.081	0.72727	5.e-002	8.8869
15281	11.081	0.45455	0.	3077.4
15282	10.988	0.54545	0.	3101.2
15283	11.081	0.54545	5.e-002	8.847
15284	11.081	0.27273	0.	3081.4
15285	10.988	0.36364	0.	3104.3
15286	11.081	0.36364	5.e-002	8.3219
15287	10.988	0.18182	0.	3109.4
15288	11.081	0.18182	5.e-002	0.38656
15289	11.081	9.0909e-002	0.	3078.9
15290	10.896	5.7273	0.	3132.2
15291	10.804	5.8182	0.	3160.4
15292	10.896	5.8182	5.e-002	0.46517
15293	10.896	5.9091	0.	3130.
15294	10.896	5.5455	0.	3128.1
15295	10.804	5.6364	0.	3155.2
15296	10.896	5.6364	5.e-002	8.3672
15297	10.896	5.3636	0.	3125.1
15298	10.804	5.4545	0.	3151.9
15299	10.896	5.4545	5.e-002	8.8911
15300	10.896	5.1818	0.	3122.2
15301	10.804	5.2727	0.	3148.9
15302	10.896	5.2727	5.e-002	8.9312
15303	10.896	5.	0.	3119.6
15304	10.804	5.0909	0.	3146.1
15305	10.896	5.0909	5.e-002	8.9393
15306	10.896	4.8182	0.	3117.1
15307	10.804	4.9091	0.	3143.4
15308	10.896	4.9091	5.e-002	8.9447
15309	10.896	4.6364	0.	3114.8
15310	10.804	4.7273	0.	3141.
15311	10.896	4.7273	5.e-002	8.9495
15312	10.896	4.4545	0.	3112.7
15313	10.804	4.5455	0.	3138.7
15314	10.896	4.5455	5.e-002	8.9537
15315	10.896	4.2727	0.	3110.9
15316	10.804	4.3636	0.	3136.7
15317	10.896	4.3636	5.e-002	8.9574
15318	10.896	4.0909	0.	3109.2
15319	10.804	4.1818	0.	3134.9
15320	10.896	4.1818	5.e-002	8.9606
15321	10.896	3.9091	0.	3107.8
15322	10.804	4.	0.	3133.3
15323	10.896	4.	5.e-002	8.9633
15324	10.896	3.7273	0.	3106.7
15325	10.804	3.8182	0.	3132.
15326	10.896	3.8182	5.e-002	8.9656
15327	10.896	3.5455	0.	3105.8
15328	10.804	3.6364	0.	3130.9
15329	10.896	3.6364	5.e-002	8.9673
15330	10.896	3.3636	0.	3105.1
15331	10.804	3.4545	0.	3130.1
15332	10.896	3.4545	5.e-002	8.9686
15333	10.896	3.1818	0.	3104.7
15334	10.804	3.2727	0.	3129.5
15335	10.896	3.2727	5.e-002	8.9695
15336	10.896	3.	0.	3104.6
15337	10.804	3.0909	0.	3129.3
15338	10.896	3.0909	5.e-002	8.9699
15339	10.896	2.8182	0.	3104.7
15340	10.804	2.9091	0.	3129.3
15341	10.896	2.9091	5.e-002	8.9699
15342	10.896	2.6364	0.	3105.1
15343	10.804	2.7273	0.	3129.5
15344	10.896	2.7273	5.e-002	8.9695
15345	10.896	2.4545	0.	3105.8
15346	10.804	2.5455	0.	3130.1
15347	10.896	2.5455	5.e-002	8.9686
15348	10.896	2.2727	0.	3106.7
15349	10.804	2.3636	0.	3130.9
15350	10.896	2.3636	5.e-002	8.9673
15351	10.896	2.0909	0.	3107.8
15352	10.804	2.1818	0.	3132.
15353	10.896	2.1818	5.e-002	8.9656
15354	10.896	1.9091	0.	3109.2
15355	10.804	2.	0.	3133.3
15356	10.896	2.	5.e-002	8.9633
15357	10.896	1.7273	0.	3110.9
15358	10.804	1.8182	0.	3134.9
15359	10.896	1.8182	5.e-002	8.9606
15360	10.896	1.5455	0.	3112.7
15361	10.804	1.6364	0.	3136.7
15362	10.896	1.6364	5.e-002	8.9574
15363	10.896	1.3636	0.	3114.8
15364	10.804	1.4545	0.	3138.7
15365	10.896	1.4545	5.e-002	8.9537
15366	10.896	1.1818	0.	3117.1
15367	10.804	1.2727	0.	3141.
15368	10.896	1.2727	5.e-002	8.9495
15369	10.896	1.	0.	3119.6
15370	10.804	1.0909	0.	3143.4
15371	10.896	1.0909	5.e-002	8.9447
15372	10.896	0.81818	0.	3122.2
15373	10.804	0.90909	0.	3146.1
15374	10.896	0.90909	5.e-002	8.9393
15375	10.896	0.63636	0.	3125.1
15376	10.804	0.72727	0.	3148.9
15377	10.896	0.72727	5.e-002	8.9312
15378	10.896	0.45455	0.	3128.1
15379	10.804	0.54545	0.	3151.9
15380	10.896	0.54545	5.e-002	8.8911
15381	10.896	0.27273	0.	3132.2
15382	10.804	0.36364	0.	3155.2
15383	10.896	0.36364	5.e-002	8.3672
15384	10.804	0.18182	0.	3160.4
15385	10.896	0.18182	5.e-002	0.46516
15386	10.896	9.0909e-002	0.	3130.
15387	10.711	5.7273	0.	3183.2
15388	10.619	5.8182	0.	3211.6
15389	10.711	5.8182	5.e-002	0.551
15390	10.711	5.9091	0.	3181.3
15391	10.711	5.5455	0.	3179.
15392	10.619	5.6364	0.	3206.2
15393	10.711	5.6364	5.e-002	8.4138
15394	10.711	5.3636	0.	3175.8
15395	10.619	5.4545	0.	3202.8
15396	10.711	5.4545	5.e-002	8.9361
15397	10.711	5.1818	0.	3172.7
15398	10.619	5.2727	0.	3199.6
15399	10.711	5.2727	5.e-002	8.9766
15400	10.711	5.	0.	3169.9
15401	10.619	5.0909	0.	3196.6
15402	10.711	5.0909	5.e-002	8.985
15403	10.711	4.8182	0.	3167.3
15404	10.619	4.9091	0.	3193.8
15405	10.711	4.9091	5.e-002	8.9908
15406	10.711	4.6364	0.	3164.8
15407	10.619	4.7273	0.	3191.2
15408	10.711	4.7273	5.e-002	8.9959
15409	10.711	4.4545	0.	3162.6
15410	10.619	4.5455	0.	3188.7
15411	10.711	4.5455	5.e-002	9.0004
15412	10.711	4.2727	0.	3160.6
15413	10.619	4.3636	0.	3186.6
15414	10.711	4.3636	5.e-002	9.0043
15415	10.711	4.0909	0.	3158.9
15416	10.619	4.1818	0.	3184.6
15417	10.711	4.1818	5.e-002	9.0077
15418	10.711	3.9091	0.	3157.4
15419	10.619	4.	0.	3183.
15420	10.711	4.	5.e-002	9.0105
15421	10.711	3.7273	0.	3156.2
15422	10.619	3.8182	0.	3181.5
15423	10.711	3.8182	5.e-002	9.0129
15424	10.711	3.5455	0.	3155.2
15425	10.619	3.6364	0.	3180.4
15426	10.711	3.6364	5.e-002	9.0147
15427	10.711	3.3636	0.	3154.5
15428	10.619	3.4545	0.	3179.5
15429	10.711	3.4545	5.e-002	9.0161
15430	10.711	3.1818	0.	3154.1
15431	10.619	3.2727	0.	3179.
15432	10.711	3.2727	5.e-002	9.017
15433	10.711	3.	0.	3153.9
15434	10.619	3.0909	0.	3178.7
15435	10.711	3.0909	5.e-002	9.0175
15436	10.711	2.8182	0.	3154.1
15437	10.619	2.9091	0.	3178.7
15438	10.711	2.9091	5.e-002	9.0175
15439	10.711	2.6364	0.	3154.5
15440	10.619	2.7273	0.	3179.
15441	10.711	2.7273	5.e-002	9.017
15442	10.711	2.4545	0.	3155.2
15443	10.619	2.5455	0.	3179.5
15444	10.711	2.5455	5.e-002	9.0161
15445	10.711	2.2727	0.	3156.2
15446	10.619	2.3636	0.	3180.4
15447	10.711	2.3636	5.e-002	9.0147
15448	10.711	2.0909	0.	3157.4
15449	10.619	2.1818	0.	3181.5
15450	10.711	2.1818	5.e-002	9.0129
15451	10.711	1.9091	0.	3158.9
15452	10.619	2.	0.	3183.
15453	10.711	2.	5.e-002	9.0105
15454	10.711	1.7273	0.	3160.6
15455	10.619	1.8182	0.	3184.6
15456	10.711	1.8182	5.e-002	9.0077
15457	10.711	1.5455	0.	3162.6
15458	10.619	1.6364	0.	3186.6
15459	10.711	1.6364	5.e-002	9.0043
15460	10.711	1.3636	0.	3164.8
15461	10.619	1.4545	0.	3188.7
15462	10.711	1.4545	5.e-002	9.0004
15463	10.711	1.1818	0.	3167.3
15464	10.619	1.2727	0.	3191.2
15465	10.711	1.2727	5.e-002	8.9959
15466	10.711	1.	0.	3169.9
15467	10.619	1.0909	0.	3193.8
15468	10.711	1.0909	5.e-002	8.9908
15469	10.711	0.81818	0.	3172.7
15470	10.619	0.90909	0.	3196.6
15471	10.711	0.90909	5.e-002	8.985
15472	10.711	0.63636	0.	3175.8
15473	10.619	0.72727	0.	3199.6
15474	10.711	0.72727	5.e-002	8.9766
15475	10.711	0.45455	0.	3179.
15476	10.619	0.54545	0.	3202.8
15477	10.711	0.54545	5.e-002	8.9361
15478	10.711	0.27273	0.	3183.2
15479	10.619	0.36364	0.	3206.2
15480	10.711	0.36364	5.e-002	8.4138
15481	10.619	0.18182	0.	3211.6
15482	10.711	0.18182	5.e-002	0.55099
15483	10.711	9.0909e-002	0.	3181.3
15484	10.527	5.7273	0.	3234.5
15485	10.434	5.8182	0.	3263.
15486	10.527	5.8182	5.e-002	0.64462
15487	10.527	5.9091	0.	3232.9
15488	10.527	5.5455	0.	3230.
15489	10.434	5.6364	0.	3257.5
15490	10.527	5.6364	5.e-002	8.462
15491	10.527	5.3636	0.	3226.6
15492	10.434	5.4545	0.	3253.9
15493	10.527	5.4545	5.e-002	8.9823
15494	10.527	5.1818	0.	3223.4
15495	10.434	5.2727	0.	3250.5
15496	10.527	5.2727	5.e-002	9.023
15497	10.527	5.	0.	3220.4
15498	10.434	5.0909	0.	3247.3
15499	10.527	5.0909	5.e-002	9.0319
15500	10.527	4.8182	0.	3217.6
15501	10.434	4.9091	0.	3244.3
15502	10.527	4.9091	5.e-002	9.0381
15503	10.527	4.6364	0.	3215.
15504	10.434	4.7273	0.	3241.5
15505	10.527	4.7273	5.e-002	9.0435
15506	10.527	4.4545	0.	3212.7
15507	10.434	4.5455	0.	3238.9
15508	10.527	4.5455	5.e-002	9.0482
15509	10.527	4.2727	0.	3210.5
15510	10.434	4.3636	0.	3236.6
15511	10.527	4.3636	5.e-002	9.0523
15512	10.527	4.0909	0.	3208.7
15513	10.434	4.1818	0.	3234.5
15514	10.527	4.1818	5.e-002	9.0559
15515	10.527	3.9091	0.	3207.1
15516	10.434	4.	0.	3232.7
15517	10.527	4.	5.e-002	9.0589
15518	10.527	3.7273	0.	3205.8
15519	10.434	3.8182	0.	3231.2
15520	10.527	3.8182	5.e-002	9.0614
15521	10.527	3.5455	0.	3204.7
15522	10.434	3.6364	0.	3230.
15523	10.527	3.6364	5.e-002	9.0633
15524	10.527	3.3636	0.	3204.
15525	10.434	3.4545	0.	3229.1
15526	10.527	3.4545	5.e-002	9.0648
15527	10.527	3.1818	0.	3203.5
15528	10.434	3.2727	0.	3228.4
15529	10.527	3.2727	5.e-002	9.0657
15530	10.527	3.	0.	3203.4
15531	10.434	3.0909	0.	3228.1
15532	10.527	3.0909	5.e-002	9.0662
15533	10.527	2.8182	0.	3203.5
15534	10.434	2.9091	0.	3228.1
15535	10.527	2.9091	5.e-002	9.0662
15536	10.527	2.6364	0.	3204.
15537	10.434	2.7273	0.	3228.4
15538	10.527	2.7273	5.e-002	9.0657
15539	10.527	2.4545	0.	3204.7
15540	10.434	2.5455	0.	3229.1
15541	10.527	2.5455	5.e-002	9.0648
15542	10.527	2.2727	0.	3205.8
15543	10.434	2.3636	0.	3230.
15544	10.527	2.3636	5.e-002	9.0633
15545	10.527	2.0909	0.	3207.1
15546	10.434	2.1818	0.	3231.2
15547	10.527	2.1818	5.e-002	9.0614
15548	10.527	1.9091	0.	3208.7
15549	10.434	2.	0.	3232.7
15550	10.527	2.	5.e-002	9.0589
15551	10.527	1.7273	0.	3210.5
15552	10.434	1.8182	0.	3234.5
15553	10.527	1.8182	5.e-002	9.0559
15554	10.527	1.5455	0.	3212.7
15555	10.434	1.6364	0.	3236.6
15556	10.527	1.6364	5.e-002	9.0523
15557	10.527	1.3636	0.	3215.
15558	10.434	1.4545	0.	3238.9
15559	10.527	1.4545	5.e-002	9.0482
15560	10.527	1.1818	0.	3217.6
15561	10.434	1.2727	0.	3241.5
15562	10.527	1.2727	5.e-002	9.0435
15563	10.527	1.	0.	3220.4
15564	10.434	1.0909	0.	3244.3
15565	10.527	1.0909	5.e-002	9.0381
15566	10.527	0.81818	0.	3223.4
15567	10.434	0.90909	0.	3247.3
15568	10.527	0.90909	5.e-002	9.0319
15569	10.527	0.63636	0.	3226.6
15570	10.434	0.72727	0.	3250.5
15571	10.527	0.72727	5.e-002	9.023
15572	10.527	0.45455	0.	3230.
15573	10.434	0.54545	0.	3253.9
15574	10.527	0.54545	5.e-002	8.9823
15575	10.527	0.27273	0.	3234.5
15576	10.434	0.36364	0.	3257.5
15577	10.527	0.36364	5.e-002	8.462
15578	10.434	0.18182	0.	3263.
15579	10.527	0.18182	5.e-002	0.64461
15580	10.527	9.0909e-002	0.	3232.9
15581	10.342	5.7273	0.	3285.9
15582	10.25	5.8182	0.	3314.7
15583	10.342	5.8182	5.e-002	0.74663
15584	10.342	5.9091	0.	3284.7
15585	10.342	5.5455	0.	3281.3
15586	10.25	5.6364	0.	3309.
15587	10.342	5.6364	5.e-002	8.5117
15588	10.342	5.3636	0.	3277.7
15589	10.25	5.4545	0.	3305.1
15590	10.342	5.4545	5.e-002	9.0296
15591	10.342	5.1818	0.	3274.3
15592	10.25	5.2727	0.	3301.5
15593	10.342	5.2727	5.e-002	9.0707
15594	10.342	5.	0.	3271.1
15595	10.25	5.0909	0.	3298.1
15596	10.342	5.0909	5.e-002	9.08
15597	10.342	4.8182	0.	3268.1
15598	10.25	4.9091	0.	3294.9
15599	10.342	4.9091	5.e-002	9.0866
15600	10.342	4.6364	0.	3265.3
15601	10.25	4.7273	0.	3291.9
15602	10.342	4.7273	5.e-002	9.0923
15603	10.342	4.4545	0.	3262.8
15604	10.25	4.5455	0.	3289.2
15605	10.342	4.5455	5.e-002	9.0973
15606	10.342	4.2727	0.	3260.5
15607	10.25	4.3636	0.	3286.7
15608	10.342	4.3636	5.e-002	9.1017
15609	10.342	4.0909	0.	3258.5
15610	10.25	4.1818	0.	3284.5
15611	10.342	4.1818	5.e-002	9.1054
15612	10.342	3.9091	0.	3256.8
15613	10.25	4.	0.	3282.6
15614	10.342	4.	5.e-002	9.1086
15615	10.342	3.7273	0.	3255.4
15616	10.25	3.8182	0.	3280.9
15617	10.342	3.8182	5.e-002	9.1112
15618	10.342	3.5455	0.	3254.3
15619	10.25	3.6364	0.	3279.6
15620	10.342	3.6364	5.e-002	9.1132
15621	10.342	3.3636	0.	3253.5
15622	10.25	3.4545	0.	3278.6
15623	10.342	3.4545	5.e-002	9.1147
15624	10.342	3.1818	0.	3253.
15625	10.25	3.2727	0.	3278.
15626	10.342	3.2727	5.e-002	9.1157
15627	10.342	3.	0.	3252.9
15628	10.25	3.0909	0.	3277.6
15629	10.342	3.0909	5.e-002	9.1162
15630	10.342	2.8182	0.	3253.
15631	10.25	2.9091	0.	3277.6
15632	10.342	2.9091	5.e-002	9.1162
15633	10.342	2.6364	0.	3253.5
15634	10.25	2.7273	0.	3278.
15635	10.342	2.7273	5.e-002	9.1157
15636	10.342	2.4545	0.	3254.3
15637	10.25	2.5455	0.	3278.6
15638	10.342	2.5455	5.e-002	9.1147
15639	10.342	2.2727	0.	3255.4
15640	10.25	2.3636	0.	3279.6
15641	10.342	2.3636	5.e-002	9.1132
15642	10.342	2.0909	0.	3256.8
15643	10.25	2.1818	0.	3280.9
15644	10.342	2.1818	5.e-002	9.1112
15645	10.342	1.9091	0.	3258.5
15646	10.25	2.	0.	3282.6
15647	10.342	2.	5.e-002	9.1086
15648	10.342	1.7273	0.	3260.5
15649	10.25	1.8182	0.	3284.5
15650	10.342	1.8182	5.e-002	9.1054
15651	10.342	1.5455	0.	3262.8
15652	10.25	1.6364	0.	3286.7
15653	10.342	1.6364	5.e-002	9.1017
15654	10.342	1.3636	0.	3265.3
15655	10.25	1.4545	0.	3289.2
15656	10.342	1.4545	5.e-002	9.0973
15657	10.342	1.1818	0.	3268.1
15658	10.25	1.2727	0.	3291.9
15659	10.342	1.2727	5.e-002	9.0923
15660	10.342	1.	0.	3271.1
15661	10.25	1.0909	0.	3294.9
15662	10.342	1.0909	5.e-002	9.0866
15663	10.342	0.81818	0.	3274.3
15664	10.25	0.90909	0.	3298.1
15665	10.342	0.90909	5.e-002	9.08
15666	10.342	0.63636	0.	3277.7
15667	10.25	0.72727	0.	3301.5
15668	10.342	0.72727	5.e-002	9.0707
15669	10.342	0.45455	0.	3281.3
15670	10.25	0.54545	0.	3305.1
15671	10.342	0.54545	5.e-002	9.0296
15672	10.342	0.27273	0.	3285.9
15673	10.25	0.36364	0.	3309.
15674	10.342	0.36364	5.e-002	8.5117
15675	10.25	0.18182	0.	3314.7
15676	10.342	0.18182	5.e-002	0.74662
15677	10.342	9.0909e-002	0.	3284.7
15678	10.157	5.7273	0.	3337.6
15679	10.065	5.8182	0.	3366.6
15680	10.157	5.8182	5.e-002	0.85769
15681	10.157	5.9091	0.	3336.7
15682	10.157	5.5455	0.	3332.8
15683	10.065	5.6364	0.	3360.7
15684	10.157	5.6364	5.e-002	8.5632
15685	10.157	5.3636	0.	3328.9
15686	10.065	5.4545	0.	3356.6
15687	10.157	5.4545	5.e-002	9.0783
15688	10.157	5.1818	0.	3325.3
15689	10.065	5.2727	0.	3352.7
15690	10.157	5.2727	5.e-002	9.1198
15691	10.157	5.	0.	3321.9
15692	10.065	5.0909	0.	3349.1
15693	10.157	5.0909	5.e-002	9.1295
15694	10.157	4.8182	0.	3318.7
15695	10.065	4.9091	0.	3345.6
15696	10.157	4.9091	5.e-002	9.1364
15697	10.157	4.6364	0.	3315.7
15698	10.065	4.7273	0.	3342.5
15699	10.157	4.7273	5.e-002	9.1425
15700	10.157	4.4545	0.	3313.
15701	10.065	4.5455	0.	3339.5
15702	10.157	4.5455	5.e-002	9.1478
15703	10.157	4.2727	0.	3310.6
15704	10.065	4.3636	0.	3336.9
15705	10.157	4.3636	5.e-002	9.1524
15706	10.157	4.0909	0.	3308.5
15707	10.065	4.1818	0.	3334.5
15708	10.157	4.1818	5.e-002	9.1564
15709	10.157	3.9091	0.	3306.6
15710	10.065	4.	0.	3332.5
15711	10.157	4.	5.e-002	9.1597
15712	10.157	3.7273	0.	3305.1
15713	10.065	3.8182	0.	3330.7
15714	10.157	3.8182	5.e-002	9.1624
15715	10.157	3.5455	0.	3303.9
15716	10.065	3.6364	0.	3329.3
15717	10.157	3.6364	5.e-002	9.1645
15718	10.157	3.3636	0.	3303.1
15719	10.065	3.4545	0.	3328.3
15720	10.157	3.4545	5.e-002	9.166
15721	10.157	3.1818	0.	3302.6
15722	10.065	3.2727	0.	3327.6
15723	10.157	3.2727	5.e-002	9.1671
15724	10.157	3.	0.	3302.4
15725	10.065	3.0909	0.	3327.2
15726	10.157	3.0909	5.e-002	9.1676
15727	10.157	2.8182	0.	3302.6
15728	10.065	2.9091	0.	3327.2
15729	10.157	2.9091	5.e-002	9.1676
15730	10.157	2.6364	0.	3303.1
15731	10.065	2.7273	0.	3327.6
15732	10.157	2.7273	5.e-002	9.1671
15733	10.157	2.4545	0.	3303.9
15734	10.065	2.5455	0.	3328.3
15735	10.157	2.5455	5.e-002	9.166
15736	10.157	2.2727	0.	3305.1
15737	10.065	2.3636	0.	3329.3
15738	10.157	2.3636	5.e-002	9.1645
15739	10.157	2.0909	0.	3306.6
15740	10.065	2.1818	0.	3330.7
15741	10.157	2.1818	5.e-002	9.1624
15742	10.157	1.9091	0.	3308.5
15743	10.065	2.	0.	3332.5
15744	10.157	2.	5.e-002	9.1597
15745	10.157	1.7273	0.	3310.6
15746	10.065	1.8182	0.	3334.5
15747	10.157	1.8182	5.e-002	9.1564
15748	10.157	1.5455	0.	3313.
15749	10.065	1.6364	0.	3336.9
15750	10.157	1.6364	5.e-002	9.1524
15751	10.157	1.3636	0.	3315.7
15752	10.065	1.4545	0.	3339.5
15753	10.157	1.4545	5.e-002	9.1478
15754	10.157	1.1818	0.	3318.7
15755	10.065	1.2727	0.	3342.5
15756	10.157	1.2727	5.e-002	9.1425
15757	10.157	1.	0.	3321.9
15758	10.065	1.0909	0.	3345.6
15759	10.157	1.0909	5.e-002	9.1364
15760	10.157	0.81818	0.	3325.3
15761	10.065	0.90909	0.	3349.1
15762	10.157	0.90909	5.e-002	9.1295
15763	10.157	0.63636	0.	3328.9
15764	10.065	0.72727	0.	3352.7
15765	10.157	0.72727	5.e-002	9.1198
15766	10.157	0.45455	0.	3332.8
15767	10.065	0.54545	0.	3356.6
15768	10.157	0.54545	5.e-002	9.0783
15769	10.157	0.27273	0.	3337.6
15770	10.065	0.36364	0.	3360.7
15771	10.157	0.36364	5.e-002	8.5632
15772	10.065	0.18182	0.	3366.6
15773	10.157	0.18182	5.e-002	0.85768
15774	10.157	9.0909e-002	0.	3336.7
15775	9.9726	5.7273	0.	3389.5
15776	9.8802	5.8182	0.	3418.7
15777	9.9726	5.8182	5.e-002	0.97857
15778	9.9726	5.9091	0.	3389.
15779	9.9726	5.5455	0.	3384.4
15780	9.8802	5.6364	0.	3412.6
15781	9.9726	5.6364	5.e-002	8.6167
15782	9.9726	5.3636	0.	3380.3
15783	9.8802	5.4545	0.	3408.2
15784	9.9726	5.4545	5.e-002	9.1285
15785	9.9726	5.1818	0.	3376.5
15786	9.8802	5.2727	0.	3404.1
15787	9.9726	5.2727	5.e-002	9.1703
15788	9.9726	5.	0.	3372.8
15789	9.8802	5.0909	0.	3400.2
15790	9.9726	5.0909	5.e-002	9.1805
15791	9.9726	4.8182	0.	3369.4
15792	9.8802	4.9091	0.	3396.5
15793	9.9726	4.9091	5.e-002	9.1879
15794	9.9726	4.6364	0.	3366.2
15795	9.8802	4.7273	0.	3393.1
15796	9.9726	4.7273	5.e-002	9.1943
15797	9.9726	4.4545	0.	3363.3
15798	9.8802	4.5455	0.	3390.
15799	9.9726	4.5455	5.e-002	9.1999
15800	9.9726	4.2727	0.	3360.8
15801	9.8802	4.3636	0.	3387.1
15802	9.9726	4.3636	5.e-002	9.2047
15803	9.9726	4.0909	0.	3358.5
15804	9.8802	4.1818	0.	3384.6
15805	9.9726	4.1818	5.e-002	9.2088
15806	9.9726	3.9091	0.	3356.5
15807	9.8802	4.	0.	3382.4
15808	9.9726	4.	5.e-002	9.2123
15809	9.9726	3.7273	0.	3354.9
15810	9.8802	3.8182	0.	3380.5
15811	9.9726	3.8182	5.e-002	9.2151
15812	9.9726	3.5455	0.	3353.6
15813	9.8802	3.6364	0.	3379.
15814	9.9726	3.6364	5.e-002	9.2173
15815	9.9726	3.3636	0.	3352.7
15816	9.8802	3.4545	0.	3377.9
15817	9.9726	3.4545	5.e-002	9.2189
15818	9.9726	3.1818	0.	3352.2
15819	9.8802	3.2727	0.	3377.2
15820	9.9726	3.2727	5.e-002	9.22
15821	9.9726	3.	0.	3352.
15822	9.8802	3.0909	0.	3376.8
15823	9.9726	3.0909	5.e-002	9.2205
15824	9.9726	2.8182	0.	3352.2
15825	9.8802	2.9091	0.	3376.8
15826	9.9726	2.9091	5.e-002	9.2205
15827	9.9726	2.6364	0.	3352.7
15828	9.8802	2.7273	0.	3377.2
15829	9.9726	2.7273	5.e-002	9.22
15830	9.9726	2.4545	0.	3353.6
15831	9.8802	2.5455	0.	3377.9
15832	9.9726	2.5455	5.e-002	9.2189
15833	9.9726	2.2727	0.	3354.9
15834	9.8802	2.3636	0.	3379.
15835	9.9726	2.3636	5.e-002	9.2173
15836	9.9726	2.0909	0.	3356.5
15837	9.8802	2.1818	0.	3380.5
15838	9.9726	2.1818	5.e-002	9.2151
15839	9.9726	1.9091	0.	3358.5
15840	9.8802	2.	0.	3382.4
15841	9.9726	2.	5.e-002	9.2123
15842	9.9726	1.7273	0.	3360.8
15843	9.8802	1.8182	0.	3384.6
15844	9.9726	1.8182	5.e-002	9.2088
15845	9.9726	1.5455	0.	3363.3
15846	9.8802	1.6364	0.	3387.1
15847	9.9726	1.6364	5.e-002	9.2047
15848	9.9726	1.3636	0.	3366.2
15849	9.8802	1.4545	0.	3390.
15850	9.9726	1.4545	5.e-002	9.1999
15851	9.9726	1.1818	0.	3369.4
15852	9.8802	1.2727	0.	3393.1
15853	9.9726	1.2727	5.e-002	9.1943
15854	9.9726	1.	0.	3372.8
15855	9.8802	1.0909	0.	3396.5
15856	9.9726	1.0909	5.e-002	9.1879
15857	9.9726	0.81818	0.	3376.5
15858	9.8802	0.90909	0.	3400.2
15859	9.9726	0.90909	5.e-002	9.1805
15860	9.9726	0.63636	0.	3380.3
15861	9.8802	0.72727	0.	3404.1
15862	9.9726	0.72727	5.e-002	9.1703
15863	9.9726	0.45455	0.	3384.4
15864	9.8802	0.54545	0.	3408.2
15865	9.9726	0.54545	5.e-002	9.1285
15866	9.9726	0.27273	0.	3389.5
15867	9.8802	0.36364	0.	3412.6
15868	9.9726	0.36364	5.e-002	8.6167
15869	9.8802	0.18182	0.	3418.7
15870	9.9726	0.18182	5.e-002	0.97856
15871	9.9726	9.0909e-002	0.	3389.
15872	9.7879	5.7273	0.	3441.6
15873	9.6956	5.8182	0.	3471.
15874	9.7879	5.8182	5.e-002	1.1101
15875	9.7879	5.9091	0.	3441.5
15876	9.7879	5.5455	0.	3436.3
15877	9.6956	5.6364	0.	3464.7
15878	9.7879	5.6364	5.e-002	8.6723
15879	9.7879	5.3636	0.	3431.9
15880	9.6956	5.4545	0.	3460.
15881	9.7879	5.4545	5.e-002	9.1804
15882	9.7879	5.1818	0.	3427.8
15883	9.6956	5.2727	0.	3455.6
15884	9.7879	5.2727	5.e-002	9.2224
15885	9.7879	5.	0.	3423.9
15886	9.6956	5.0909	0.	3451.5
15887	9.7879	5.0909	5.e-002	9.2331
15888	9.7879	4.8182	0.	3420.2
15889	9.6956	4.9091	0.	3447.5
15890	9.7879	4.9091	5.e-002	9.2409
15891	9.7879	4.6364	0.	3416.8
15892	9.6956	4.7273	0.	3443.9
15893	9.7879	4.7273	5.e-002	9.2477
15894	9.7879	4.4545	0.	3413.8
15895	9.6956	4.5455	0.	3440.5
15896	9.7879	4.5455	5.e-002	9.2536
15897	9.7879	4.2727	0.	3411.
15898	9.6956	4.3636	0.	3437.5
15899	9.7879	4.3636	5.e-002	9.2587
15900	9.7879	4.0909	0.	3408.5
15901	9.6956	4.1818	0.	3434.8
15902	9.7879	4.1818	5.e-002	9.263
15903	9.7879	3.9091	0.	3406.4
15904	9.6956	4.	0.	3432.4
15905	9.7879	4.	5.e-002	9.2666
15906	9.7879	3.7273	0.	3404.7
15907	9.6956	3.8182	0.	3430.4
15908	9.7879	3.8182	5.e-002	9.2695
15909	9.7879	3.5455	0.	3403.3
15910	9.6956	3.6364	0.	3428.8
15911	9.7879	3.6364	5.e-002	9.2718
15912	9.7879	3.3636	0.	3402.3
15913	9.6956	3.4545	0.	3427.6
15914	9.7879	3.4545	5.e-002	9.2734
15915	9.7879	3.1818	0.	3401.7
15916	9.6956	3.2727	0.	3426.8
15917	9.7879	3.2727	5.e-002	9.2745
15918	9.7879	3.	0.	3401.6
15919	9.6956	3.0909	0.	3426.4
15920	9.7879	3.0909	5.e-002	9.2751
15921	9.7879	2.8182	0.	3401.7
15922	9.6956	2.9091	0.	3426.4
15923	9.7879	2.9091	5.e-002	9.2751
15924	9.7879	2.6364	0.	3402.3
15925	9.6956	2.7273	0.	3426.8
15926	9.7879	2.7273	5.e-002	9.2745
15927	9.7879	2.4545	0.	3403.3
15928	9.6956	2.5455	0.	3427.6
15929	9.7879	2.5455	5.e-002	9.2734
15930	9.7879	2.2727	0.	3404.7
15931	9.6956	2.3636	0.	3428.8
15932	9.7879	2.3636	5.e-002	9.2718
15933	9.7879	2.0909	0.	3406.4
15934	9.6956	2.1818	0.	3430.4
15935	9.7879	2.1818	5.e-002	9.2695
15936	9.7879	1.9091	0.	3408.5
15937	9.6956	2.	0.	3432.4
15938	9.7879	2.	5.e-002	9.2666
15939	9.7879	1.7273	0.	3411.
15940	9.6956	1.8182	0.	3434.8
15941	9.7879	1.8182	5.e-002	9.263
15942	9.7879	1.5455	0.	3413.8
15943	9.6956	1.6364	0.	3437.5
15944	9.7879	1.6364	5.e-002	9.2587
15945	9.7879	1.3636	0.	3416.8
15946	9.6956	1.4545	0.	3440.5
15947	9.7879	1.4545	5.e-002	9.2536
15948	9.7879	1.1818	0.	3420.2
15949	9.6956	1.2727	0.	3443.9
15950	9.7879	1.2727	5.e-002	9.2477
15951	9.7879	1.	0.	3423.9
15952	9.6956	1.0909	0.	3447.5
15953	9.7879	1.0909	5.e-002	9.2409
15954	9.7879	0.81818	0.	3427.8
15955	9.6956	0.90909	0.	3451.5
15956	9.7879	0.90909	5.e-002	9.2331
15957	9.7879	0.63636	0.	3431.9
15958	9.6956	0.72727	0.	3455.6
15959	9.7879	0.72727	5.e-002	9.2224
15960	9.7879	0.45455	0.	3436.3
15961	9.6956	0.54545	0.	3460.
15962	9.7879	0.54545	5.e-002	9.1804
15963	9.7879	0.27273	0.	3441.6
15964	9.6956	0.36364	0.	3464.7
15965	9.7879	0.36364	5.e-002	8.6723
15966	9.6956	0.18182	0.	3471.
15967	9.7879	0.18182	5.e-002	1.1101
15968	9.7879	9.0909e-002	0.	3441.5
15969	9.6032	5.7273	0.	3494.
15970	9.5109	5.8182	0.	3523.6
15971	9.6032	5.8182	5.e-002	1.253
15972	9.6032	5.9091	0.	3494.3
15973	9.6032	5.5455	0.	3488.4
15974	9.5109	5.6364	0.	3517.
15975	9.6032	5.6364	5.e-002	8.7302
15976	9.6032	5.3636	0.	3483.7
15977	9.5109	5.4545	0.	3512.
15978	9.6032	5.4545	5.e-002	9.234
15979	9.6032	5.1818	0.	3479.3
15980	9.5109	5.2727	0.	3507.3
15981	9.6032	5.2727	5.e-002	9.2764
15982	9.6032	5.	0.	3475.1
15983	9.5109	5.0909	0.	3502.9
15984	9.6032	5.0909	5.e-002	9.2876
15985	9.6032	4.8182	0.	3471.2
15986	9.5109	4.9091	0.	3498.7
15987	9.6032	4.9091	5.e-002	9.2958
15988	9.6032	4.6364	0.	3467.6
15989	9.5109	4.7273	0.	3494.8
15990	9.6032	4.7273	5.e-002	9.303
15991	9.6032	4.4545	0.	3464.2
15992	9.5109	4.5455	0.	3491.2
15993	9.6032	4.5455	5.e-002	9.3092
15994	9.6032	4.2727	0.	3461.3
15995	9.5109	4.3636	0.	3487.9
15996	9.6032	4.3636	5.e-002	9.3145
15997	9.6032	4.0909	0.	3458.6
15998	9.5109	4.1818	0.	3485.
15999	9.6032	4.1818	5.e-002	9.3189
16000	9.6032	3.9091	0.	3456.4
16001	9.5109	4.	0.	3482.4
16002	9.6032	4.	5.e-002	9.3227
16003	9.6032	3.7273	0.	3454.5
16004	9.5109	3.8182	0.	3480.3
16005	9.6032	3.8182	5.e-002	9.3257
16006	9.6032	3.5455	0.	3453.
16007	9.5109	3.6364	0.	3478.6
16008	9.6032	3.6364	5.e-002	9.328
16009	9.6032	3.3636	0.	3452.
16010	9.5109	3.4545	0.	3477.3
16011	9.6032	3.4545	5.e-002	9.3297
16012	9.6032	3.1818	0.	3451.4
16013	9.5109	3.2727	0.	3476.4
16014	9.6032	3.2727	5.e-002	9.3308
16015	9.6032	3.	0.	3451.1
16016	9.5109	3.0909	0.	3475.9
16017	9.6032	3.0909	5.e-002	9.3314
16018	9.6032	2.8182	0.	3451.4
16019	9.5109	2.9091	0.	3475.9
16020	9.6032	2.9091	5.e-002	9.3314
16021	9.6032	2.6364	0.	3452.
16022	9.5109	2.7273	0.	3476.4
16023	9.6032	2.7273	5.e-002	9.3308
16024	9.6032	2.4545	0.	3453.
16025	9.5109	2.5455	0.	3477.3
16026	9.6032	2.5455	5.e-002	9.3297
16027	9.6032	2.2727	0.	3454.5
16028	9.5109	2.3636	0.	3478.6
16029	9.6032	2.3636	5.e-002	9.328
16030	9.6032	2.0909	0.	3456.4
16031	9.5109	2.1818	0.	3480.3
16032	9.6032	2.1818	5.e-002	9.3257
16033	9.6032	1.9091	0.	3458.6
16034	9.5109	2.	0.	3482.4
16035	9.6032	2.	5.e-002	9.3227
16036	9.6032	1.7273	0.	3461.3
16037	9.5109	1.8182	0.	3485.
16038	9.6032	1.8182	5.e-002	9.3189
16039	9.6032	1.5455	0.	3464.2
16040	9.5109	1.6364	0.	3487.9
16041	9.6032	1.6364	5.e-002	9.3145
16042	9.6032	1.3636	0.	3467.6
16043	9.5109	1.4545	0.	3491.2
16044	9.6032	1.4545	5.e-002	9.3092
16045	9.6032	1.1818	0.	3471.2
16046	9.5109	1.2727	0.	3494.8
16047	9.6032	1.2727	5.e-002	9.303
16048	9.6032	1.	0.	3475.1
16049	9.5109	1.0909	0.	3498.7
16050	9.6032	1.0909	5.e-002	9.2958
16051	9.6032	0.81818	0.	3479.3
16052	9.5109	0.90909	0.	3502.9
16053	9.6032	0.90909	5.e-002	9.2876
16054	9.6032	0.63636	0.	3483.7
16055	9.5109	0.72727	0.	3507.3
16056	9.6032	0.72727	5.e-002	9.2764
16057	9.6032	0.45455	0.	3488.4
16058	9.5109	0.54545	0.	3512.
16059	9.6032	0.54545	5.e-002	9.234
16060	9.6032	0.27273	0.	3494.
16061	9.5109	0.36364	0.	3517.
16062	9.6032	0.36364	5.e-002	8.7302
16063	9.5109	0.18182	0.	3523.6
16064	9.6032	0.18182	5.e-002	1.253
16065	9.6032	9.0909e-002	0.	3494.3
16066	9.4185	5.7273	0.	3546.5
16067	9.3262	5.8182	0.	3576.4
16068	9.4185	5.8182	5.e-002	1.4083
16069	9.4185	5.9091	0.	3547.3
16070	9.4185	5.5455	0.	3540.6
16071	9.3262	5.6364	0.	3569.5
16072	9.4185	5.6364	5.e-002	8.7908
16073	9.4185	5.3636	0.	3535.6
16074	9.3262	5.4545	0.	3564.2
16075	9.4185	5.4545	5.e-002	9.2896
16076	9.4185	5.1818	0.	3530.9
16077	9.3262	5.2727	0.	3559.2
16078	9.4185	5.2727	5.e-002	9.3322
16079	9.4185	5.	0.	3526.4
16080	9.3262	5.0909	0.	3554.4
16081	9.4185	5.0909	5.e-002	9.344
16082	9.4185	4.8182	0.	3522.2
16083	9.3262	4.9091	0.	3549.9
16084	9.4185	4.9091	5.e-002	9.3527
16085	9.4185	4.6364	0.	3518.3
16086	9.3262	4.7273	0.	3545.7
16087	9.4185	4.7273	5.e-002	9.3602
16088	9.4185	4.4545	0.	3514.8
16089	9.3262	4.5455	0.	3541.8
16090	9.4185	4.5455	5.e-002	9.3667
16091	9.4185	4.2727	0.	3511.6
16092	9.3262	4.3636	0.	3538.3
16093	9.4185	4.3636	5.e-002	9.3722
16094	9.4185	4.0909	0.	3508.8
16095	9.3262	4.1818	0.	3535.2
16096	9.4185	4.1818	5.e-002	9.3769
16097	9.4185	3.9091	0.	3506.3
16098	9.3262	4.	0.	3532.5
16099	9.4185	4.	5.e-002	9.3807
16100	9.4185	3.7273	0.	3504.3
16101	9.3262	3.8182	0.	3530.2
16102	9.4185	3.8182	5.e-002	9.3838
16103	9.4185	3.5455	0.	3502.8
16104	9.3262	3.6364	0.	3528.3
16105	9.4185	3.6364	5.e-002	9.3862
16106	9.4185	3.3636	0.	3501.6
16107	9.3262	3.4545	0.	3526.9
16108	9.4185	3.4545	5.e-002	9.3879
16109	9.4185	3.1818	0.	3500.9
16110	9.3262	3.2727	0.	3526.
16111	9.4185	3.2727	5.e-002	9.3891
16112	9.4185	3.	0.	3500.7
16113	9.3262	3.0909	0.	3525.5
16114	9.4185	3.0909	5.e-002	9.3896
16115	9.4185	2.8182	0.	3500.9
16116	9.3262	2.9091	0.	3525.5
16117	9.4185	2.9091	5.e-002	9.3896
16118	9.4185	2.6364	0.	3501.6
16119	9.3262	2.7273	0.	3526.
16120	9.4185	2.7273	5.e-002	9.3891
16121	9.4185	2.4545	0.	3502.8
16122	9.3262	2.5455	0.	3526.9
16123	9.4185	2.5455	5.e-002	9.3879
16124	9.4185	2.2727	0.	3504.3
16125	9.3262	2.3636	0.	3528.3
16126	9.4185	2.3636	5.e-002	9.3862
16127	9.4185	2.0909	0.	3506.3
16128	9.3262	2.1818	0.	3530.2
16129	9.4185	2.1818	5.e-002	9.3838
16130	9.4185	1.9091	0.	3508.8
16131	9.3262	2.	0.	3532.5
16132	9.4185	2.	5.e-002	9.3807
16133	9.4185	1.7273	0.	3511.6
16134	9.3262	1.8182	0.	3535.2
16135	9.4185	1.8182	5.e-002	9.3769
16136	9.4185	1.5455	0.	3514.8
16137	9.3262	1.6364	0.	3538.3
16138	9.4185	1.6364	5.e-002	9.3722
16139	9.4185	1.3636	0.	3518.3
16140	9.3262	1.4545	0.	3541.8
16141	9.4185	1.4545	5.e-002	9.3667
16142	9.4185	1.1818	0.	3522.2
16143	9.3262	1.2727	0.	3545.7
16144	9.4185	1.2727	5.e-002	9.3602
16145	9.4185	1.	0.	3526.4
16146	9.3262	1.0909	0.	3549.9
16147	9.4185	1.0909	5.e-002	9.3527
16148	9.4185	0.81818	0.	3530.9
16149	9.3262	0.90909	0.	3554.4
16150	9.4185	0.90909	5.e-002	9.344
16151	9.4185	0.63636	0.	3535.6
16152	9.3262	0.72727	0.	3559.2
16153	9.4185	0.72727	5.e-002	9.3322
16154	9.4185	0.45455	0.	3540.6
16155	9.3262	0.54545	0.	3564.2
16156	9.4185	0.54545	5.e-002	9.2896
16157	9.4185	0.27273	0.	3546.5
16158	9.3262	0.36364	0.	3569.5
16159	9.4185	0.36364	5.e-002	8.7908
16160	9.3262	0.18182	0.	3576.4
16161	9.4185	0.18182	5.e-002	1.4083
16162	9.4185	9.0909e-002	0.	3547.3
16163	9.2339	5.7273	0.	3599.3
16164	9.1415	5.8182	0.	3629.5
16165	9.2339	5.8182	5.e-002	1.577
16166	9.2339	5.9091	0.	3600.6
16167	9.2339	5.5455	0.	3593.1
16168	9.1415	5.6364	0.	3622.3
16169	9.2339	5.6364	5.e-002	8.8541
16170	9.2339	5.3636	0.	3587.7
16171	9.1415	5.4545	0.	3616.6
16172	9.2339	5.4545	5.e-002	9.3474
16173	9.2339	5.1818	0.	3582.7
16174	9.1415	5.2727	0.	3611.2
16175	9.2339	5.2727	5.e-002	9.3903
16176	9.2339	5.	0.	3577.9
16177	9.1415	5.0909	0.	3606.1
16178	9.2339	5.0909	5.e-002	9.4026
16179	9.2339	4.8182	0.	3573.4
16180	9.1415	4.9091	0.	3601.3
16181	9.2339	4.9091	5.e-002	9.4118
16182	9.2339	4.6364	0.	3569.2
16183	9.1415	4.7273	0.	3596.7
16184	9.2339	4.7273	5.e-002	9.4197
16185	9.2339	4.4545	0.	3565.4
16186	9.1415	4.5455	0.	3592.6
16187	9.2339	4.5455	5.e-002	9.4264
16188	9.2339	4.2727	0.	3561.9
16189	9.1415	4.3636	0.	3588.8
16190	9.2339	4.3636	5.e-002	9.4321
16191	9.2339	4.0909	0.	3558.9
16192	9.1415	4.1818	0.	3585.4
16193	9.2339	4.1818	5.e-002	9.4369
16194	9.2339	3.9091	0.	3556.3
16195	9.1415	4.	0.	3582.5
16196	9.2339	4.	5.e-002	9.4409
16197	9.2339	3.7273	0.	3554.1
16198	9.1415	3.8182	0.	3580.
16199	9.2339	3.8182	5.e-002	9.444
16200	9.2339	3.5455	0.	3552.4
16201	9.1415	3.6364	0.	3578.
16202	9.2339	3.6364	5.e-002	9.4464
16203	9.2339	3.3636	0.	3551.2
16204	9.1415	3.4545	0.	3576.5
16205	9.2339	3.4545	5.e-002	9.4482
16206	9.2339	3.1818	0.	3550.5
16207	9.1415	3.2727	0.	3575.5
16208	9.2339	3.2727	5.e-002	9.4493
16209	9.2339	3.	0.	3550.2
16210	9.1415	3.0909	0.	3575.
16211	9.2339	3.0909	5.e-002	9.4499
16212	9.2339	2.8182	0.	3550.5
16213	9.1415	2.9091	0.	3575.
16214	9.2339	2.9091	5.e-002	9.4499
16215	9.2339	2.6364	0.	3551.2
16216	9.1415	2.7273	0.	3575.5
16217	9.2339	2.7273	5.e-002	9.4493
16218	9.2339	2.4545	0.	3552.4
16219	9.1415	2.5455	0.	3576.5
16220	9.2339	2.5455	5.e-002	9.4482
16221	9.2339	2.2727	0.	3554.1
16222	9.1415	2.3636	0.	3578.
16223	9.2339	2.3636	5.e-002	9.4464
16224	9.2339	2.0909	0.	3556.3
16225	9.1415	2.1818	0.	3580.
16226	9.2339	2.1818	5.e-002	9.444
16227	9.2339	1.9091	0.	3558.9
16228	9.1415	2.	0.	3582.5
16229	9.2339	2.	5.e-002	9.4409
16230	9.2339	1.7273	0.	3561.9
16231	9.1415	1.8182	0.	3585.4
16232	9.2339	1.8182	5.e-002	9.4369
16233	9.2339	1.5455	0.	3565.4
16234	9.1415	1.6364	0.	3588.8
16235	9.2339	1.6364	5.e-002	9.4321
16236	9.2339	1.3636	0.	3569.2
16237	9.1415	1.4545	0.	3592.6
16238	9.2339	1.4545	5.e-002	9.4264
16239	9.2339	1.1818	0.	3573.4
16240	9.1415	1.2727	0.	3596.7
16241	9.2339	1.2727	5.e-002	9.4197
16242	9.2339	1.	0.	3577.9
16243	9.1415	1.0909	0.	3601.3
16244	9.2339	1.0909	5.e-002	9.4118
16245	9.2339	0.81818	0.	3582.7
16246	9.1415	0.90909	0.	3606.1
16247	9.2339	0.90909	5.e-002	9.4026
16248	9.2339	0.63636	0.	3587.7
16249	9.1415	0.72727	0.	3611.2
16250	9.2339	0.72727	5.e-002	9.3903
16251	9.2339	0.45455	0.	3593.1
16252	9.1415	0.54545	0.	3616.6
16253	9.2339	0.54545	5.e-002	9.3474
16254	9.2339	0.27273	0.	3599.3
16255	9.1415	0.36364	0.	3622.3
16256	9.2339	0.36364	5.e-002	8.8541
16257	9.1415	0.18182	0.	3629.5
16258	9.2339	0.18182	5.e-002	1.577
16259	9.2339	9.0909e-002	0.	3600.6
16260	9.0492	5.7273	0.	3652.3
16261	8.9569	5.8182	0.	3682.8
16262	9.0492	5.8182	5.e-002	1.7602
16263	9.0492	5.9091	0.	3654.1
16264	9.0492	5.5455	0.	3645.7
16265	8.9569	5.6364	0.	3675.2
16266	9.0492	5.6364	5.e-002	8.9207
16267	9.0492	5.3636	0.	3640.
16268	8.9569	5.4545	0.	3669.2
16269	9.0492	5.4545	5.e-002	9.4076
16270	9.0492	5.1818	0.	3634.6
16271	8.9569	5.2727	0.	3663.4
16272	9.0492	5.2727	5.e-002	9.4508
16273	9.0492	5.	0.	3629.4
16274	8.9569	5.0909	0.	3657.9
16275	9.0492	5.0909	5.e-002	9.4637
16276	9.0492	4.8182	0.	3624.6
16277	8.9569	4.9091	0.	3652.7
16278	9.0492	4.9091	5.e-002	9.4733
16279	9.0492	4.6364	0.	3620.1
16280	8.9569	4.7273	0.	3647.8
16281	9.0492	4.7273	5.e-002	9.4815
16282	9.0492	4.4545	0.	3616.
16283	8.9569	4.5455	0.	3643.4
16284	9.0492	4.5455	5.e-002	9.4885
16285	9.0492	4.2727	0.	3612.3
16286	8.9569	4.3636	0.	3639.3
16287	9.0492	4.3636	5.e-002	9.4945
16288	9.0492	4.0909	0.	3609.
16289	8.9569	4.1818	0.	3635.7
16290	9.0492	4.1818	5.e-002	9.4994
16291	9.0492	3.9091	0.	3606.2
16292	8.9569	4.	0.	3632.5
16293	9.0492	4.	5.e-002	9.5034
16294	9.0492	3.7273	0.	3603.9
16295	8.9569	3.8182	0.	3629.9
16296	9.0492	3.8182	5.e-002	9.5065
16297	9.0492	3.5455	0.	3602.1
16298	8.9569	3.6364	0.	3627.7
16299	9.0492	3.6364	5.e-002	9.509
16300	9.0492	3.3636	0.	3600.8
16301	8.9569	3.4545	0.	3626.1
16302	9.0492	3.4545	5.e-002	9.5108
16303	9.0492	3.1818	0.	3600.
16304	8.9569	3.2727	0.	3625.
16305	9.0492	3.2727	5.e-002	9.5119
16306	9.0492	3.	0.	3599.7
16307	8.9569	3.0909	0.	3624.4
16308	9.0492	3.0909	5.e-002	9.5125
16309	9.0492	2.8182	0.	3600.
16310	8.9569	2.9091	0.	3624.4
16311	9.0492	2.9091	5.e-002	9.5125
16312	9.0492	2.6364	0.	3600.8
16313	8.9569	2.7273	0.	3625.
16314	9.0492	2.7273	5.e-002	9.5119
16315	9.0492	2.4545	0.	3602.1
16316	8.9569	2.5455	0.	3626.1
16317	9.0492	2.5455	5.e-002	9.5108
16318	9.0492	2.2727	0.	3603.9
16319	8.9569	2.3636	0.	3627.7
16320	9.0492	2.3636	5.e-002	9.509
16321	9.0492	2.0909	0.	3606.2
16322	8.9569	2.1818	0.	3629.9
16323	9.0492	2.1818	5.e-002	9.5065
16324	9.0492	1.9091	0.	3609.
16325	8.9569	2.	0.	3632.5
16326	9.0492	2.	5.e-002	9.5034
16327	9.0492	1.7273	0.	3612.3
16328	8.9569	1.8182	0.	3635.7
16329	9.0492	1.8182	5.e-002	9.4994
16330	9.0492	1.5455	0.	3616.
16331	8.9569	1.6364	0.	3639.3
16332	9.0492	1.6364	5.e-002	9.4945
16333	9.0492	1.3636	0.	3620.1
16334	8.9569	1.4545	0.	3643.4
16335	9.0492	1.4545	5.e-002	9.4885
16336	9.0492	1.1818	0.	3624.6
16337	8.9569	1.2727	0.	3647.8
16338	9.0492	1.2727	5.e-002	9.4815
16339	9.0492	1.	0.	3629.4
16340	8.9569	1.0909	0.	3652.7
16341	9.0492	1.0909	5.e-002	9.4733
16342	9.0492	0.81818	0.	3634.6
16343	8.9569	0.90909	0.	3657.9
16344	9.0492	0.90909	5.e-002	9.4637
16345	9.0492	0.63636	0.	3640.
16346	8.9569	0.72727	0.	3663.4
16347	9.0492	0.72727	5.e-002	9.4508
16348	9.0492	0.45455	0.	3645.7
16349	8.9569	0.54545	0.	3669.2
16350	9.0492	0.54545	5.e-002	9.4076
16351	9.0492	0.27273	0.	3652.3
16352	8.9569	0.36364	0.	3675.2
16353	9.0492	0.36364	5.e-002	8.9207
16354	8.9569	0.18182	0.	3682.8
16355	9.0492	0.18182	5.e-002	1.7602
16356	9.0492	9.0909e-002	0.	3654.1
16357	8.8645	5.7273	0.	3705.6
16358	8.7722	5.8182	0.	3736.4
16359	8.8645	5.8182	5.e-002	1.959
16360	8.8645	5.9091	0.	3708.
16361	8.8645	5.5455	0.	3698.6
16362	8.7722	5.6364	0.	3728.4
16363	8.8645	5.6364	5.e-002	8.9907
16364	8.8645	5.3636	0.	3692.5
16365	8.7722	5.4545	0.	3721.9
16366	8.8645	5.4545	5.e-002	9.4705
16367	8.8645	5.1818	0.	3686.7
16368	8.7722	5.2727	0.	3715.7
16369	8.8645	5.2727	5.e-002	9.5139
16370	8.8645	5.	0.	3681.1
16371	8.7722	5.0909	0.	3709.8
16372	8.8645	5.0909	5.e-002	9.5274
16373	8.8645	4.8182	0.	3675.9
16374	8.7722	4.9091	0.	3704.2
16375	8.8645	4.9091	5.e-002	9.5375
16376	8.8645	4.6364	0.	3671.1
16377	8.7722	4.7273	0.	3699.
16378	8.8645	4.7273	5.e-002	9.546
16379	8.8645	4.4545	0.	3666.7
16380	8.7722	4.5455	0.	3694.2
16381	8.8645	4.5455	5.e-002	9.5533
16382	8.8645	4.2727	0.	3662.7
16383	8.7722	4.3636	0.	3689.8
16384	8.8645	4.3636	5.e-002	9.5594
16385	8.8645	4.0909	0.	3659.2
16386	8.7722	4.1818	0.	3685.9
16387	8.8645	4.1818	5.e-002	9.5644
16388	8.8645	3.9091	0.	3656.2
16389	8.7722	4.	0.	3682.5
16390	8.8645	4.	5.e-002	9.5684
16391	8.8645	3.7273	0.	3653.7
16392	8.7722	3.8182	0.	3679.7
16393	8.8645	3.8182	5.e-002	9.5716
16394	8.8645	3.5455	0.	3651.7
16395	8.7722	3.6364	0.	3677.3
16396	8.8645	3.6364	5.e-002	9.574
16397	8.8645	3.3636	0.	3650.3
16398	8.7722	3.4545	0.	3675.6
16399	8.8645	3.4545	5.e-002	9.5758
16400	8.8645	3.1818	0.	3649.4
16401	8.7722	3.2727	0.	3674.4
16402	8.8645	3.2727	5.e-002	9.5769
16403	8.8645	3.	0.	3649.1
16404	8.7722	3.0909	0.	3673.8
16405	8.8645	3.0909	5.e-002	9.5775
16406	8.8645	2.8182	0.	3649.4
16407	8.7722	2.9091	0.	3673.8
16408	8.8645	2.9091	5.e-002	9.5775
16409	8.8645	2.6364	0.	3650.3
16410	8.7722	2.7273	0.	3674.4
16411	8.8645	2.7273	5.e-002	9.5769
16412	8.8645	2.4545	0.	3651.7
16413	8.7722	2.5455	0.	3675.6
16414	8.8645	2.5455	5.e-002	9.5758
16415	8.8645	2.2727	0.	3653.7
16416	8.7722	2.3636	0.	3677.3
16417	8.8645	2.3636	5.e-002	9.574
16418	8.8645	2.0909	0.	3656.2
16419	8.7722	2.1818	0.	3679.7
16420	8.8645	2.1818	5.e-002	9.5716
16421	8.8645	1.9091	0.	3659.2
16422	8.7722	2.	0.	3682.5
16423	8.8645	2.	5.e-002	9.5684
16424	8.8645	1.7273	0.	3662.7
16425	8.7722	1.8182	0.	3685.9
16426	8.8645	1.8182	5.e-002	9.5644
16427	8.8645	1.5455	0.	3666.7
16428	8.7722	1.6364	0.	3689.8
16429	8.8645	1.6364	5.e-002	9.5594
16430	8.8645	1.3636	0.	3671.1
16431	8.7722	1.4545	0.	3694.2
16432	8.8645	1.4545	5.e-002	9.5533
16433	8.8645	1.1818	0.	3675.9
16434	8.7722	1.2727	0.	3699.
16435	8.8645	1.2727	5.e-002	9.546
16436	8.8645	1.	0.	3681.1
16437	8.7722	1.0909	0.	3704.2
16438	8.8645	1.0909	5.e-002	9.5375
16439	8.8645	0.81818	0.	3686.7
16440	8.7722	0.90909	0.	3709.8
16441	8.8645	0.90909	5.e-002	9.5274
16442	8.8645	0.63636	0.	3692.5
16443	8.7722	0.72727	0.	3715.7
16444	8.8645	0.72727	5.e-002	9.5139
16445	8.8645	0.45455	0.	3698.6
16446	8.7722	0.54545	0.	3721.9
16447	8.8645	0.54545	5.e-002	9.4705
16448	8.8645	0.27273	0.	3705.6
16449	8.7722	0.36364	0.	3728.4
16450	8.8645	0.36364	5.e-002	8.9907
16451	8.7722	0.18182	0.	3736.4
16452	8.8645	0.18182	5.e-002	1.959
16453	8.8645	9.0909e-002	0.	3708.
16454	8.6798	5.7273	0.	3759.1
16455	8.5875	5.8182	0.	3790.2
16456	8.6798	5.8182	5.e-002	2.1748
16457	8.6798	5.9091	0.	3762.1
16458	8.6798	5.5455	0.	3751.7
16459	8.5875	5.6364	0.	3781.8
16460	8.6798	5.6364	5.e-002	9.0645
16461	8.6798	5.3636	0.	3745.1
16462	8.5875	5.4545	0.	3774.8
16463	8.6798	5.4545	5.e-002	9.5364
16464	8.6798	5.1818	0.	3738.8
16465	8.5875	5.2727	0.	3768.2
16466	8.6798	5.2727	5.e-002	9.58
16467	8.6798	5.	0.	3732.9
16468	8.5875	5.0909	0.	3761.8
16469	8.6798	5.0909	5.e-002	9.594
16470	8.6798	4.8182	0.	3727.3
16471	8.5875	4.9091	0.	3755.8
16472	8.6798	4.9091	5.e-002	9.6046
16473	8.6798	4.6364	0.	3722.1
16474	8.5875	4.7273	0.	3750.2
16475	8.6798	4.7273	5.e-002	9.6135
16476	8.6798	4.4545	0.	3717.3
16477	8.5875	4.5455	0.	3745.
16478	8.6798	4.5455	5.e-002	9.6209
16479	8.6798	4.2727	0.	3713.1
16480	8.5875	4.3636	0.	3740.3
16481	8.6798	4.3636	5.e-002	9.6271
16482	8.6798	4.0909	0.	3709.3
16483	8.5875	4.1818	0.	3736.1
16484	8.6798	4.1818	5.e-002	9.6322
16485	8.6798	3.9091	0.	3706.
16486	8.5875	4.	0.	3732.5
16487	8.6798	4.	5.e-002	9.6362
16488	8.6798	3.7273	0.	3703.3
16489	8.5875	3.8182	0.	3729.4
16490	8.6798	3.8182	5.e-002	9.6394
16491	8.6798	3.5455	0.	3701.2
16492	8.5875	3.6364	0.	3726.9
16493	8.6798	3.6364	5.e-002	9.6418
16494	8.6798	3.3636	0.	3699.7
16495	8.5875	3.4545	0.	3725.
16496	8.6798	3.4545	5.e-002	9.6435
16497	8.6798	3.1818	0.	3698.8
16498	8.5875	3.2727	0.	3723.7
16499	8.6798	3.2727	5.e-002	9.6446
16500	8.6798	3.	0.	3698.5
16501	8.5875	3.0909	0.	3723.1
16502	8.6798	3.0909	5.e-002	9.6451
16503	8.6798	2.8182	0.	3698.8
16504	8.5875	2.9091	0.	3723.1
16505	8.6798	2.9091	5.e-002	9.6451
16506	8.6798	2.6364	0.	3699.7
16507	8.5875	2.7273	0.	3723.7
16508	8.6798	2.7273	5.e-002	9.6446
16509	8.6798	2.4545	0.	3701.2
16510	8.5875	2.5455	0.	3725.
16511	8.6798	2.5455	5.e-002	9.6435
16512	8.6798	2.2727	0.	3703.3
16513	8.5875	2.3636	0.	3726.9
16514	8.6798	2.3636	5.e-002	9.6418
16515	8.6798	2.0909	0.	3706.
16516	8.5875	2.1818	0.	3729.4
16517	8.6798	2.1818	5.e-002	9.6394
16518	8.6798	1.9091	0.	3709.3
16519	8.5875	2.	0.	3732.5
16520	8.6798	2.	5.e-002	9.6362
16521	8.6798	1.7273	0.	3713.1
16522	8.5875	1.8182	0.	3736.1
16523	8.6798	1.8182	5.e-002	9.6322
16524	8.6798	1.5455	0.	3717.3
16525	8.5875	1.6364	0.	3740.3
16526	8.6798	1.6364	5.e-002	9.6271
16527	8.6798	1.3636	0.	3722.1
16528	8.5875	1.4545	0.	3745.
16529	8.6798	1.4545	5.e-002	9.6209
16530	8.6798	1.1818	0.	3727.3
16531	8.5875	1.2727	0.	3750.2
16532	8.6798	1.2727	5.e-002	9.6135
16533	8.6798	1.	0.	3732.9
16534	8.5875	1.0909	0.	3755.8
16535	8.6798	1.0909	5.e-002	9.6046
16536	8.6798	0.81818	0.	3738.8
16537	8.5875	0.90909	0.	3761.8
16538	8.6798	0.90909	5.e-002	9.594
16539	8.6798	0.63636	0.	3745.1
16540	8.5875	0.72727	0.	3768.2
16541	8.6798	0.72727	5.e-002	9.58
16542	8.6798	0.45455	0.	3751.7
16543	8.5875	0.54545	0.	3774.8
16544	8.6798	0.54545	5.e-002	9.5364
16545	8.6798	0.27273	0.	3759.1
16546	8.5875	0.36364	0.	3781.8
16547	8.6798	0.36364	5.e-002	9.0645
16548	8.5875	0.18182	0.	3790.2
16549	8.6798	0.18182	5.e-002	2.1747
16550	8.6798	9.0909e-002	0.	3762.1
16551	8.4952	5.7273	0.	3812.8
16552	8.4028	5.8182	0.	3844.3
16553	8.4952	5.8182	5.e-002	2.4089
16554	8.4952	5.9091	0.	3816.5
16555	8.4952	5.5455	0.	3805.
16556	8.4028	5.6364	0.	3835.5
16557	8.4952	5.6364	5.e-002	9.1425
16558	8.4952	5.3636	0.	3797.9
16559	8.4028	5.4545	0.	3828.
16560	8.4952	5.4545	5.e-002	9.6056
16561	8.4952	5.1818	0.	3791.2
16562	8.4028	5.2727	0.	3820.8
16563	8.4952	5.2727	5.e-002	9.6494
16564	8.4952	5.	0.	3784.8
16565	8.4028	5.0909	0.	3814.
16566	8.4952	5.0909	5.e-002	9.6639
16567	8.4952	4.8182	0.	3778.7
16568	8.4028	4.9091	0.	3807.5
16569	8.4952	4.9091	5.e-002	9.6749
16570	8.4952	4.6364	0.	3773.1
16571	8.4028	4.7273	0.	3801.5
16572	8.4952	4.7273	5.e-002	9.6841
16573	8.4952	4.4545	0.	3768.
16574	8.4028	4.5455	0.	3795.9
16575	8.4952	4.5455	5.e-002	9.6918
16576	8.4952	4.2727	0.	3763.4
16577	8.4028	4.3636	0.	3790.8
16578	8.4952	4.3636	5.e-002	9.698
16579	8.4952	4.0909	0.	3759.3
16580	8.4028	4.1818	0.	3786.3
16581	8.4952	4.1818	5.e-002	9.7031
16582	8.4952	3.9091	0.	3755.8
16583	8.4028	4.	0.	3782.3
16584	8.4952	4.	5.e-002	9.7071
16585	8.4952	3.7273	0.	3752.9
16586	8.4028	3.8182	0.	3779.
16587	8.4952	3.8182	5.e-002	9.7102
16588	8.4952	3.5455	0.	3750.6
16589	8.4028	3.6364	0.	3776.3
16590	8.4952	3.6364	5.e-002	9.7125
16591	8.4952	3.3636	0.	3749.
16592	8.4028	3.4545	0.	3774.3
16593	8.4952	3.4545	5.e-002	9.7141
16594	8.4952	3.1818	0.	3748.
16595	8.4028	3.2727	0.	3772.9
16596	8.4952	3.2727	5.e-002	9.7151
16597	8.4952	3.	0.	3747.7
16598	8.4028	3.0909	0.	3772.2
16599	8.4952	3.0909	5.e-002	9.7156
16600	8.4952	2.8182	0.	3748.
16601	8.4028	2.9091	0.	3772.2
16602	8.4952	2.9091	5.e-002	9.7156
16603	8.4952	2.6364	0.	3749.
16604	8.4028	2.7273	0.	3772.9
16605	8.4952	2.7273	5.e-002	9.7151
16606	8.4952	2.4545	0.	3750.6
16607	8.4028	2.5455	0.	3774.3
16608	8.4952	2.5455	5.e-002	9.7141
16609	8.4952	2.2727	0.	3752.9
16610	8.4028	2.3636	0.	3776.3
16611	8.4952	2.3636	5.e-002	9.7125
16612	8.4952	2.0909	0.	3755.8
16613	8.4028	2.1818	0.	3779.
16614	8.4952	2.1818	5.e-002	9.7102
16615	8.4952	1.9091	0.	3759.3
16616	8.4028	2.	0.	3782.3
16617	8.4952	2.	5.e-002	9.7071
16618	8.4952	1.7273	0.	3763.4
16619	8.4028	1.8182	0.	3786.3
16620	8.4952	1.8182	5.e-002	9.7031
16621	8.4952	1.5455	0.	3768.
16622	8.4028	1.6364	0.	3790.8
16623	8.4952	1.6364	5.e-002	9.698
16624	8.4952	1.3636	0.	3773.1
16625	8.4028	1.4545	0.	3795.9
16626	8.4952	1.4545	5.e-002	9.6918
16627	8.4952	1.1818	0.	3778.7
16628	8.4028	1.2727	0.	3801.5
16629	8.4952	1.2727	5.e-002	9.6841
16630	8.4952	1.	0.	3784.8
16631	8.4028	1.0909	0.	3807.5
16632	8.4952	1.0909	5.e-002	9.6749
16633	8.4952	0.81818	0.	3791.2
16634	8.4028	0.90909	0.	3814.
16635	8.4952	0.90909	5.e-002	9.6639
16636	8.4952	0.63636	0.	3797.9
16637	8.4028	0.72727	0.	3820.8
16638	8.4952	0.72727	5.e-002	9.6494
16639	8.4952	0.45455	0.	3805.
16640	8.4028	0.54545	0.	3828.
16641	8.4952	0.54545	5.e-002	9.6056
16642	8.4952	0.27273	0.	3812.8
16643	8.4028	0.36364	0.	3835.5
16644	8.4952	0.36364	5.e-002	9.1425
16645	8.4028	0.18182	0.	3844.3
16646	8.4952	0.18182	5.e-002	2.4088
16647	8.4952	9.0909e-002	0.	3816.5
16648	8.3105	5.7273	0.	3866.8
16649	8.2181	5.8182	0.	3898.7
16650	8.3105	5.8182	5.e-002	2.6627
16651	8.3105	5.9091	0.	3871.1
16652	8.3105	5.5455	0.	3858.4
16653	8.2181	5.6364	0.	3889.3
16654	8.3105	5.6364	5.e-002	9.2253
16655	8.3105	5.3636	0.	3850.8
16656	8.2181	5.4545	0.	3881.3
16657	8.3105	5.4545	5.e-002	9.6785
16658	8.3105	5.1818	0.	3843.6
16659	8.2181	5.2727	0.	3873.6
16660	8.3105	5.2727	5.e-002	9.7224
16661	8.3105	5.	0.	3836.7
16662	8.2181	5.0909	0.	3866.2
16663	8.3105	5.0909	5.e-002	9.7375
16664	8.3105	4.8182	0.	3830.2
16665	8.2181	4.9091	0.	3859.3
16666	8.3105	4.9091	5.e-002	9.7489
16667	8.3105	4.6364	0.	3824.2
16668	8.2181	4.7273	0.	3852.7
16669	8.3105	4.7273	5.e-002	9.7583
16670	8.3105	4.4545	0.	3818.7
16671	8.2181	4.5455	0.	3846.7
16672	8.3105	4.5455	5.e-002	9.7661
16673	8.3105	4.2727	0.	3813.7
16674	8.2181	4.3636	0.	3841.3
16675	8.3105	4.3636	5.e-002	9.7724
16676	8.3105	4.0909	0.	3809.3
16677	8.2181	4.1818	0.	3836.4
16678	8.3105	4.1818	5.e-002	9.7774
16679	8.3105	3.9091	0.	3805.5
16680	8.2181	4.	0.	3832.1
16681	8.3105	4.	5.e-002	9.7813
16682	8.3105	3.7273	0.	3802.4
16683	8.2181	3.8182	0.	3828.5
16684	8.3105	3.8182	5.e-002	9.7842
16685	8.3105	3.5455	0.	3799.9
16686	8.2181	3.6364	0.	3825.6
16687	8.3105	3.6364	5.e-002	9.7864
16688	8.3105	3.3636	0.	3798.1
16689	8.2181	3.4545	0.	3823.4
16690	8.3105	3.4545	5.e-002	9.7879
16691	8.3105	3.1818	0.	3797.1
16692	8.2181	3.2727	0.	3821.9
16693	8.3105	3.2727	5.e-002	9.7888
16694	8.3105	3.	0.	3796.7
16695	8.2181	3.0909	0.	3821.2
16696	8.3105	3.0909	5.e-002	9.7893
16697	8.3105	2.8182	0.	3797.1
16698	8.2181	2.9091	0.	3821.2
16699	8.3105	2.9091	5.e-002	9.7893
16700	8.3105	2.6364	0.	3798.1
16701	8.2181	2.7273	0.	3821.9
16702	8.3105	2.7273	5.e-002	9.7888
16703	8.3105	2.4545	0.	3799.9
16704	8.2181	2.5455	0.	3823.4
16705	8.3105	2.5455	5.e-002	9.7879
16706	8.3105	2.2727	0.	3802.4
16707	8.2181	2.3636	0.	3825.6
16708	8.3105	2.3636	5.e-002	9.7864
16709	8.3105	2.0909	0.	3805.5
16710	8.2181	2.1818	0.	3828.5
16711	8.3105	2.1818	5.e-002	9.7842
16712	8.3105	1.9091	0.	3809.3
16713	8.2181	2.	0.	3832.1
16714	8.3105	2.	5.e-002	9.7813
16715	8.3105	1.7273	0.	3813.7
16716	8.2181	1.8182	0.	3836.4
16717	8.3105	1.8182	5.e-002	9.7774
16718	8.3105	1.5455	0.	3818.7
16719	8.2181	1.6364	0.	3841.3
16720	8.3105	1.6364	5.e-002	9.7724
16721	8.3105	1.3636	0.	3824.2
16722	8.2181	1.4545	0.	3846.7
16723	8.3105	1.4545	5.e-002	9.7661
16724	8.3105	1.1818	0.	3830.2
16725	8.2181	1.2727	0.	3852.7
16726	8.3105	1.2727	5.e-002	9.7583
16727	8.3105	1.	0.	3836.7
16728	8.2181	1.0909	0.	3859.3
16729	8.3105	1.0909	5.e-002	9.7489
16730	8.3105	0.81818	0.	3843.6
16731	8.2181	0.90909	0.	3866.2
16732	8.3105	0.90909	5.e-002	9.7375
16733	8.3105	0.63636	0.	3850.8
16734	8.2181	0.72727	0.	3873.6
16735	8.3105	0.72727	5.e-002	9.7224
16736	8.3105	0.45455	0.	3858.4
16737	8.2181	0.54545	0.	3881.3
16738	8.3105	0.54545	5.e-002	9.6785
16739	8.3105	0.27273	0.	3866.8
16740	8.2181	0.36364	0.	3889.3
16741	8.3105	0.36364	5.e-002	9.2253
16742	8.2181	0.18182	0.	3898.7
16743	8.3105	0.18182	5.e-002	2.6627
16744	8.3105	9.0909e-002	0.	3871.1
16745	8.1258	5.7273	0.	3921.1
16746	8.0335	5.8182	0.	3953.3
16747	8.1258	5.8182	5.e-002	2.938
16748	8.1258	5.9091	0.	3926.1
16749	8.1258	5.5455	0.	3912.1
16750	8.0335	5.6364	0.	3943.4
16751	8.1258	5.6364	5.e-002	9.3132
16752	8.1258	5.3636	0.	3904.
16753	8.0335	5.4545	0.	3934.8
16754	8.1258	5.4545	5.e-002	9.7555
16755	8.1258	5.1818	0.	3896.2
16756	8.0335	5.2727	0.	3926.5
16757	8.1258	5.2727	5.e-002	9.7994
16758	8.1258	5.	0.	3888.7
16759	8.0335	5.0909	0.	3918.6
16760	8.1258	5.0909	5.e-002	9.815
16761	8.1258	4.8182	0.	3881.8
16762	8.0335	4.9091	0.	3911.1
16763	8.1258	4.9091	5.e-002	9.8268
16764	8.1258	4.6364	0.	3875.3
16765	8.0335	4.7273	0.	3904.
16766	8.1258	4.7273	5.e-002	9.8364
16767	8.1258	4.4545	0.	3869.3
16768	8.0335	4.5455	0.	3897.5
16769	8.1258	4.5455	5.e-002	9.8443
16770	8.1258	4.2727	0.	3863.9
16771	8.0335	4.3636	0.	3891.6
16772	8.1258	4.3636	5.e-002	9.8505
16773	8.1258	4.0909	0.	3859.2
16774	8.0335	4.1818	0.	3886.4
16775	8.1258	4.1818	5.e-002	9.8554
16776	8.1258	3.9091	0.	3855.1
16777	8.0335	4.	0.	3881.8
16778	8.1258	4.	5.e-002	9.8591
16779	8.1258	3.7273	0.	3851.7
16780	8.0335	3.8182	0.	3877.9
16781	8.1258	3.8182	5.e-002	9.8619
16782	8.1258	3.5455	0.	3849.1
16783	8.0335	3.6364	0.	3874.7
16784	8.1258	3.6364	5.e-002	9.8638
16785	8.1258	3.3636	0.	3847.1
16786	8.0335	3.4545	0.	3872.3
16787	8.1258	3.4545	5.e-002	9.8652
16788	8.1258	3.1818	0.	3846.
16789	8.0335	3.2727	0.	3870.7
16790	8.1258	3.2727	5.e-002	9.866
16791	8.1258	3.	0.	3845.6
16792	8.0335	3.0909	0.	3869.9
16793	8.1258	3.0909	5.e-002	9.8664
16794	8.1258	2.8182	0.	3846.
16795	8.0335	2.9091	0.	3869.9
16796	8.1258	2.9091	5.e-002	9.8664
16797	8.1258	2.6364	0.	3847.1
16798	8.0335	2.7273	0.	3870.7
16799	8.1258	2.7273	5.e-002	9.866
16800	8.1258	2.4545	0.	3849.1
16801	8.0335	2.5455	0.	3872.3
16802	8.1258	2.5455	5.e-002	9.8652
16803	8.1258	2.2727	0.	3851.7
16804	8.0335	2.3636	0.	3874.7
16805	8.1258	2.3636	5.e-002	9.8638
16806	8.1258	2.0909	0.	3855.1
16807	8.0335	2.1818	0.	3877.9
16808	8.1258	2.1818	5.e-002	9.8619
16809	8.1258	1.9091	0.	3859.2
16810	8.0335	2.	0.	3881.8
16811	8.1258	2.	5.e-002	9.8591
16812	8.1258	1.7273	0.	3863.9
16813	8.0335	1.8182	0.	3886.4
16814	8.1258	1.8182	5.e-002	9.8554
16815	8.1258	1.5455	0.	3869.3
16816	8.0335	1.6364	0.	3891.6
16817	8.1258	1.6364	5.e-002	9.8505
16818	8.1258	1.3636	0.	3875.3
16819	8.0335	1.4545	0.	3897.5
16820	8.1258	1.4545	5.e-002	9.8443
16821	8.1258	1.1818	0.	3881.8
16822	8.0335	1.2727	0.	3904.
16823	8.1258	1.2727	5.e-002	9.8364
16824	8.1258	1.	0.	3888.7
16825	8.0335	1.0909	0.	3911.1
16826	8.1258	1.0909	5.e-002	9.8268
16827	8.1258	0.81818	0.	3896.2
16828	8.0335	0.90909	0.	3918.6
16829	8.1258	0.90909	5.e-002	9.815
16830	8.1258	0.63636	0.	3904.
16831	8.0335	0.72727	0.	3926.5
16832	8.1258	0.72727	5.e-002	9.7994
16833	8.1258	0.45455	0.	3912.1
16834	8.0335	0.54545	0.	3934.8
16835	8.1258	0.54545	5.e-002	9.7555
16836	8.1258	0.27273	0.	3921.1
16837	8.0335	0.36364	0.	3943.4
16838	8.1258	0.36364	5.e-002	9.3132
16839	8.0335	0.18182	0.	3953.3
16840	8.1258	0.18182	5.e-002	2.938
16841	8.1258	9.0909e-002	0.	3926.1
16842	7.9411	5.7273	0.	3975.6
16843	7.8488	5.8182	0.	4008.3
16844	7.9411	5.8182	5.e-002	3.2365
16845	7.9411	5.9091	0.	3981.4
16846	7.9411	5.5455	0.	3966.
16847	7.8488	5.6364	0.	3997.8
16848	7.9411	5.6364	5.e-002	9.4068
16849	7.9411	5.3636	0.	3957.3
16850	7.8488	5.4545	0.	3988.5
16851	7.9411	5.4545	5.e-002	9.8371
16852	7.9411	5.1818	0.	3948.8
16853	7.8488	5.2727	0.	3979.5
16854	7.9411	5.2727	5.e-002	9.8809
16855	7.9411	5.	0.	3940.8
16856	7.8488	5.0909	0.	3971.
16857	7.9411	5.0909	5.e-002	9.897
16858	7.9411	4.8182	0.	3933.3
16859	7.8488	4.9091	0.	3962.9
16860	7.9411	4.9091	5.e-002	9.9091
16861	7.9411	4.6364	0.	3926.3
16862	7.8488	4.7273	0.	3955.3
16863	7.9411	4.7273	5.e-002	9.9189
16864	7.9411	4.4545	0.	3919.9
16865	7.8488	4.5455	0.	3948.3
16866	7.9411	4.5455	5.e-002	9.9267
16867	7.9411	4.2727	0.	3914.1
16868	7.8488	4.3636	0.	3941.9
16869	7.9411	4.3636	5.e-002	9.9328
16870	7.9411	4.0909	0.	3909.
16871	7.8488	4.1818	0.	3936.3
16872	7.9411	4.1818	5.e-002	9.9375
16873	7.9411	3.9091	0.	3904.5
16874	7.8488	4.	0.	3931.3
16875	7.9411	4.	5.e-002	9.941
16876	7.9411	3.7273	0.	3900.9
16877	7.8488	3.8182	0.	3927.1
16878	7.9411	3.8182	5.e-002	9.9434
16879	7.9411	3.5455	0.	3898.
16880	7.8488	3.6364	0.	3923.7
16881	7.9411	3.6364	5.e-002	9.9452
16882	7.9411	3.3636	0.	3895.9
16883	7.8488	3.4545	0.	3921.1
16884	7.9411	3.4545	5.e-002	9.9463
16885	7.9411	3.1818	0.	3894.7
16886	7.8488	3.2727	0.	3919.4
16887	7.9411	3.2727	5.e-002	9.947
16888	7.9411	3.	0.	3894.3
16889	7.8488	3.0909	0.	3918.5
16890	7.9411	3.0909	5.e-002	9.9473
16891	7.9411	2.8182	0.	3894.7
16892	7.8488	2.9091	0.	3918.5
16893	7.9411	2.9091	5.e-002	9.9473
16894	7.9411	2.6364	0.	3895.9
16895	7.8488	2.7273	0.	3919.4
16896	7.9411	2.7273	5.e-002	9.947
16897	7.9411	2.4545	0.	3898.
16898	7.8488	2.5455	0.	3921.1
16899	7.9411	2.5455	5.e-002	9.9463
16900	7.9411	2.2727	0.	3900.9
16901	7.8488	2.3636	0.	3923.7
16902	7.9411	2.3636	5.e-002	9.9452
16903	7.9411	2.0909	0.	3904.5
16904	7.8488	2.1818	0.	3927.1
16905	7.9411	2.1818	5.e-002	9.9434
16906	7.9411	1.9091	0.	3909.
16907	7.8488	2.	0.	3931.3
16908	7.9411	2.	5.e-002	9.941
16909	7.9411	1.7273	0.	3914.1
16910	7.8488	1.8182	0.	3936.3
16911	7.9411	1.8182	5.e-002	9.9375
16912	7.9411	1.5455	0.	3919.9
16913	7.8488	1.6364	0.	3941.9
16914	7.9411	1.6364	5.e-002	9.9328
16915	7.9411	1.3636	0.	3926.3
16916	7.8488	1.4545	0.	3948.3
16917	7.9411	1.4545	5.e-002	9.9267
16918	7.9411	1.1818	0.	3933.3
16919	7.8488	1.2727	0.	3955.3
16920	7.9411	1.2727	5.e-002	9.9189
16921	7.9411	1.	0.	3940.8
16922	7.8488	1.0909	0.	3962.9
16923	7.9411	1.0909	5.e-002	9.9091
16924	7.9411	0.81818	0.	3948.8
16925	7.8488	0.90909	0.	3971.
16926	7.9411	0.90909	5.e-002	9.897
16927	7.9411	0.63636	0.	3957.3
16928	7.8488	0.72727	0.	3979.5
16929	7.9411	0.72727	5.e-002	9.8809
16930	7.9411	0.45455	0.	3966.
16931	7.8488	0.54545	0.	3988.5
16932	7.9411	0.54545	5.e-002	9.8371
16933	7.9411	0.27273	0.	3975.6
16934	7.8488	0.36364	0.	3997.8
16935	7.9411	0.36364	5.e-002	9.4068
16936	7.8488	0.18182	0.	4008.3
16937	7.9411	0.18182	5.e-002	3.2365
16938	7.9411	9.0909e-002	0.	3981.4
16939	7.7565	5.7273	0.	4030.4
16940	7.6641	5.8182	0.	4063.5
16941	7.7565	5.8182	5.e-002	3.5599
16942	7.7565	5.9091	0.	4037.
16943	7.7565	5.5455	0.	4020.2
16944	7.6641	5.6364	0.	4052.4
16945	7.7565	5.6364	5.e-002	9.5067
16946	7.7565	5.3636	0.	4010.7
16947	7.6641	5.4545	0.	4042.3
16948	7.7565	5.4545	5.e-002	9.9237
16949	7.7565	5.1818	0.	4001.6
16950	7.6641	5.2727	0.	4032.7
16951	7.7565	5.2727	5.e-002	9.9673
16952	7.7565	5.	0.	3993.
16953	7.6641	5.0909	0.	4023.5
16954	7.7565	5.0909	5.e-002	9.9839
16955	7.7565	4.8182	0.	3984.9
16956	7.6641	4.9091	0.	4014.8
16957	7.7565	4.9091	5.e-002	9.9963
16958	7.7565	4.6364	0.	3977.3
16959	7.6641	4.7273	0.	4006.6
16960	7.7565	4.7273	5.e-002	10.006
16961	7.7565	4.4545	0.	3970.4
16962	7.6641	4.5455	0.	3999.
16963	7.7565	4.5455	5.e-002	10.014
16964	7.7565	4.2727	0.	3964.1
16965	7.6641	4.3636	0.	3992.2
16966	7.7565	4.3636	5.e-002	10.02
16967	7.7565	4.0909	0.	3958.6
16968	7.6641	4.1818	0.	3986.
16969	7.7565	4.1818	5.e-002	10.024
16970	7.7565	3.9091	0.	3953.8
16971	7.6641	4.	0.	3980.6
16972	7.7565	4.	5.e-002	10.027
16973	7.7565	3.7273	0.	3949.9
16974	7.6641	3.8182	0.	3976.1
16975	7.7565	3.8182	5.e-002	10.029
16976	7.7565	3.5455	0.	3946.8
16977	7.6641	3.6364	0.	3972.4
16978	7.7565	3.6364	5.e-002	10.031
16979	7.7565	3.3636	0.	3944.5
16980	7.6641	3.4545	0.	3969.6
16981	7.7565	3.4545	5.e-002	10.032
16982	7.7565	3.1818	0.	3943.2
16983	7.6641	3.2727	0.	3967.7
16984	7.7565	3.2727	5.e-002	10.032
16985	7.7565	3.	0.	3942.7
16986	7.6641	3.0909	0.	3966.8
16987	7.7565	3.0909	5.e-002	10.032
16988	7.7565	2.8182	0.	3943.2
16989	7.6641	2.9091	0.	3966.8
16990	7.7565	2.9091	5.e-002	10.032
16991	7.7565	2.6364	0.	3944.5
16992	7.6641	2.7273	0.	3967.7
16993	7.7565	2.7273	5.e-002	10.032
16994	7.7565	2.4545	0.	3946.8
16995	7.6641	2.5455	0.	3969.6
16996	7.7565	2.5455	5.e-002	10.032
16997	7.7565	2.2727	0.	3949.9
16998	7.6641	2.3636	0.	3972.4
16999	7.7565	2.3636	5.e-002	10.031
17000	7.7565	2.0909	0.	3953.8
17001	7.6641	2.1818	0.	3976.1
17002	7.7565	2.1818	5.e-002	10.029
17003	7.7565	1.9091	0.	3958.6
17004	7.6641	2.	0.	3980.6
17005	7.7565	2.	5.e-002	10.027
17006	7.7565	1.7273	0.	3964.1
17007	7.6641	1.8182	0.	3986.
17008	7.7565	1.8182	5.e-002	10.024
17009	7.7565	1.5455	0.	3970.4
17010	7.6641	1.6364	0.	3992.2
17011	7.7565	1.6364	5.e-002	10.02
17012	7.7565	1.3636	0.	3977.3
17013	7.6641	1.4545	0.	3999.
17014	7.7565	1.4545	5.e-002	10.014
17015	7.7565	1.1818	0.	3984.9
17016	7.6641	1.2727	0.	4006.6
17017	7.7565	1.2727	5.e-002	10.006
17018	7.7565	1.	0.	3993.
17019	7.6641	1.0909	0.	4014.8
17020	7.7565	1.0909	5.e-002	9.9963
17021	7.7565	0.81818	0.	4001.6
17022	7.6641	0.90909	0.	4023.5
17023	7.7565	0.90909	5.e-002	9.9839
17024	7.7565	0.63636	0.	4010.7
17025	7.6641	0.72727	0.	4032.7
17026	7.7565	0.72727	5.e-002	9.9673
17027	7.7565	0.45455	0.	4020.2
17028	7.6641	0.54545	0.	4042.3
17029	7.7565	0.54545	5.e-002	9.9237
17030	7.7565	0.27273	0.	4030.4
17031	7.6641	0.36364	0.	4052.4
17032	7.7565	0.36364	5.e-002	9.5067
17033	7.6641	0.18182	0.	4063.5
17034	7.7565	0.18182	5.e-002	3.5599
17035	7.7565	9.0909e-002	0.	4037.
17036	7.5718	5.7273	0.	4085.4
17037	7.4794	5.8182	0.	4119.1
17038	7.5718	5.8182	5.e-002	3.9104
17039	7.5718	5.9091	0.	4093.
17040	7.5718	5.5455	0.	4074.5
17041	7.4794	5.6364	0.	4107.2
17042	7.5718	5.6364	5.e-002	9.6137
17043	7.5718	5.3636	0.	4064.3
17044	7.4794	5.4545	0.	4096.4
17045	7.5718	5.4545	5.e-002	10.016
17046	7.5718	5.1818	0.	4054.5
17047	7.4794	5.2727	0.	4086.
17048	7.5718	5.2727	5.e-002	10.059
17049	7.5718	5.	0.	4045.2
17050	7.4794	5.0909	0.	4076.1
17051	7.5718	5.0909	5.e-002	10.076
17052	7.5718	4.8182	0.	4036.5
17053	7.4794	4.9091	0.	4066.7
17054	7.5718	4.9091	5.e-002	10.089
17055	7.5718	4.6364	0.	4028.3
17056	7.4794	4.7273	0.	4057.8
17057	7.5718	4.7273	5.e-002	10.099
17058	7.5718	4.4545	0.	4020.8
17059	7.4794	4.5455	0.	4049.7
17060	7.5718	4.5455	5.e-002	10.106
17061	7.5718	4.2727	0.	4014.
17062	7.4794	4.3636	0.	4042.2
17063	7.5718	4.3636	5.e-002	10.112
17064	7.5718	4.0909	0.	4008.1
17065	7.4794	4.1818	0.	4035.6
17066	7.5718	4.1818	5.e-002	10.116
17067	7.5718	3.9091	0.	4002.9
17068	7.4794	4.	0.	4029.8
17069	7.5718	4.	5.e-002	10.118
17070	7.5718	3.7273	0.	3998.6
17071	7.4794	3.8182	0.	4024.9
17072	7.5718	3.8182	5.e-002	10.12
17073	7.5718	3.5455	0.	3995.3
17074	7.4794	3.6364	0.	4020.9
17075	7.5718	3.6364	5.e-002	10.121
17076	7.5718	3.3636	0.	3992.8
17077	7.4794	3.4545	0.	4017.9
17078	7.5718	3.4545	5.e-002	10.121
17079	7.5718	3.1818	0.	3991.4
17080	7.4794	3.2727	0.	4015.9
17081	7.5718	3.2727	5.e-002	10.122
17082	7.5718	3.	0.	3990.9
17083	7.4794	3.0909	0.	4014.8
17084	7.5718	3.0909	5.e-002	10.122
17085	7.5718	2.8182	0.	3991.4
17086	7.4794	2.9091	0.	4014.8
17087	7.5718	2.9091	5.e-002	10.122
17088	7.5718	2.6364	0.	3992.8
17089	7.4794	2.7273	0.	4015.9
17090	7.5718	2.7273	5.e-002	10.122
17091	7.5718	2.4545	0.	3995.3
17092	7.4794	2.5455	0.	4017.9
17093	7.5718	2.5455	5.e-002	10.121
17094	7.5718	2.2727	0.	3998.6
17095	7.4794	2.3636	0.	4020.9
17096	7.5718	2.3636	5.e-002	10.121
17097	7.5718	2.0909	0.	4002.9
17098	7.4794	2.1818	0.	4024.9
17099	7.5718	2.1818	5.e-002	10.12
17100	7.5718	1.9091	0.	4008.1
17101	7.4794	2.	0.	4029.8
17102	7.5718	2.	5.e-002	10.118
17103	7.5718	1.7273	0.	4014.
17104	7.4794	1.8182	0.	4035.6
17105	7.5718	1.8182	5.e-002	10.116
17106	7.5718	1.5455	0.	4020.8
17107	7.4794	1.6364	0.	4042.2
17108	7.5718	1.6364	5.e-002	10.112
17109	7.5718	1.3636	0.	4028.3
17110	7.4794	1.4545	0.	4049.7
17111	7.5718	1.4545	5.e-002	10.106
17112	7.5718	1.1818	0.	4036.5
17113	7.4794	1.2727	0.	4057.8
17114	7.5718	1.2727	5.e-002	10.099
17115	7.5718	1.	0.	4045.2
17116	7.4794	1.0909	0.	4066.7
17117	7.5718	1.0909	5.e-002	10.089
17118	7.5718	0.81818	0.	4054.5
17119	7.4794	0.90909	0.	4076.1
17120	7.5718	0.90909	5.e-002	10.076
17121	7.5718	0.63636	0.	4064.3
17122	7.4794	0.72727	0.	4086.
17123	7.5718	0.72727	5.e-002	10.059
17124	7.5718	0.45455	0.	4074.5
17125	7.4794	0.54545	0.	4096.4
17126	7.5718	0.54545	5.e-002	10.016
17127	7.5718	0.27273	0.	4085.4
17128	7.4794	0.36364	0.	4107.2
17129	7.5718	0.36364	5.e-002	9.6137
17130	7.4794	0.18182	0.	4119.1
17131	7.5718	0.18182	5.e-002	3.9104
17132	7.5718	9.0909e-002	0.	4093.
17133	7.3871	5.7273	0.	4140.8
17134	7.2948	5.8182	0.	4175.
17135	7.3871	5.8182	5.e-002	4.2901
17136	7.3871	5.9091	0.	4149.3
17137	7.3871	5.5455	0.	4129.1
17138	7.2948	5.6364	0.	4162.3
17139	7.3871	5.6364	5.e-002	9.7284
17140	7.3871	5.3636	0.	4118.1
17141	7.2948	5.4545	0.	4150.7
17142	7.3871	5.4545	5.e-002	10.114
17143	7.3871	5.1818	0.	4107.6
17144	7.2948	5.2727	0.	4139.5
17145	7.3871	5.2727	5.e-002	10.157
17146	7.3871	5.	0.	4097.5
17147	7.2948	5.0909	0.	4128.8
17148	7.3871	5.0909	5.e-002	10.175
17149	7.3871	4.8182	0.	4088.
17150	7.2948	4.9091	0.	4118.6
17151	7.3871	4.9091	5.e-002	10.187
17152	7.3871	4.6364	0.	4079.2
17153	7.2948	4.7273	0.	4109.
17154	7.3871	4.7273	5.e-002	10.197
17155	7.3871	4.4545	0.	4071.1
17156	7.2948	4.5455	0.	4100.2
17157	7.3871	4.5455	5.e-002	10.204
17158	7.3871	4.2727	0.	4063.8
17159	7.2948	4.3636	0.	4092.2
17160	7.3871	4.3636	5.e-002	10.209
17161	7.3871	4.0909	0.	4057.3
17162	7.2948	4.1818	0.	4085.
17163	7.3871	4.1818	5.e-002	10.213
17164	7.3871	3.9091	0.	4051.8
17165	7.2948	4.	0.	4078.7
17166	7.3871	4.	5.e-002	10.215
17167	7.3871	3.7273	0.	4047.1
17168	7.2948	3.8182	0.	4073.4
17169	7.3871	3.8182	5.e-002	10.216
17170	7.3871	3.5455	0.	4043.5
17171	7.2948	3.6364	0.	4069.1
17172	7.3871	3.6364	5.e-002	10.216
17173	7.3871	3.3636	0.	4040.9
17174	7.2948	3.4545	0.	4065.8
17175	7.3871	3.4545	5.e-002	10.216
17176	7.3871	3.1818	0.	4039.3
17177	7.2948	3.2727	0.	4063.6
17178	7.3871	3.2727	5.e-002	10.216
17179	7.3871	3.	0.	4038.8
17180	7.2948	3.0909	0.	4062.5
17181	7.3871	3.0909	5.e-002	10.216
17182	7.3871	2.8182	0.	4039.3
17183	7.2948	2.9091	0.	4062.5
17184	7.3871	2.9091	5.e-002	10.216
17185	7.3871	2.6364	0.	4040.9
17186	7.2948	2.7273	0.	4063.6
17187	7.3871	2.7273	5.e-002	10.216
17188	7.3871	2.4545	0.	4043.5
17189	7.2948	2.5455	0.	4065.8
17190	7.3871	2.5455	5.e-002	10.216
17191	7.3871	2.2727	0.	4047.1
17192	7.2948	2.3636	0.	4069.1
17193	7.3871	2.3636	5.e-002	10.216
17194	7.3871	2.0909	0.	4051.8
17195	7.2948	2.1818	0.	4073.4
17196	7.3871	2.1818	5.e-002	10.216
17197	7.3871	1.9091	0.	4057.3
17198	7.2948	2.	0.	4078.7
17199	7.3871	2.	5.e-002	10.215
17200	7.3871	1.7273	0.	4063.8
17201	7.2948	1.8182	0.	4085.
17202	7.3871	1.8182	5.e-002	10.213
17203	7.3871	1.5455	0.	4071.1
17204	7.2948	1.6364	0.	4092.2
17205	7.3871	1.6364	5.e-002	10.209
17206	7.3871	1.3636	0.	4079.2
17207	7.2948	1.4545	0.	4100.2
17208	7.3871	1.4545	5.e-002	10.204
17209	7.3871	1.1818	0.	4088.
17210	7.2948	1.2727	0.	4109.
17211	7.3871	1.2727	5.e-002	10.197
17212	7.3871	1.	0.	4097.5
17213	7.2948	1.0909	0.	4118.6
17214	7.3871	1.0909	5.e-002	10.187
17215	7.3871	0.81818	0.	4107.6
17216	7.2948	0.90909	0.	4128.8
17217	7.3871	0.90909	5.e-002	10.175
17218	7.3871	0.63636	0.	4118.1
17219	7.2948	0.72727	0.	4139.5
17220	7.3871	0.72727	5.e-002	10.157
17221	7.3871	0.45455	0.	4129.1
17222	7.2948	0.54545	0.	4150.7
17223	7.3871	0.54545	5.e-002	10.114
17224	7.3871	0.27273	0.	4140.8
17225	7.2948	0.36364	0.	4162.3
17226	7.3871	0.36364	5.e-002	9.7284
17227	7.2948	0.18182	0.	4175.
17228	7.3871	0.18182	5.e-002	4.2901
17229	7.3871	9.0909e-002	0.	4149.3
17230	7.2024	5.7273	0.	4196.4
17231	7.1101	5.8182	0.	4231.2
17232	7.2024	5.8182	5.e-002	4.7012
17233	7.2024	5.9091	0.	4206.
17234	7.2024	5.5455	0.	4183.9
17235	7.1101	5.6364	0.	4217.7
17236	7.2024	5.6364	5.e-002	9.8516
17237	7.2024	5.3636	0.	4172.
17238	7.1101	5.4545	0.	4205.1
17239	7.2024	5.4545	5.e-002	10.22
17240	7.2024	5.1818	0.	4160.7
17241	7.1101	5.2727	0.	4193.1
17242	7.2024	5.2727	5.e-002	10.262
17243	7.2024	5.	0.	4149.8
17244	7.1101	5.0909	0.	4181.5
17245	7.2024	5.0909	5.e-002	10.28
17246	7.2024	4.8182	0.	4139.6
17247	7.1101	4.9091	0.	4170.5
17248	7.2024	4.9091	5.e-002	10.293
17249	7.2024	4.6364	0.	4130.1
17250	7.1101	4.7273	0.	4160.2
17251	7.2024	4.7273	5.e-002	10.302
17252	7.2024	4.4545	0.	4121.3
17253	7.1101	4.5455	0.	4150.7
17254	7.2024	4.5455	5.e-002	10.309
17255	7.2024	4.2727	0.	4113.4
17256	7.1101	4.3636	0.	4142.
17257	7.2024	4.3636	5.e-002	10.313
17258	7.2024	4.0909	0.	4106.4
17259	7.1101	4.1818	0.	4134.2
17260	7.2024	4.1818	5.e-002	10.316
17261	7.2024	3.9091	0.	4100.4
17262	7.1101	4.	0.	4127.4
17263	7.2024	4.	5.e-002	10.317
17264	7.2024	3.7273	0.	4095.4
17265	7.1101	3.8182	0.	4121.6
17266	7.2024	3.8182	5.e-002	10.317
17267	7.2024	3.5455	0.	4091.4
17268	7.1101	3.6364	0.	4117.
17269	7.2024	3.6364	5.e-002	10.317
17270	7.2024	3.3636	0.	4088.6
17271	7.1101	3.4545	0.	4113.4
17272	7.2024	3.4545	5.e-002	10.316
17273	7.2024	3.1818	0.	4086.9
17274	7.1101	3.2727	0.	4111.1
17275	7.2024	3.2727	5.e-002	10.316
17276	7.2024	3.	0.	4086.3
17277	7.1101	3.0909	0.	4109.9
17278	7.2024	3.0909	5.e-002	10.316
17279	7.2024	2.8182	0.	4086.9
17280	7.1101	2.9091	0.	4109.9
17281	7.2024	2.9091	5.e-002	10.316
17282	7.2024	2.6364	0.	4088.6
17283	7.1101	2.7273	0.	4111.1
17284	7.2024	2.7273	5.e-002	10.316
17285	7.2024	2.4545	0.	4091.4
17286	7.1101	2.5455	0.	4113.4
17287	7.2024	2.5455	5.e-002	10.316
17288	7.2024	2.2727	0.	4095.4
17289	7.1101	2.3636	0.	4117.
17290	7.2024	2.3636	5.e-002	10.317
17291	7.2024	2.0909	0.	4100.4
17292	7.1101	2.1818	0.	4121.6
17293	7.2024	2.1818	5.e-002	10.317
17294	7.2024	1.9091	0.	4106.4
17295	7.1101	2.	0.	4127.4
17296	7.2024	2.	5.e-002	10.317
17297	7.2024	1.7273	0.	4113.4
17298	7.1101	1.8182	0.	4134.2
17299	7.2024	1.8182	5.e-002	10.316
17300	7.2024	1.5455	0.	4121.3
17301	7.1101	1.6364	0.	4142.
17302	7.2024	1.6364	5.e-002	10.313
17303	7.2024	1.3636	0.	4130.1
17304	7.1101	1.4545	0.	4150.7
17305	7.2024	1.4545	5.e-002	10.309
17306	7.2024	1.1818	0.	4139.6
17307	7.1101	1.2727	0.	4160.2
17308	7.2024	1.2727	5.e-002	10.302
17309	7.2024	1.	0.	4149.8
17310	7.1101	1.0909	0.	4170.5
17311	7.2024	1.0909	5.e-002	10.293
17312	7.2024	0.81818	0.	4160.7
17313	7.1101	0.90909	0.	4181.5
17314	7.2024	0.90909	5.e-002	10.28
17315	7.2024	0.63636	0.	4172.
17316	7.1101	0.72727	0.	4193.1
17317	7.2024	0.72727	5.e-002	10.262
17318	7.2024	0.45455	0.	4183.9
17319	7.1101	0.54545	0.	4205.1
17320	7.2024	0.54545	5.e-002	10.22
17321	7.2024	0.27273	0.	4196.4
17322	7.1101	0.36364	0.	4217.7
17323	7.2024	0.36364	5.e-002	9.8516
17324	7.1101	0.18182	0.	4231.2
17325	7.2024	0.18182	5.e-002	4.7012
17326	7.2024	9.0909e-002	0.	4206.
17327	7.0177	5.7273	0.	4252.4
17328	6.9254	5.8182	0.	4287.8
17329	7.0177	5.8182	5.e-002	5.1463
17330	7.0177	5.9091	0.	4263.
17331	7.0177	5.5455	0.	4238.9
17332	6.9254	5.6364	0.	4273.3
17333	7.0177	5.6364	5.e-002	9.9843
17334	7.0177	5.3636	0.	4226.1
17335	6.9254	5.4545	0.	4259.8
17336	7.0177	5.4545	5.e-002	10.333
17337	7.0177	5.1818	0.	4213.9
17338	6.9254	5.2727	0.	4246.8
17339	7.0177	5.2727	5.e-002	10.375
17340	7.0177	5.	0.	4202.1
17341	6.9254	5.0909	0.	4234.3
17342	7.0177	5.0909	5.e-002	10.393
17343	7.0177	4.8182	0.	4191.1
17344	6.9254	4.9091	0.	4222.4
17345	7.0177	4.9091	5.e-002	10.405
17346	7.0177	4.6364	0.	4180.8
17347	6.9254	4.7273	0.	4211.3
17348	7.0177	4.7273	5.e-002	10.414
17349	7.0177	4.4545	0.	4171.3
17350	6.9254	4.5455	0.	4200.9
17351	7.0177	4.5455	5.e-002	10.42
17352	7.0177	4.2727	0.	4162.8
17353	6.9254	4.3636	0.	4191.5
17354	7.0177	4.3636	5.e-002	10.424
17355	7.0177	4.0909	0.	4155.2
17356	6.9254	4.1818	0.	4183.1
17357	7.0177	4.1818	5.e-002	10.425
17358	7.0177	3.9091	0.	4148.7
17359	6.9254	4.	0.	4175.8
17360	7.0177	4.	5.e-002	10.426
17361	7.0177	3.7273	0.	4143.3
17362	6.9254	3.8182	0.	4169.6
17363	7.0177	3.8182	5.e-002	10.425
17364	7.0177	3.5455	0.	4139.
17365	6.9254	3.6364	0.	4164.5
17366	7.0177	3.6364	5.e-002	10.424
17367	7.0177	3.3636	0.	4135.9
17368	6.9254	3.4545	0.	4160.7
17369	7.0177	3.4545	5.e-002	10.423
17370	7.0177	3.1818	0.	4134.1
17371	6.9254	3.2727	0.	4158.1
17372	7.0177	3.2727	5.e-002	10.422
17373	7.0177	3.	0.	4133.5
17374	6.9254	3.0909	0.	4156.8
17375	7.0177	3.0909	5.e-002	10.421
17376	7.0177	2.8182	0.	4134.1
17377	6.9254	2.9091	0.	4156.8
17378	7.0177	2.9091	5.e-002	10.421
17379	7.0177	2.6364	0.	4135.9
17380	6.9254	2.7273	0.	4158.1
17381	7.0177	2.7273	5.e-002	10.422
17382	7.0177	2.4545	0.	4139.
17383	6.9254	2.5455	0.	4160.7
17384	7.0177	2.5455	5.e-002	10.423
17385	7.0177	2.2727	0.	4143.3
17386	6.9254	2.3636	0.	4164.5
17387	7.0177	2.3636	5.e-002	10.424
17388	7.0177	2.0909	0.	4148.7
17389	6.9254	2.1818	0.	4169.6
17390	7.0177	2.1818	5.e-002	10.425
17391	7.0177	1.9091	0.	4155.2
17392	6.9254	2.	0.	4175.8
17393	7.0177	2.	5.e-002	10.426
17394	7.0177	1.7273	0.	4162.8
17395	6.9254	1.8182	0.	4183.1
17396	7.0177	1.8182	5.e-002	10.425
17397	7.0177	1.5455	0.	4171.3
17398	6.9254	1.6364	0.	4191.5
17399	7.0177	1.6364	5.e-002	10.424
17400	7.0177	1.3636	0.	4180.8
17401	6.9254	1.4545	0.	4200.9
17402	7.0177	1.4545	5.e-002	10.42
17403	7.0177	1.1818	0.	4191.1
17404	6.9254	1.2727	0.	4211.3
17405	7.0177	1.2727	5.e-002	10.414
17406	7.0177	1.	0.	4202.1
17407	6.9254	1.0909	0.	4222.4
17408	7.0177	1.0909	5.e-002	10.405
17409	7.0177	0.81818	0.	4213.9
17410	6.9254	0.90909	0.	4234.3
17411	7.0177	0.90909	5.e-002	10.393
17412	7.0177	0.63636	0.	4226.1
17413	6.9254	0.72727	0.	4246.8
17414	7.0177	0.72727	5.e-002	10.375
17415	7.0177	0.45455	0.	4238.9
17416	6.9254	0.54545	0.	4259.8
17417	7.0177	0.54545	5.e-002	10.333
17418	7.0177	0.27273	0.	4252.4
17419	6.9254	0.36364	0.	4273.3
17420	7.0177	0.36364	5.e-002	9.9843
17421	6.9254	0.18182	0.	4287.8
17422	7.0177	0.18182	5.e-002	5.1463
17423	7.0177	9.0909e-002	0.	4263.
17424	6.8331	5.7273	0.	4308.7
17425	6.7407	5.8182	0.	4344.8
17426	6.8331	5.8182	5.e-002	5.6281
17427	6.8331	5.9091	0.	4320.5
17428	6.8331	5.5455	0.	4294.2
17429	6.7407	5.6364	0.	4329.3
17430	6.8331	5.6364	5.e-002	10.127
17431	6.8331	5.3636	0.	4280.4
17432	6.7407	5.4545	0.	4314.7
17433	6.8331	5.4545	5.e-002	10.455
17434	6.8331	5.1818	0.	4267.2
17435	6.7407	5.2727	0.	4300.6
17436	6.8331	5.2727	5.e-002	10.496
17437	6.8331	5.	0.	4254.5
17438	6.7407	5.0909	0.	4287.1
17439	6.8331	5.0909	5.e-002	10.514
17440	6.8331	4.8182	0.	4242.6
17441	6.7407	4.9091	0.	4274.3
17442	6.8331	4.9091	5.e-002	10.526
17443	6.8331	4.6364	0.	4231.4
17444	6.7407	4.7273	0.	4262.2
17445	6.8331	4.7273	5.e-002	10.534
17446	6.8331	4.4545	0.	4221.2
17447	6.7407	4.5455	0.	4251.1
17448	6.8331	4.5455	5.e-002	10.539
17449	6.8331	4.2727	0.	4211.9
17450	6.7407	4.3636	0.	4240.9
17451	6.8331	4.3636	5.e-002	10.542
17452	6.8331	4.0909	0.	4203.7
17453	6.7407	4.1818	0.	4231.8
17454	6.8331	4.1818	5.e-002	10.543
17455	6.8331	3.9091	0.	4196.7
17456	6.7407	4.	0.	4223.9
17457	6.8331	4.	5.e-002	10.542
17458	6.8331	3.7273	0.	4190.8
17459	6.7407	3.8182	0.	4217.1
17460	6.8331	3.8182	5.e-002	10.54
17461	6.8331	3.5455	0.	4186.2
17462	6.7407	3.6364	0.	4211.6
17463	6.8331	3.6364	5.e-002	10.538
17464	6.8331	3.3636	0.	4182.9
17465	6.7407	3.4545	0.	4207.5
17466	6.8331	3.4545	5.e-002	10.536
17467	6.8331	3.1818	0.	4180.9
17468	6.7407	3.2727	0.	4204.7
17469	6.8331	3.2727	5.e-002	10.534
17470	6.8331	3.	0.	4180.2
17471	6.7407	3.0909	0.	4203.3
17472	6.8331	3.0909	5.e-002	10.534
17473	6.8331	2.8182	0.	4180.9
17474	6.7407	2.9091	0.	4203.3
17475	6.8331	2.9091	5.e-002	10.534
17476	6.8331	2.6364	0.	4182.9
17477	6.7407	2.7273	0.	4204.7
17478	6.8331	2.7273	5.e-002	10.534
17479	6.8331	2.4545	0.	4186.2
17480	6.7407	2.5455	0.	4207.5
17481	6.8331	2.5455	5.e-002	10.536
17482	6.8331	2.2727	0.	4190.8
17483	6.7407	2.3636	0.	4211.6
17484	6.8331	2.3636	5.e-002	10.538
17485	6.8331	2.0909	0.	4196.7
17486	6.7407	2.1818	0.	4217.1
17487	6.8331	2.1818	5.e-002	10.54
17488	6.8331	1.9091	0.	4203.7
17489	6.7407	2.	0.	4223.9
17490	6.8331	2.	5.e-002	10.542
17491	6.8331	1.7273	0.	4211.9
17492	6.7407	1.8182	0.	4231.8
17493	6.8331	1.8182	5.e-002	10.543
17494	6.8331	1.5455	0.	4221.2
17495	6.7407	1.6364	0.	4240.9
17496	6.8331	1.6364	5.e-002	10.542
17497	6.8331	1.3636	0.	4231.4
17498	6.7407	1.4545	0.	4251.1
17499	6.8331	1.4545	5.e-002	10.539
17500	6.8331	1.1818	0.	4242.6
17501	6.7407	1.2727	0.	4262.2
17502	6.8331	1.2727	5.e-002	10.534
17503	6.8331	1.	0.	4254.5
17504	6.7407	1.0909	0.	4274.3
17505	6.8331	1.0909	5.e-002	10.526
17506	6.8331	0.81818	0.	4267.2
17507	6.7407	0.90909	0.	4287.1
17508	6.8331	0.90909	5.e-002	10.514
17509	6.8331	0.63636	0.	4280.4
17510	6.7407	0.72727	0.	4300.6
17511	6.8331	0.72727	5.e-002	10.496
17512	6.8331	0.45455	0.	4294.2
17513	6.7407	0.54545	0.	4314.7
17514	6.8331	0.54545	5.e-002	10.455
17515	6.8331	0.27273	0.	4308.7
17516	6.7407	0.36364	0.	4329.3
17517	6.8331	0.36364	5.e-002	10.127
17518	6.7407	0.18182	0.	4344.8
17519	6.8331	0.18182	5.e-002	5.6281
17520	6.8331	9.0909e-002	0.	4320.5
17521	6.6484	5.7273	0.	4365.3
17522	6.556	5.8182	0.	4402.1
17523	6.6484	5.8182	5.e-002	6.1492
17524	6.6484	5.9091	0.	4378.3
17525	6.6484	5.5455	0.	4349.7
17526	6.556	5.6364	0.	4385.5
17527	6.6484	5.6364	5.e-002	10.282
17528	6.6484	5.3636	0.	4334.9
17529	6.556	5.4545	0.	4369.8
17530	6.6484	5.4545	5.e-002	10.586
17531	6.6484	5.1818	0.	4320.5
17532	6.556	5.2727	0.	4354.6
17533	6.6484	5.2727	5.e-002	10.626
17534	6.6484	5.	0.	4306.9
17535	6.556	5.0909	0.	4340.
17536	6.6484	5.0909	5.e-002	10.644
17537	6.6484	4.8182	0.	4293.9
17538	6.556	4.9091	0.	4326.1
17539	6.6484	4.9091	5.e-002	10.656
17540	6.6484	4.6364	0.	4281.9
17541	6.556	4.7273	0.	4313.1
17542	6.6484	4.7273	5.e-002	10.663
17543	6.6484	4.4545	0.	4270.8
17544	6.556	4.5455	0.	4301.
17545	6.6484	4.5455	5.e-002	10.667
17546	6.6484	4.2727	0.	4260.8
17547	6.556	4.3636	0.	4290.
17548	6.6484	4.3636	5.e-002	10.669
17549	6.6484	4.0909	0.	4251.9
17550	6.556	4.1818	0.	4280.2
17551	6.6484	4.1818	5.e-002	10.668
17552	6.6484	3.9091	0.	4244.3
17553	6.556	4.	0.	4271.6
17554	6.6484	4.	5.e-002	10.666
17555	6.6484	3.7273	0.	4238.
17556	6.556	3.8182	0.	4264.3
17557	6.6484	3.8182	5.e-002	10.662
17558	6.6484	3.5455	0.	4233.
17559	6.556	3.6364	0.	4258.3
17560	6.6484	3.6364	5.e-002	10.659
17561	6.6484	3.3636	0.	4229.4
17562	6.556	3.4545	0.	4253.9
17563	6.6484	3.4545	5.e-002	10.656
17564	6.6484	3.1818	0.	4227.2
17565	6.556	3.2727	0.	4250.8
17566	6.6484	3.2727	5.e-002	10.654
17567	6.6484	3.	0.	4226.5
17568	6.556	3.0909	0.	4249.3
17569	6.6484	3.0909	5.e-002	10.653
17570	6.6484	2.8182	0.	4227.2
17571	6.556	2.9091	0.	4249.3
17572	6.6484	2.9091	5.e-002	10.653
17573	6.6484	2.6364	0.	4229.4
17574	6.556	2.7273	0.	4250.8
17575	6.6484	2.7273	5.e-002	10.654
17576	6.6484	2.4545	0.	4233.
17577	6.556	2.5455	0.	4253.9
17578	6.6484	2.5455	5.e-002	10.656
17579	6.6484	2.2727	0.	4238.
17580	6.556	2.3636	0.	4258.3
17581	6.6484	2.3636	5.e-002	10.659
17582	6.6484	2.0909	0.	4244.3
17583	6.556	2.1818	0.	4264.3
17584	6.6484	2.1818	5.e-002	10.662
17585	6.6484	1.9091	0.	4251.9
17586	6.556	2.	0.	4271.6
17587	6.6484	2.	5.e-002	10.666
17588	6.6484	1.7273	0.	4260.8
17589	6.556	1.8182	0.	4280.2
17590	6.6484	1.8182	5.e-002	10.668
17591	6.6484	1.5455	0.	4270.8
17592	6.556	1.6364	0.	4290.
17593	6.6484	1.6364	5.e-002	10.669
17594	6.6484	1.3636	0.	4281.9
17595	6.556	1.4545	0.	4301.
17596	6.6484	1.4545	5.e-002	10.667
17597	6.6484	1.1818	0.	4293.9
17598	6.556	1.2727	0.	4313.1
17599	6.6484	1.2727	5.e-002	10.663
17600	6.6484	1.	0.	4306.9
17601	6.556	1.0909	0.	4326.1
17602	6.6484	1.0909	5.e-002	10.656
17603	6.6484	0.81818	0.	4320.5
17604	6.556	0.90909	0.	4340.
17605	6.6484	0.90909	5.e-002	10.644
17606	6.6484	0.63636	0.	4334.9
17607	6.556	0.72727	0.	4354.6
17608	6.6484	0.72727	5.e-002	10.626
17609	6.6484	0.45455	0.	4349.7
17610	6.556	0.54545	0.	4369.8
17611	6.6484	0.54545	5.e-002	10.586
17612	6.6484	0.27273	0.	4365.3
17613	6.556	0.36364	0.	4385.5
17614	6.6484	0.36364	5.e-002	10.282
17615	6.556	0.18182	0.	4402.1
17616	6.6484	0.18182	5.e-002	6.1492
17617	6.6484	9.0909e-002	0.	4378.3
17618	6.4637	5.7273	0.	4422.3
17619	6.3714	5.8182	0.	4459.9
17620	6.4637	5.8182	5.e-002	6.7129
17621	6.4637	5.9091	0.	4436.6
17622	6.4637	5.5455	0.	4405.5
17623	6.3714	5.6364	0.	4442.1
17624	6.4637	5.6364	5.e-002	10.449
17625	6.4637	5.3636	0.	4389.5
17626	6.3714	5.4545	0.	4425.1
17627	6.4637	5.4545	5.e-002	10.728
17628	6.4637	5.1818	0.	4374.
17629	6.3714	5.2727	0.	4408.7
17630	6.4637	5.2727	5.e-002	10.767
17631	6.4637	5.	0.	4359.2
17632	6.3714	5.0909	0.	4392.9
17633	6.4637	5.0909	5.e-002	10.784
17634	6.4637	4.8182	0.	4345.3
17635	6.3714	4.9091	0.	4377.9
17636	6.4637	4.9091	5.e-002	10.796
17637	6.4637	4.6364	0.	4332.2
17638	6.3714	4.7273	0.	4363.8
17639	6.4637	4.7273	5.e-002	10.802
17640	6.4637	4.4545	0.	4320.2
17641	6.3714	4.5455	0.	4350.8
17642	6.4637	4.5455	5.e-002	10.805
17643	6.4637	4.2727	0.	4309.4
17644	6.3714	4.3636	0.	4338.9
17645	6.4637	4.3636	5.e-002	10.805
17646	6.4637	4.0909	0.	4299.8
17647	6.3714	4.1818	0.	4328.2
17648	6.4637	4.1818	5.e-002	10.802
17649	6.4637	3.9091	0.	4291.5
17650	6.3714	4.	0.	4318.9
17651	6.4637	4.	5.e-002	10.798
17652	6.4637	3.7273	0.	4284.7
17653	6.3714	3.8182	0.	4311.
17654	6.4637	3.8182	5.e-002	10.794
17655	6.4637	3.5455	0.	4279.3
17656	6.3714	3.6364	0.	4304.6
17657	6.4637	3.6364	5.e-002	10.789
17658	6.4637	3.3636	0.	4275.4
17659	6.3714	3.4545	0.	4299.7
17660	6.4637	3.4545	5.e-002	10.785
17661	6.4637	3.1818	0.	4273.
17662	6.3714	3.2727	0.	4296.4
17663	6.4637	3.2727	5.e-002	10.782
17664	6.4637	3.	0.	4272.2
17665	6.3714	3.0909	0.	4294.8
17666	6.4637	3.0909	5.e-002	10.781
17667	6.4637	2.8182	0.	4273.
17668	6.3714	2.9091	0.	4294.8
17669	6.4637	2.9091	5.e-002	10.781
17670	6.4637	2.6364	0.	4275.4
17671	6.3714	2.7273	0.	4296.4
17672	6.4637	2.7273	5.e-002	10.782
17673	6.4637	2.4545	0.	4279.3
17674	6.3714	2.5455	0.	4299.7
17675	6.4637	2.5455	5.e-002	10.785
17676	6.4637	2.2727	0.	4284.7
17677	6.3714	2.3636	0.	4304.6
17678	6.4637	2.3636	5.e-002	10.789
17679	6.4637	2.0909	0.	4291.5
17680	6.3714	2.1818	0.	4311.
17681	6.4637	2.1818	5.e-002	10.794
17682	6.4637	1.9091	0.	4299.8
17683	6.3714	2.	0.	4318.9
17684	6.4637	2.	5.e-002	10.798
17685	6.4637	1.7273	0.	4309.4
17686	6.3714	1.8182	0.	4328.2
17687	6.4637	1.8182	5.e-002	10.802
17688	6.4637	1.5455	0.	4320.2
17689	6.3714	1.6364	0.	4338.9
17690	6.4637	1.6364	5.e-002	10.805
17691	6.4637	1.3636	0.	4332.2
17692	6.3714	1.4545	0.	4350.8
17693	6.4637	1.4545	5.e-002	10.805
17694	6.4637	1.1818	0.	4345.3
17695	6.3714	1.2727	0.	4363.8
17696	6.4637	1.2727	5.e-002	10.802
17697	6.4637	1.	0.	4359.2
17698	6.3714	1.0909	0.	4377.9
17699	6.4637	1.0909	5.e-002	10.796
17700	6.4637	0.81818	0.	4374.
17701	6.3714	0.90909	0.	4392.9
17702	6.4637	0.90909	5.e-002	10.784
17703	6.4637	0.63636	0.	4389.5
17704	6.3714	0.72727	0.	4408.7
17705	6.4637	0.72727	5.e-002	10.767
17706	6.4637	0.45455	0.	4405.5
17707	6.3714	0.54545	0.	4425.1
17708	6.4637	0.54545	5.e-002	10.728
17709	6.4637	0.27273	0.	4422.3
17710	6.3714	0.36364	0.	4442.1
17711	6.4637	0.36364	5.e-002	10.449
17712	6.3714	0.18182	0.	4459.9
17713	6.4637	0.18182	5.e-002	6.7129
17714	6.4637	9.0909e-002	0.	4436.6
17715	6.279	5.7273	0.	4479.6
17716	6.1867	5.8182	0.	4518.1
17717	6.279	5.8182	5.e-002	7.3222
17718	6.279	5.9091	0.	4495.4
17719	6.279	5.5455	0.	4461.6
17720	6.1867	5.6364	0.	4499.
17721	6.279	5.6364	5.e-002	10.63
17722	6.279	5.3636	0.	4444.3
17723	6.1867	5.4545	0.	4480.6
17724	6.279	5.4545	5.e-002	10.882
17725	6.279	5.1818	0.	4427.5
17726	6.1867	5.2727	0.	4462.9
17727	6.279	5.2727	5.e-002	10.919
17728	6.279	5.	0.	4411.6
17729	6.1867	5.0909	0.	4445.8
17730	6.279	5.0909	5.e-002	10.936
17731	6.279	4.8182	0.	4396.5
17732	6.1867	4.9091	0.	4429.6
17733	6.279	4.9091	5.e-002	10.947
17734	6.279	4.6364	0.	4382.4
17735	6.1867	4.7273	0.	4414.4
17736	6.279	4.7273	5.e-002	10.952
17737	6.279	4.4545	0.	4369.4
17738	6.1867	4.5455	0.	4400.3
17739	6.279	4.5455	5.e-002	10.953
17740	6.279	4.2727	0.	4357.7
17741	6.1867	4.3636	0.	4387.4
17742	6.279	4.3636	5.e-002	10.951
17743	6.279	4.0909	0.	4347.3
17744	6.1867	4.1818	0.	4375.9
17745	6.279	4.1818	5.e-002	10.947
17746	6.279	3.9091	0.	4338.3
17747	6.1867	4.	0.	4365.8
17748	6.279	4.	5.e-002	10.941
17749	6.279	3.7273	0.	4330.9
17750	6.1867	3.8182	0.	4357.2
17751	6.279	3.8182	5.e-002	10.934
17752	6.279	3.5455	0.	4325.
17753	6.1867	3.6364	0.	4350.3
17754	6.279	3.6364	5.e-002	10.928
17755	6.279	3.3636	0.	4320.8
17756	6.1867	3.4545	0.	4345.
17757	6.279	3.4545	5.e-002	10.923
17758	6.279	3.1818	0.	4318.3
17759	6.1867	3.2727	0.	4341.5
17760	6.279	3.2727	5.e-002	10.919
17761	6.279	3.	0.	4317.4
17762	6.1867	3.0909	0.	4339.7
17763	6.279	3.0909	5.e-002	10.917
17764	6.279	2.8182	0.	4318.3
17765	6.1867	2.9091	0.	4339.7
17766	6.279	2.9091	5.e-002	10.917
17767	6.279	2.6364	0.	4320.8
17768	6.1867	2.7273	0.	4341.5
17769	6.279	2.7273	5.e-002	10.919
17770	6.279	2.4545	0.	4325.
17771	6.1867	2.5455	0.	4345.
17772	6.279	2.5455	5.e-002	10.923
17773	6.279	2.2727	0.	4330.9
17774	6.1867	2.3636	0.	4350.3
17775	6.279	2.3636	5.e-002	10.928
17776	6.279	2.0909	0.	4338.3
17777	6.1867	2.1818	0.	4357.2
17778	6.279	2.1818	5.e-002	10.934
17779	6.279	1.9091	0.	4347.3
17780	6.1867	2.	0.	4365.8
17781	6.279	2.	5.e-002	10.941
17782	6.279	1.7273	0.	4357.7
17783	6.1867	1.8182	0.	4375.9
17784	6.279	1.8182	5.e-002	10.947
17785	6.279	1.5455	0.	4369.4
17786	6.1867	1.6364	0.	4387.4
17787	6.279	1.6364	5.e-002	10.951
17788	6.279	1.3636	0.	4382.4
17789	6.1867	1.4545	0.	4400.3
17790	6.279	1.4545	5.e-002	10.953
17791	6.279	1.1818	0.	4396.5
17792	6.1867	1.2727	0.	4414.4
17793	6.279	1.2727	5.e-002	10.952
17794	6.279	1.	0.	4411.6
17795	6.1867	1.0909	0.	4429.6
17796	6.279	1.0909	5.e-002	10.947
17797	6.279	0.81818	0.	4427.5
17798	6.1867	0.90909	0.	4445.8
17799	6.279	0.90909	5.e-002	10.936
17800	6.279	0.63636	0.	4444.3
17801	6.1867	0.72727	0.	4462.9
17802	6.279	0.72727	5.e-002	10.919
17803	6.279	0.45455	0.	4461.6
17804	6.1867	0.54545	0.	4480.6
17805	6.279	0.54545	5.e-002	10.882
17806	6.279	0.27273	0.	4479.6
17807	6.1867	0.36364	0.	4499.
17808	6.279	0.36364	5.e-002	10.63
17809	6.1867	0.18182	0.	4518.1
17810	6.279	0.18182	5.e-002	7.3222
17811	6.279	9.0909e-002	0.	4495.4
17812	6.0944	5.7273	0.	4537.4
17813	6.002	5.8182	0.	4576.8
17814	6.0944	5.8182	5.e-002	7.9805
17815	6.0944	5.9091	0.	4554.6
17816	6.0944	5.5455	0.	4517.9
17817	6.002	5.6364	0.	4556.2
17818	6.0944	5.6364	5.e-002	10.826
17819	6.0944	5.3636	0.	4499.2
17820	6.002	5.4545	0.	4536.4
17821	6.0944	5.4545	5.e-002	11.048
17822	6.0944	5.1818	0.	4481.1
17823	6.002	5.2727	0.	4517.2
17824	6.0944	5.2727	5.e-002	11.084
17825	6.0944	5.	0.	4463.9
17826	6.002	5.0909	0.	4498.8
17827	6.0944	5.0909	5.e-002	11.1
17828	6.0944	4.8182	0.	4447.6
17829	6.002	4.9091	0.	4481.3
17830	6.0944	4.9091	5.e-002	11.11
17831	6.0944	4.6364	0.	4432.3
17832	6.002	4.7273	0.	4464.8
17833	6.0944	4.7273	5.e-002	11.114
17834	6.0944	4.4545	0.	4418.3
17835	6.002	4.5455	0.	4449.5
17836	6.0944	4.5455	5.e-002	11.114
17837	6.0944	4.2727	0.	4405.6
17838	6.002	4.3636	0.	4435.6
17839	6.0944	4.3636	5.e-002	11.109
17840	6.0944	4.0909	0.	4394.3
17841	6.002	4.1818	0.	4423.1
17842	6.0944	4.1818	5.e-002	11.103
17843	6.0944	3.9091	0.	4384.7
17844	6.002	4.	0.	4412.2
17845	6.0944	4.	5.e-002	11.095
17846	6.0944	3.7273	0.	4376.6
17847	6.002	3.8182	0.	4402.9
17848	6.0944	3.8182	5.e-002	11.086
17849	6.0944	3.5455	0.	4370.3
17850	6.002	3.6364	0.	4395.4
17851	6.0944	3.6364	5.e-002	11.078
17852	6.0944	3.3636	0.	4365.7
17853	6.002	3.4545	0.	4389.7
17854	6.0944	3.4545	5.e-002	11.071
17855	6.0944	3.1818	0.	4362.9
17856	6.002	3.2727	0.	4385.9
17857	6.0944	3.2727	5.e-002	11.066
17858	6.0944	3.	0.	4362.
17859	6.002	3.0909	0.	4383.9
17860	6.0944	3.0909	5.e-002	11.063
17861	6.0944	2.8182	0.	4362.9
17862	6.002	2.9091	0.	4383.9
17863	6.0944	2.9091	5.e-002	11.063
17864	6.0944	2.6364	0.	4365.7
17865	6.002	2.7273	0.	4385.9
17866	6.0944	2.7273	5.e-002	11.066
17867	6.0944	2.4545	0.	4370.3
17868	6.002	2.5455	0.	4389.7
17869	6.0944	2.5455	5.e-002	11.071
17870	6.0944	2.2727	0.	4376.6
17871	6.002	2.3636	0.	4395.4
17872	6.0944	2.3636	5.e-002	11.078
17873	6.0944	2.0909	0.	4384.7
17874	6.002	2.1818	0.	4402.9
17875	6.0944	2.1818	5.e-002	11.086
17876	6.0944	1.9091	0.	4394.3
17877	6.002	2.	0.	4412.2
17878	6.0944	2.	5.e-002	11.095
17879	6.0944	1.7273	0.	4405.6
17880	6.002	1.8182	0.	4423.1
17881	6.0944	1.8182	5.e-002	11.103
17882	6.0944	1.5455	0.	4418.3
17883	6.002	1.6364	0.	4435.6
17884	6.0944	1.6364	5.e-002	11.109
17885	6.0944	1.3636	0.	4432.3
17886	6.002	1.4545	0.	4449.5
17887	6.0944	1.4545	5.e-002	11.114
17888	6.0944	1.1818	0.	4447.6
17889	6.002	1.2727	0.	4464.8
17890	6.0944	1.2727	5.e-002	11.114
17891	6.0944	1.	0.	4463.9
17892	6.002	1.0909	0.	4481.3
17893	6.0944	1.0909	5.e-002	11.11
17894	6.0944	0.81818	0.	4481.1
17895	6.002	0.90909	0.	4498.8
17896	6.0944	0.90909	5.e-002	11.1
17897	6.0944	0.63636	0.	4499.2
17898	6.002	0.72727	0.	4517.2
17899	6.0944	0.72727	5.e-002	11.084
17900	6.0944	0.45455	0.	4517.9
17901	6.002	0.54545	0.	4536.4
17902	6.0944	0.54545	5.e-002	11.048
17903	6.0944	0.27273	0.	4537.4
17904	6.002	0.36364	0.	4556.2
17905	6.0944	0.36364	5.e-002	10.826
17906	6.002	0.18182	0.	4576.8
17907	6.0944	0.18182	5.e-002	7.9805
17908	6.0944	9.0909e-002	0.	4554.6
17909	5.9097	5.7273	0.	4595.5
17910	5.8173	5.8182	0.	4635.9
17911	5.9097	5.8182	5.e-002	8.6915
17912	5.9097	5.9091	0.	4614.3
17913	5.9097	5.5455	0.	4574.6
17914	5.8173	5.6364	0.	4613.8
17915	5.9097	5.6364	5.e-002	11.038
17916	5.9097	5.3636	0.	4554.4
17917	5.8173	5.4545	0.	4592.4
17918	5.9097	5.4545	5.e-002	11.229
17919	5.9097	5.1818	0.	4534.8
17920	5.8173	5.2727	0.	4571.7
17921	5.9097	5.2727	5.e-002	11.263
17922	5.9097	5.	0.	4516.2
17923	5.8173	5.0909	0.	4551.8
17924	5.9097	5.0909	5.e-002	11.279
17925	5.9097	4.8182	0.	4498.5
17926	5.8173	4.9091	0.	4532.8
17927	5.9097	4.9091	5.e-002	11.287
17928	5.9097	4.6364	0.	4482.
17929	5.8173	4.7273	0.	4515.
17930	5.9097	4.7273	5.e-002	11.29
17931	5.9097	4.4545	0.	4466.9
17932	5.8173	4.5455	0.	4498.5
17933	5.9097	4.5455	5.e-002	11.287
17934	5.9097	4.2727	0.	4453.1
17935	5.8173	4.3636	0.	4483.4
17936	5.9097	4.3636	5.e-002	11.28
17937	5.9097	4.0909	0.	4440.9
17938	5.8173	4.1818	0.	4469.9
17939	5.9097	4.1818	5.e-002	11.271
17940	5.9097	3.9091	0.	4430.5
17941	5.8173	4.	0.	4458.1
17942	5.9097	4.	5.e-002	11.26
17943	5.9097	3.7273	0.	4421.7
17944	5.8173	3.8182	0.	4448.1
17945	5.9097	3.8182	5.e-002	11.249
17946	5.9097	3.5455	0.	4414.9
17947	5.8173	3.6364	0.	4439.9
17948	5.9097	3.6364	5.e-002	11.239
17949	5.9097	3.3636	0.	4409.9
17950	5.8173	3.4545	0.	4433.7
17951	5.9097	3.4545	5.e-002	11.231
17952	5.9097	3.1818	0.	4406.9
17953	5.8173	3.2727	0.	4429.6
17954	5.9097	3.2727	5.e-002	11.224
17955	5.9097	3.	0.	4405.9
17956	5.8173	3.0909	0.	4427.5
17957	5.9097	3.0909	5.e-002	11.221
17958	5.9097	2.8182	0.	4406.9
17959	5.8173	2.9091	0.	4427.5
17960	5.9097	2.9091	5.e-002	11.221
17961	5.9097	2.6364	0.	4409.9
17962	5.8173	2.7273	0.	4429.6
17963	5.9097	2.7273	5.e-002	11.224
17964	5.9097	2.4545	0.	4414.9
17965	5.8173	2.5455	0.	4433.7
17966	5.9097	2.5455	5.e-002	11.231
17967	5.9097	2.2727	0.	4421.7
17968	5.8173	2.3636	0.	4439.9
17969	5.9097	2.3636	5.e-002	11.239
17970	5.9097	2.0909	0.	4430.5
17971	5.8173	2.1818	0.	4448.1
17972	5.9097	2.1818	5.e-002	11.249
17973	5.9097	1.9091	0.	4440.9
17974	5.8173	2.	0.	4458.1
17975	5.9097	2.	5.e-002	11.26
17976	5.9097	1.7273	0.	4453.1
17977	5.8173	1.8182	0.	4469.9
17978	5.9097	1.8182	5.e-002	11.271
17979	5.9097	1.5455	0.	4466.9
17980	5.8173	1.6364	0.	4483.4
17981	5.9097	1.6364	5.e-002	11.28
17982	5.9097	1.3636	0.	4482.
17983	5.8173	1.4545	0.	4498.5
17984	5.9097	1.4545	5.e-002	11.287
17985	5.9097	1.1818	0.	4498.5
17986	5.8173	1.2727	0.	4515.
17987	5.9097	1.2727	5.e-002	11.29
17988	5.9097	1.	0.	4516.2
17989	5.8173	1.0909	0.	4532.8
17990	5.9097	1.0909	5.e-002	11.287
17991	5.9097	0.81818	0.	4534.8
17992	5.8173	0.90909	0.	4551.8
17993	5.9097	0.90909	5.e-002	11.279
17994	5.9097	0.63636	0.	4554.4
17995	5.8173	0.72727	0.	4571.7
17996	5.9097	0.72727	5.e-002	11.263
17997	5.9097	0.45455	0.	4574.6
17998	5.8173	0.54545	0.	4592.4
17999	5.9097	0.54545	5.e-002	11.229
18000	5.9097	0.27273	0.	4595.5
18001	5.8173	0.36364	0.	4613.8
18002	5.9097	0.36364	5.e-002	11.038
18003	5.8173	0.18182	0.	4635.9
18004	5.9097	0.18182	5.e-002	8.6915
18005	5.9097	9.0909e-002	0.	4614.3
18006	5.725	5.7273	0.	4654.1
18007	5.6327	5.8182	0.	4695.6
18008	5.725	5.8182	5.e-002	9.4588
18009	5.725	5.9091	0.	4674.5
18010	5.725	5.5455	0.	4631.5
18011	5.6327	5.6364	0.	4671.7
18012	5.725	5.6364	5.e-002	11.269
18013	5.725	5.3636	0.	4609.7
18014	5.6327	5.4545	0.	4648.6
18015	5.725	5.4545	5.e-002	11.425
18016	5.725	5.1818	0.	4588.6
18017	5.6327	5.2727	0.	4626.3
18018	5.725	5.2727	5.e-002	11.457
18019	5.725	5.	0.	4568.4
18020	5.6327	5.0909	0.	4604.7
18021	5.725	5.0909	5.e-002	11.473
18022	5.725	4.8182	0.	4549.3
18023	5.6327	4.9091	0.	4584.3
18024	5.725	4.9091	5.e-002	11.48
18025	5.725	4.6364	0.	4531.5
18026	5.6327	4.7273	0.	4565.
18027	5.725	4.7273	5.e-002	11.481
18028	5.725	4.4545	0.	4515.1
18029	5.6327	4.5455	0.	4547.2
18030	5.725	4.5455	5.e-002	11.475
18031	5.725	4.2727	0.	4500.2
18032	5.6327	4.3636	0.	4530.9
18033	5.725	4.3636	5.e-002	11.466
18034	5.725	4.0909	0.	4487.1
18035	5.6327	4.1818	0.	4516.2
18036	5.725	4.1818	5.e-002	11.454
18037	5.725	3.9091	0.	4475.7
18038	5.6327	4.	0.	4503.4
18039	5.725	4.	5.e-002	11.44
18040	5.725	3.7273	0.	4466.3
18041	5.6327	3.8182	0.	4492.6
18042	5.725	3.8182	5.e-002	11.426
18043	5.725	3.5455	0.	4458.8
18044	5.6327	3.6364	0.	4483.8
18045	5.725	3.6364	5.e-002	11.414
18046	5.725	3.3636	0.	4453.5
18047	5.6327	3.4545	0.	4477.1
18048	5.725	3.4545	5.e-002	11.403
18049	5.725	3.1818	0.	4450.2
18050	5.6327	3.2727	0.	4472.6
18051	5.725	3.2727	5.e-002	11.395
18052	5.725	3.	0.	4449.1
18053	5.6327	3.0909	0.	4470.4
18054	5.725	3.0909	5.e-002	11.392
18055	5.725	2.8182	0.	4450.2
18056	5.6327	2.9091	0.	4470.4
18057	5.725	2.9091	5.e-002	11.392
18058	5.725	2.6364	0.	4453.5
18059	5.6327	2.7273	0.	4472.6
18060	5.725	2.7273	5.e-002	11.395
18061	5.725	2.4545	0.	4458.8
18062	5.6327	2.5455	0.	4477.1
18063	5.725	2.5455	5.e-002	11.403
18064	5.725	2.2727	0.	4466.3
18065	5.6327	2.3636	0.	4483.8
18066	5.725	2.3636	5.e-002	11.414
18067	5.725	2.0909	0.	4475.7
18068	5.6327	2.1818	0.	4492.6
18069	5.725	2.1818	5.e-002	11.426
18070	5.725	1.9091	0.	4487.1
18071	5.6327	2.	0.	4503.4
18072	5.725	2.	5.e-002	11.44
18073	5.725	1.7273	0.	4500.2
18074	5.6327	1.8182	0.	4516.2
18075	5.725	1.8182	5.e-002	11.454
18076	5.725	1.5455	0.	4515.1
18077	5.6327	1.6364	0.	4530.9
18078	5.725	1.6364	5.e-002	11.466
18079	5.725	1.3636	0.	4531.5
18080	5.6327	1.4545	0.	4547.2
18081	5.725	1.4545	5.e-002	11.475
18082	5.725	1.1818	0.	4549.3
18083	5.6327	1.2727	0.	4565.
18084	5.725	1.2727	5.e-002	11.481
18085	5.725	1.	0.	4568.4
18086	5.6327	1.0909	0.	4584.3
18087	5.725	1.0909	5.e-002	11.48
18088	5.725	0.81818	0.	4588.6
18089	5.6327	0.90909	0.	4604.7
18090	5.725	0.90909	5.e-002	11.473
18091	5.725	0.63636	0.	4609.7
18092	5.6327	0.72727	0.	4626.3
18093	5.725	0.72727	5.e-002	11.457
18094	5.725	0.45455	0.	4631.5
18095	5.6327	0.54545	0.	4648.6
18096	5.725	0.54545	5.e-002	11.425
18097	5.725	0.27273	0.	4654.1
18098	5.6327	0.36364	0.	4671.7
18099	5.725	0.36364	5.e-002	11.269
18100	5.6327	0.18182	0.	4695.6
18101	5.725	0.18182	5.e-002	9.4588
18102	5.725	9.0909e-002	0.	4674.5
18103	5.5403	5.7273	0.	4713.2
18104	5.448	5.8182	0.	4755.8
18105	5.5403	5.8182	5.e-002	10.286
18106	5.5403	5.9091	0.	4735.2
18107	5.5403	5.5455	0.	4688.8
18108	5.448	5.6364	0.	4730.1
18109	5.5403	5.6364	5.e-002	11.519
18110	5.5403	5.3636	0.	4665.2
18111	5.448	5.4545	0.	4705.1
18112	5.5403	5.4545	5.e-002	11.639
18113	5.5403	5.1818	0.	4642.4
18114	5.448	5.2727	0.	4681.
18115	5.5403	5.2727	5.e-002	11.669
18116	5.5403	5.	0.	4620.6
18117	5.448	5.0909	0.	4657.7
18118	5.5403	5.0909	5.e-002	11.684
18119	5.5403	4.8182	0.	4600.
18120	5.448	4.9091	0.	4635.6
18121	5.5403	4.9091	5.e-002	11.69
18122	5.5403	4.6364	0.	4580.7
18123	5.448	4.7273	0.	4614.8
18124	5.5403	4.7273	5.e-002	11.688
18125	5.5403	4.4545	0.	4562.9
18126	5.448	4.5455	0.	4595.5
18127	5.5403	4.5455	5.e-002	11.68
18128	5.5403	4.2727	0.	4546.9
18129	5.448	4.3636	0.	4577.8
18130	5.5403	4.3636	5.e-002	11.668
18131	5.5403	4.0909	0.	4532.6
18132	5.448	4.1818	0.	4562.
18133	5.5403	4.1818	5.e-002	11.652
18134	5.5403	3.9091	0.	4520.3
18135	5.448	4.	0.	4548.2
18136	5.5403	4.	5.e-002	11.635
18137	5.5403	3.7273	0.	4510.1
18138	5.448	3.8182	0.	4536.5
18139	5.5403	3.8182	5.e-002	11.618
18140	5.5403	3.5455	0.	4502.1
18141	5.448	3.6364	0.	4526.9
18142	5.5403	3.6364	5.e-002	11.603
18143	5.5403	3.3636	0.	4496.3
18144	5.448	3.4545	0.	4519.7
18145	5.5403	3.4545	5.e-002	11.59
18146	5.5403	3.1818	0.	4492.8
18147	5.448	3.2727	0.	4514.9
18148	5.5403	3.2727	5.e-002	11.581
18149	5.5403	3.	0.	4491.6
18150	5.448	3.0909	0.	4512.4
18151	5.5403	3.0909	5.e-002	11.576
18152	5.5403	2.8182	0.	4492.8
18153	5.448	2.9091	0.	4512.4
18154	5.5403	2.9091	5.e-002	11.576
18155	5.5403	2.6364	0.	4496.3
18156	5.448	2.7273	0.	4514.9
18157	5.5403	2.7273	5.e-002	11.581
18158	5.5403	2.4545	0.	4502.1
18159	5.448	2.5455	0.	4519.7
18160	5.5403	2.5455	5.e-002	11.59
18161	5.5403	2.2727	0.	4510.1
18162	5.448	2.3636	0.	4526.9
18163	5.5403	2.3636	5.e-002	11.603
18164	5.5403	2.0909	0.	4520.3
18165	5.448	2.1818	0.	4536.5
18166	5.5403	2.1818	5.e-002	11.618
18167	5.5403	1.9091	0.	4532.6
18168	5.448	2.	0.	4548.2
18169	5.5403	2.	5.e-002	11.635
18170	5.5403	1.7273	0.	4546.9
18171	5.448	1.8182	0.	4562.
18172	5.5403	1.8182	5.e-002	11.652
18173	5.5403	1.5455	0.	4562.9
18174	5.448	1.6364	0.	4577.8
18175	5.5403	1.6364	5.e-002	11.668
18176	5.5403	1.3636	0.	4580.7
18177	5.448	1.4545	0.	4595.5
18178	5.5403	1.4545	5.e-002	11.68
18179	5.5403	1.1818	0.	4600.
18180	5.448	1.2727	0.	4614.8
18181	5.5403	1.2727	5.e-002	11.688
18182	5.5403	1.	0.	4620.6
18183	5.448	1.0909	0.	4635.6
18184	5.5403	1.0909	5.e-002	11.69
18185	5.5403	0.81818	0.	4642.4
18186	5.448	0.90909	0.	4657.7
18187	5.5403	0.90909	5.e-002	11.684
18188	5.5403	0.63636	0.	4665.2
18189	5.448	0.72727	0.	4681.
18190	5.5403	0.72727	5.e-002	11.669
18191	5.5403	0.45455	0.	4688.8
18192	5.448	0.54545	0.	4705.1
18193	5.5403	0.54545	5.e-002	11.639
18194	5.5403	0.27273	0.	4713.2
18195	5.448	0.36364	0.	4730.1
18196	5.5403	0.36364	5.e-002	11.519
18197	5.448	0.18182	0.	4755.8
18198	5.5403	0.18182	5.e-002	10.286
18199	5.5403	9.0909e-002	0.	4735.2
18200	5.3556	5.7273	0.	4772.7
18201	5.2633	5.8182	0.	4816.6
18202	5.3556	5.8182	5.e-002	11.178
18203	5.3556	5.9091	0.	4796.5
18204	5.3556	5.5455	0.	4746.4
18205	5.2633	5.6364	0.	4788.8
18206	5.3556	5.6364	5.e-002	11.791
18207	5.3556	5.3636	0.	4720.9
18208	5.2633	5.4545	0.	4761.9
18209	5.3556	5.4545	5.e-002	11.872
18210	5.3556	5.1818	0.	4696.3
18211	5.2633	5.2727	0.	4735.8
18212	5.3556	5.2727	5.e-002	11.899
18213	5.3556	5.	0.	4672.7
18214	5.2633	5.0909	0.	4710.7
18215	5.3556	5.0909	5.e-002	11.914
18216	5.3556	4.8182	0.	4650.4
18217	5.2633	4.9091	0.	4686.8
18218	5.3556	4.9091	5.e-002	11.918
18219	5.3556	4.6364	0.	4629.6
18220	5.2633	4.7273	0.	4664.3
18221	5.3556	4.7273	5.e-002	11.914
18222	5.3556	4.4545	0.	4610.4
18223	5.2633	4.5455	0.	4643.4
18224	5.3556	4.5455	5.e-002	11.904
18225	5.3556	4.2727	0.	4593.
18226	5.2633	4.3636	0.	4624.4
18227	5.3556	4.3636	5.e-002	11.888
18228	5.3556	4.0909	0.	4577.6
18229	5.2633	4.1818	0.	4607.3
18230	5.3556	4.1818	5.e-002	11.869
18231	5.3556	3.9091	0.	4564.3
18232	5.2633	4.	0.	4592.3
18233	5.3556	4.	5.e-002	11.848
18234	5.3556	3.7273	0.	4553.3
18235	5.2633	3.8182	0.	4579.6
18236	5.3556	3.8182	5.e-002	11.827
18237	5.3556	3.5455	0.	4544.6
18238	5.2633	3.6364	0.	4569.3
18239	5.3556	3.6364	5.e-002	11.809
18240	5.3556	3.3636	0.	4538.3
18241	5.2633	3.4545	0.	4561.5
18242	5.3556	3.4545	5.e-002	11.793
18243	5.3556	3.1818	0.	4534.5
18244	5.2633	3.2727	0.	4556.3
18245	5.3556	3.2727	5.e-002	11.783
18246	5.3556	3.	0.	4533.3
18247	5.2633	3.0909	0.	4553.7
18248	5.3556	3.0909	5.e-002	11.777
18249	5.3556	2.8182	0.	4534.5
18250	5.2633	2.9091	0.	4553.7
18251	5.3556	2.9091	5.e-002	11.777
18252	5.3556	2.6364	0.	4538.3
18253	5.2633	2.7273	0.	4556.3
18254	5.3556	2.7273	5.e-002	11.783
18255	5.3556	2.4545	0.	4544.6
18256	5.2633	2.5455	0.	4561.5
18257	5.3556	2.5455	5.e-002	11.793
18258	5.3556	2.2727	0.	4553.3
18259	5.2633	2.3636	0.	4569.3
18260	5.3556	2.3636	5.e-002	11.809
18261	5.3556	2.0909	0.	4564.3
18262	5.2633	2.1818	0.	4579.6
18263	5.3556	2.1818	5.e-002	11.827
18264	5.3556	1.9091	0.	4577.6
18265	5.2633	2.	0.	4592.3
18266	5.3556	2.	5.e-002	11.848
18267	5.3556	1.7273	0.	4593.
18268	5.2633	1.8182	0.	4607.3
18269	5.3556	1.8182	5.e-002	11.869
18270	5.3556	1.5455	0.	4610.4
18271	5.2633	1.6364	0.	4624.4
18272	5.3556	1.6364	5.e-002	11.888
18273	5.3556	1.3636	0.	4629.6
18274	5.2633	1.4545	0.	4643.4
18275	5.3556	1.4545	5.e-002	11.904
18276	5.3556	1.1818	0.	4650.4
18277	5.2633	1.2727	0.	4664.3
18278	5.3556	1.2727	5.e-002	11.914
18279	5.3556	1.	0.	4672.7
18280	5.2633	1.0909	0.	4686.8
18281	5.3556	1.0909	5.e-002	11.918
18282	5.3556	0.81818	0.	4696.3
18283	5.2633	0.90909	0.	4710.7
18284	5.3556	0.90909	5.e-002	11.914
18285	5.3556	0.63636	0.	4720.9
18286	5.2633	0.72727	0.	4735.8
18287	5.3556	0.72727	5.e-002	11.899
18288	5.3556	0.45455	0.	4746.4
18289	5.2633	0.54545	0.	4761.9
18290	5.3556	0.54545	5.e-002	11.872
18291	5.3556	0.27273	0.	4772.7
18292	5.2633	0.36364	0.	4788.8
18293	5.3556	0.36364	5.e-002	11.791
18294	5.2633	0.18182	0.	4816.6
18295	5.3556	0.18182	5.e-002	11.178
18296	5.3556	9.0909e-002	0.	4796.5
18297	5.171	5.7273	0.	4832.7
18298	5.0786	5.8182	0.	4878.
18299	5.171	5.8182	5.e-002	12.138
18300	5.171	5.9091	0.	4858.4
18301	5.171	5.5455	0.	4804.3
18302	5.0786	5.6364	0.	4848.
18303	5.171	5.6364	5.e-002	12.085
18304	5.171	5.3636	0.	4776.8
18305	5.0786	5.4545	0.	4818.9
18306	5.171	5.4545	5.e-002	12.125
18307	5.171	5.1818	0.	4750.2
18308	5.0786	5.2727	0.	4790.8
18309	5.171	5.2727	5.e-002	12.15
18310	5.171	5.	0.	4724.8
18311	5.0786	5.0909	0.	4763.7
18312	5.171	5.0909	5.e-002	12.164
18313	5.171	4.8182	0.	4700.7
18314	5.0786	4.9091	0.	4737.8
18315	5.171	4.9091	5.e-002	12.168
18316	5.171	4.6364	0.	4678.2
18317	5.0786	4.7273	0.	4713.6
18318	5.171	4.7273	5.e-002	12.161
18319	5.171	4.4545	0.	4657.4
18320	5.0786	4.5455	0.	4691.
18321	5.171	4.5455	5.e-002	12.148
18322	5.171	4.2727	0.	4638.6
18323	5.0786	4.3636	0.	4670.4
18324	5.171	4.3636	5.e-002	12.128
18325	5.171	4.0909	0.	4622.
18326	5.0786	4.1818	0.	4651.9
18327	5.171	4.1818	5.e-002	12.105
18328	5.171	3.9091	0.	4607.6
18329	5.0786	4.	0.	4635.8
18330	5.171	4.	5.e-002	12.08
18331	5.171	3.7273	0.	4595.7
18332	5.0786	3.8182	0.	4622.1
18333	5.171	3.8182	5.e-002	12.056
18334	5.171	3.5455	0.	4586.3
18335	5.0786	3.6364	0.	4611.
18336	5.171	3.6364	5.e-002	12.034
18337	5.171	3.3636	0.	4579.5
18338	5.0786	3.4545	0.	4602.6
18339	5.171	3.4545	5.e-002	12.016
18340	5.171	3.1818	0.	4575.4
18341	5.0786	3.2727	0.	4596.9
18342	5.171	3.2727	5.e-002	12.003
18343	5.171	3.	0.	4574.1
18344	5.0786	3.0909	0.	4594.
18345	5.171	3.0909	5.e-002	11.996
18346	5.171	2.8182	0.	4575.4
18347	5.0786	2.9091	0.	4594.
18348	5.171	2.9091	5.e-002	11.996
18349	5.171	2.6364	0.	4579.5
18350	5.0786	2.7273	0.	4596.9
18351	5.171	2.7273	5.e-002	12.003
18352	5.171	2.4545	0.	4586.3
18353	5.0786	2.5455	0.	4602.6
18354	5.171	2.5455	5.e-002	12.016
18355	5.171	2.2727	0.	4595.7
18356	5.0786	2.3636	0.	4611.
18357	5.171	2.3636	5.e-002	12.034
18358	5.171	2.0909	0.	4607.6
18359	5.0786	2.1818	0.	4622.1
18360	5.171	2.1818	5.e-002	12.056
18361	5.171	1.9091	0.	4622.
18362	5.0786	2.	0.	4635.8
18363	5.171	2.	5.e-002	12.08
18364	5.171	1.7273	0.	4638.6
18365	5.0786	1.8182	0.	4651.9
18366	5.171	1.8182	5.e-002	12.105
18367	5.171	1.5455	0.	4657.4
18368	5.0786	1.6364	0.	4670.4
18369	5.171	1.6364	5.e-002	12.128
18370	5.171	1.3636	0.	4678.2
18371	5.0786	1.4545	0.	4691.
18372	5.171	1.4545	5.e-002	12.148
18373	5.171	1.1818	0.	4700.7
18374	5.0786	1.2727	0.	4713.6
18375	5.171	1.2727	5.e-002	12.161
18376	5.171	1.	0.	4724.8
18377	5.0786	1.0909	0.	4737.8
18378	5.171	1.0909	5.e-002	12.168
18379	5.171	0.81818	0.	4750.2
18380	5.0786	0.90909	0.	4763.7
18381	5.171	0.90909	5.e-002	12.164
18382	5.171	0.63636	0.	4776.8
18383	5.0786	0.72727	0.	4790.8
18384	5.171	0.72727	5.e-002	12.15
18385	5.171	0.45455	0.	4804.3
18386	5.0786	0.54545	0.	4818.9
18387	5.171	0.54545	5.e-002	12.125
18388	5.171	0.27273	0.	4832.7
18389	5.0786	0.36364	0.	4848.
18390	5.171	0.36364	5.e-002	12.085
18391	5.0786	0.18182	0.	4878.
18392	5.171	0.18182	5.e-002	12.138
18393	5.171	9.0909e-002	0.	4858.4
18394	4.9863	5.7273	0.	4893.3
18395	4.894	5.8182	0.	4940.
18396	4.9863	5.8182	5.e-002	13.172
18397	4.9863	5.9091	0.	4920.9
18398	4.9863	5.5455	0.	4862.6
18399	4.894	5.6364	0.	4907.6
18400	4.9863	5.6364	5.e-002	12.404
18401	4.9863	5.3636	0.	4832.9
18402	4.894	5.4545	0.	4876.3
18403	4.9863	5.4545	5.e-002	12.401
18404	4.9863	5.1818	0.	4804.2
18405	4.894	5.2727	0.	4845.8
18406	4.9863	5.2727	5.e-002	12.424
18407	4.9863	5.	0.	4776.7
18408	4.894	5.0909	0.	4816.6
18409	4.9863	5.0909	5.e-002	12.438
18410	4.9863	4.8182	0.	4750.7
18411	4.894	4.9091	0.	4788.7
18412	4.9863	4.9091	5.e-002	12.44
18413	4.9863	4.6364	0.	4726.4
18414	4.894	4.7273	0.	4762.5
18415	4.9863	4.7273	5.e-002	12.432
18416	4.9863	4.4545	0.	4704.
18417	4.894	4.5455	0.	4738.1
18418	4.9863	4.5455	5.e-002	12.415
18419	4.9863	4.2727	0.	4683.7
18420	4.894	4.3636	0.	4715.9
18421	4.9863	4.3636	5.e-002	12.391
18422	4.9863	4.0909	0.	4665.7
18423	4.894	4.1818	0.	4696.
18424	4.9863	4.1818	5.e-002	12.364
18425	4.9863	3.9091	0.	4650.3
18426	4.894	4.	0.	4678.6
18427	4.9863	4.	5.e-002	12.335
18428	4.9863	3.7273	0.	4637.4
18429	4.894	3.8182	0.	4663.8
18430	4.9863	3.8182	5.e-002	12.306
18431	4.9863	3.5455	0.	4627.2
18432	4.894	3.6364	0.	4651.8
18433	4.9863	3.6364	5.e-002	12.28
18434	4.9863	3.3636	0.	4619.9
18435	4.894	3.4545	0.	4642.7
18436	4.9863	3.4545	5.e-002	12.259
18437	4.9863	3.1818	0.	4615.5
18438	4.894	3.2727	0.	4636.6
18439	4.9863	3.2727	5.e-002	12.244
18440	4.9863	3.	0.	4614.
18441	4.894	3.0909	0.	4633.6
18442	4.9863	3.0909	5.e-002	12.237
18443	4.9863	2.8182	0.	4615.5
18444	4.894	2.9091	0.	4633.6
18445	4.9863	2.9091	5.e-002	12.237
18446	4.9863	2.6364	0.	4619.9
18447	4.894	2.7273	0.	4636.6
18448	4.9863	2.7273	5.e-002	12.244
18449	4.9863	2.4545	0.	4627.2
18450	4.894	2.5455	0.	4642.7
18451	4.9863	2.5455	5.e-002	12.259
18452	4.9863	2.2727	0.	4637.4
18453	4.894	2.3636	0.	4651.8
18454	4.9863	2.3636	5.e-002	12.28
18455	4.9863	2.0909	0.	4650.3
18456	4.894	2.1818	0.	4663.8
18457	4.9863	2.1818	5.e-002	12.306
18458	4.9863	1.9091	0.	4665.7
18459	4.894	2.	0.	4678.6
18460	4.9863	2.	5.e-002	12.335
18461	4.9863	1.7273	0.	4683.7
18462	4.894	1.8182	0.	4696.
18463	4.9863	1.8182	5.e-002	12.364
18464	4.9863	1.5455	0.	4704.
18465	4.894	1.6364	0.	4715.9
18466	4.9863	1.6364	5.e-002	12.391
18467	4.9863	1.3636	0.	4726.4
18468	4.894	1.4545	0.	4738.1
18469	4.9863	1.4545	5.e-002	12.415
18470	4.9863	1.1818	0.	4750.7
18471	4.894	1.2727	0.	4762.5
18472	4.9863	1.2727	5.e-002	12.432
18473	4.9863	1.	0.	4776.7
18474	4.894	1.0909	0.	4788.7
18475	4.9863	1.0909	5.e-002	12.44
18476	4.9863	0.81818	0.	4804.2
18477	4.894	0.90909	0.	4816.6
18478	4.9863	0.90909	5.e-002	12.438
18479	4.9863	0.63636	0.	4832.9
18480	4.894	0.72727	0.	4845.8
18481	4.9863	0.72727	5.e-002	12.424
18482	4.9863	0.45455	0.	4862.6
18483	4.894	0.54545	0.	4876.3
18484	4.9863	0.54545	5.e-002	12.401
18485	4.9863	0.27273	0.	4893.3
18486	4.894	0.36364	0.	4907.6
18487	4.9863	0.36364	5.e-002	12.404
18488	4.894	0.18182	0.	4940.
18489	4.9863	0.18182	5.e-002	13.172
18490	4.9863	9.0909e-002	0.	4920.9
18491	4.8016	5.7273	0.	4954.4
18492	4.7093	5.8182	0.	5002.7
18493	4.8016	5.8182	5.e-002	14.282
18494	4.8016	5.9091	0.	4984.
18495	4.8016	5.5455	0.	4921.3
18496	4.7093	5.6364	0.	4967.7
18497	4.8016	5.6364	5.e-002	12.749
18498	4.8016	5.3636	0.	4889.2
18499	4.7093	5.4545	0.	4933.8
18500	4.8016	5.4545	5.e-002	12.702
18501	4.8016	5.1818	0.	4858.2
18502	4.7093	5.2727	0.	4901.
18503	4.8016	5.2727	5.e-002	12.724
18504	4.8016	5.	0.	4828.6
18505	4.7093	5.0909	0.	4869.4
18506	4.8016	5.0909	5.e-002	12.738
18507	4.8016	4.8182	0.	4800.5
18508	4.7093	4.9091	0.	4839.4
18509	4.8016	4.9091	5.e-002	12.739
18510	4.8016	4.6364	0.	4774.2
18511	4.7093	4.7273	0.	4811.1
18512	4.8016	4.7273	5.e-002	12.728
18513	4.8016	4.4545	0.	4750.1
18514	4.7093	4.5455	0.	4784.8
18515	4.8016	4.5455	5.e-002	12.708
18516	4.8016	4.2727	0.	4728.2
18517	4.7093	4.3636	0.	4760.9
18518	4.8016	4.3636	5.e-002	12.68
18519	4.8016	4.0909	0.	4708.8
18520	4.7093	4.1818	0.	4739.4
18521	4.8016	4.1818	5.e-002	12.648
18522	4.8016	3.9091	0.	4692.1
18523	4.7093	4.	0.	4720.6
18524	4.8016	4.	5.e-002	12.615
18525	4.8016	3.7273	0.	4678.2
18526	4.7093	3.8182	0.	4704.7
18527	4.8016	3.8182	5.e-002	12.581
18528	4.8016	3.5455	0.	4667.3
18529	4.7093	3.6364	0.	4691.8
18530	4.8016	3.6364	5.e-002	12.552
18531	4.8016	3.3636	0.	4659.4
18532	4.7093	3.4545	0.	4682.
18533	4.8016	3.4545	5.e-002	12.527
18534	4.8016	3.1818	0.	4654.7
18535	4.7093	3.2727	0.	4675.5
18536	4.8016	3.2727	5.e-002	12.51
18537	4.8016	3.	0.	4653.1
18538	4.7093	3.0909	0.	4672.2
18539	4.8016	3.0909	5.e-002	12.501
18540	4.8016	2.8182	0.	4654.7
18541	4.7093	2.9091	0.	4672.2
18542	4.8016	2.9091	5.e-002	12.501
18543	4.8016	2.6364	0.	4659.4
18544	4.7093	2.7273	0.	4675.5
18545	4.8016	2.7273	5.e-002	12.51
18546	4.8016	2.4545	0.	4667.3
18547	4.7093	2.5455	0.	4682.
18548	4.8016	2.5455	5.e-002	12.527
18549	4.8016	2.2727	0.	4678.2
18550	4.7093	2.3636	0.	4691.8
18551	4.8016	2.3636	5.e-002	12.552
18552	4.8016	2.0909	0.	4692.1
18553	4.7093	2.1818	0.	4704.7
18554	4.8016	2.1818	5.e-002	12.581
18555	4.8016	1.9091	0.	4708.8
18556	4.7093	2.	0.	4720.6
18557	4.8016	2.	5.e-002	12.615
18558	4.8016	1.7273	0.	4728.2
18559	4.7093	1.8182	0.	4739.4
18560	4.8016	1.8182	5.e-002	12.648
18561	4.8016	1.5455	0.	4750.1
18562	4.7093	1.6364	0.	4760.9
18563	4.8016	1.6364	5.e-002	12.68
18564	4.8016	1.3636	0.	4774.2
18565	4.7093	1.4545	0.	4784.8
18566	4.8016	1.4545	5.e-002	12.708
18567	4.8016	1.1818	0.	4800.5
18568	4.7093	1.2727	0.	4811.1
18569	4.8016	1.2727	5.e-002	12.728
18570	4.8016	1.	0.	4828.6
18571	4.7093	1.0909	0.	4839.4
18572	4.8016	1.0909	5.e-002	12.739
18573	4.8016	0.81818	0.	4858.2
18574	4.7093	0.90909	0.	4869.4
18575	4.8016	0.90909	5.e-002	12.738
18576	4.8016	0.63636	0.	4889.2
18577	4.7093	0.72727	0.	4901.
18578	4.8016	0.72727	5.e-002	12.724
18579	4.8016	0.45455	0.	4921.3
18580	4.7093	0.54545	0.	4933.8
18581	4.8016	0.54545	5.e-002	12.702
18582	4.8016	0.27273	0.	4954.4
18583	4.7093	0.36364	0.	4967.7
18584	4.8016	0.36364	5.e-002	12.749
18585	4.7093	0.18182	0.	5002.7
18586	4.8016	0.18182	5.e-002	14.282
18587	4.8016	9.0909e-002	0.	4984.
18588	4.6169	5.7273	0.	5016.
18589	4.5246	5.8182	0.	5066.1
18590	4.6169	5.8182	5.e-002	15.473
18591	4.6169	5.9091	0.	5047.8
18592	4.6169	5.5455	0.	4980.3
18593	4.5246	5.6364	0.	5028.2
18594	4.6169	5.6364	5.e-002	13.122
18595	4.6169	5.3636	0.	4945.7
18596	4.5246	5.4545	0.	4991.7
18597	4.6169	5.4545	5.e-002	13.029
18598	4.6169	5.1818	0.	4912.2
18599	4.5246	5.2727	0.	4956.3
18600	4.6169	5.2727	5.e-002	13.05
18601	4.6169	5.	0.	4880.3
18602	4.5246	5.0909	0.	4922.2
18603	4.6169	5.0909	5.e-002	13.066
18604	4.6169	4.8182	0.	4850.
18605	4.5246	4.9091	0.	4889.8
18606	4.6169	4.9091	5.e-002	13.066
18607	4.6169	4.6364	0.	4821.7
18608	4.5246	4.7273	0.	4859.3
18609	4.6169	4.7273	5.e-002	13.054
18610	4.6169	4.4545	0.	4795.6
18611	4.5246	4.5455	0.	4831.
18612	4.6169	4.5455	5.e-002	13.03
18613	4.6169	4.2727	0.	4772.1
18614	4.5246	4.3636	0.	4805.2
18615	4.6169	4.3636	5.e-002	12.999
18616	4.6169	4.0909	0.	4751.2
18617	4.5246	4.1818	0.	4782.1
18618	4.6169	4.1818	5.e-002	12.962
18619	4.6169	3.9091	0.	4733.2
18620	4.5246	4.	0.	4761.9
18621	4.6169	4.	5.e-002	12.923
18622	4.6169	3.7273	0.	4718.3
18623	4.5246	3.8182	0.	4744.8
18624	4.6169	3.8182	5.e-002	12.886
18625	4.6169	3.5455	0.	4706.5
18626	4.5246	3.6364	0.	4731.
18627	4.6169	3.6364	5.e-002	12.852
18628	4.6169	3.3636	0.	4698.1
18629	4.5246	3.4545	0.	4720.5
18630	4.6169	3.4545	5.e-002	12.824
18631	4.6169	3.1818	0.	4693.
18632	4.5246	3.2727	0.	4713.4
18633	4.6169	3.2727	5.e-002	12.804
18634	4.6169	3.	0.	4691.2
18635	4.5246	3.0909	0.	4709.9
18636	4.6169	3.0909	5.e-002	12.794
18637	4.6169	2.8182	0.	4693.
18638	4.5246	2.9091	0.	4709.9
18639	4.6169	2.9091	5.e-002	12.794
18640	4.6169	2.6364	0.	4698.1
18641	4.5246	2.7273	0.	4713.4
18642	4.6169	2.7273	5.e-002	12.804
18643	4.6169	2.4545	0.	4706.5
18644	4.5246	2.5455	0.	4720.5
18645	4.6169	2.5455	5.e-002	12.824
18646	4.6169	2.2727	0.	4718.3
18647	4.5246	2.3636	0.	4731.
18648	4.6169	2.3636	5.e-002	12.852
18649	4.6169	2.0909	0.	4733.2
18650	4.5246	2.1818	0.	4744.8
18651	4.6169	2.1818	5.e-002	12.886
18652	4.6169	1.9091	0.	4751.2
18653	4.5246	2.	0.	4761.9
18654	4.6169	2.	5.e-002	12.923
18655	4.6169	1.7273	0.	4772.1
18656	4.5246	1.8182	0.	4782.1
18657	4.6169	1.8182	5.e-002	12.962
18658	4.6169	1.5455	0.	4795.6
18659	4.5246	1.6364	0.	4805.2
18660	4.6169	1.6364	5.e-002	12.999
18661	4.6169	1.3636	0.	4821.7
18662	4.5246	1.4545	0.	4831.
18663	4.6169	1.4545	5.e-002	13.03
18664	4.6169	1.1818	0.	4850.
18665	4.5246	1.2727	0.	4859.3
18666	4.6169	1.2727	5.e-002	13.054
18667	4.6169	1.	0.	4880.3
18668	4.5246	1.0909	0.	4889.8
18669	4.6169	1.0909	5.e-002	13.066
18670	4.6169	0.81818	0.	4912.2
18671	4.5246	0.90909	0.	4922.2
18672	4.6169	0.90909	5.e-002	13.066
18673	4.6169	0.63636	0.	4945.7
18674	4.5246	0.72727	0.	4956.3
18675	4.6169	0.72727	5.e-002	13.05
18676	4.6169	0.45455	0.	4980.3
18677	4.5246	0.54545	0.	4991.7
18678	4.6169	0.54545	5.e-002	13.029
18679	4.6169	0.27273	0.	5016.
18680	4.5246	0.36364	0.	5028.2
18681	4.6169	0.36364	5.e-002	13.122
18682	4.5246	0.18182	0.	5066.1
18683	4.6169	0.18182	5.e-002	15.473
18684	4.6169	9.0909e-002	0.	5047.8
18685	4.4323	5.7273	0.	5078.3
18686	4.3399	5.8182	0.	5130.1
18687	4.4323	5.8182	5.e-002	16.75
18688	4.4323	5.9091	0.	5112.1
18689	4.4323	5.5455	0.	5039.6
18690	4.3399	5.6364	0.	5089.2
18691	4.4323	5.6364	5.e-002	13.525
18692	4.4323	5.3636	0.	5002.3
18693	4.3399	5.4545	0.	5049.8
18694	4.4323	5.4545	5.e-002	13.385
18695	4.4323	5.1818	0.	4966.3
18696	4.3399	5.2727	0.	5011.6
18697	4.4323	5.2727	5.e-002	13.407
18698	4.4323	5.	0.	4931.8
18699	4.3399	5.0909	0.	4974.9
18700	4.4323	5.0909	5.e-002	13.425
18701	4.4323	4.8182	0.	4899.2
18702	4.3399	4.9091	0.	4940.
18703	4.4323	4.9091	5.e-002	13.426
18704	4.4323	4.6364	0.	4868.7
18705	4.3399	4.7273	0.	4907.2
18706	4.4323	4.7273	5.e-002	13.412
18707	4.4323	4.4545	0.	4840.6
18708	4.3399	4.5455	0.	4876.7
18709	4.4323	4.5455	5.e-002	13.386
18710	4.4323	4.2727	0.	4815.3
18711	4.3399	4.3636	0.	4849.
18712	4.4323	4.3636	5.e-002	13.35
18713	4.4323	4.0909	0.	4792.9
18714	4.3399	4.1818	0.	4824.2
18715	4.4323	4.1818	5.e-002	13.309
18716	4.4323	3.9091	0.	4773.5
18717	4.3399	4.	0.	4802.5
18718	4.4323	4.	5.e-002	13.265
18719	4.4323	3.7273	0.	4757.5
18720	4.3399	3.8182	0.	4784.2
18721	4.4323	3.8182	5.e-002	13.222
18722	4.4323	3.5455	0.	4744.9
18723	4.3399	3.6364	0.	4769.3
18724	4.4323	3.6364	5.e-002	13.184
18725	4.4323	3.3636	0.	4735.8
18726	4.3399	3.4545	0.	4758.1
18727	4.4323	3.4545	5.e-002	13.153
18728	4.4323	3.1818	0.	4730.4
18729	4.3399	3.2727	0.	4750.5
18730	4.4323	3.2727	5.e-002	13.131
18731	4.4323	3.	0.	4728.5
18732	4.3399	3.0909	0.	4746.7
18733	4.4323	3.0909	5.e-002	13.12
18734	4.4323	2.8182	0.	4730.4
18735	4.3399	2.9091	0.	4746.7
18736	4.4323	2.9091	5.e-002	13.12
18737	4.4323	2.6364	0.	4735.8
18738	4.3399	2.7273	0.	4750.5
18739	4.4323	2.7273	5.e-002	13.131
18740	4.4323	2.4545	0.	4744.9
18741	4.3399	2.5455	0.	4758.1
18742	4.4323	2.5455	5.e-002	13.153
18743	4.4323	2.2727	0.	4757.5
18744	4.3399	2.3636	0.	4769.3
18745	4.4323	2.3636	5.e-002	13.184
18746	4.4323	2.0909	0.	4773.5
18747	4.3399	2.1818	0.	4784.2
18748	4.4323	2.1818	5.e-002	13.222
18749	4.4323	1.9091	0.	4792.9
18750	4.3399	2.	0.	4802.5
18751	4.4323	2.	5.e-002	13.265
18752	4.4323	1.7273	0.	4815.3
18753	4.3399	1.8182	0.	4824.2
18754	4.4323	1.8182	5.e-002	13.309
18755	4.4323	1.5455	0.	4840.6
18756	4.3399	1.6364	0.	4849.
18757	4.4323	1.6364	5.e-002	13.35
18758	4.4323	1.3636	0.	4868.7
18759	4.3399	1.4545	0.	4876.7
18760	4.4323	1.4545	5.e-002	13.386
18761	4.4323	1.1818	0.	4899.2
18762	4.3399	1.2727	0.	4907.2
18763	4.4323	1.2727	5.e-002	13.412
18764	4.4323	1.	0.	4931.8
18765	4.3399	1.0909	0.	4940.
18766	4.4323	1.0909	5.e-002	13.426
18767	4.4323	0.81818	0.	4966.3
18768	4.3399	0.90909	0.	4974.9
18769	4.4323	0.90909	5.e-002	13.425
18770	4.4323	0.63636	0.	5002.3
18771	4.3399	0.72727	0.	5011.6
18772	4.4323	0.72727	5.e-002	13.407
18773	4.4323	0.45455	0.	5039.6
18774	4.3399	0.54545	0.	5049.8
18775	4.4323	0.54545	5.e-002	13.385
18776	4.4323	0.27273	0.	5078.3
18777	4.3399	0.36364	0.	5089.2
18778	4.4323	0.36364	5.e-002	13.525
18779	4.3399	0.18182	0.	5130.1
18780	4.4323	0.18182	5.e-002	16.75
18781	4.4323	9.0909e-002	0.	5112.1
18782	4.2476	5.7273	0.	5141.
18783	4.1552	5.8182	0.	5194.9
18784	4.2476	5.8182	5.e-002	18.116
18785	4.2476	5.9091	0.	5177.1
18786	4.2476	5.5455	0.	5099.3
18787	4.1552	5.6364	0.	5150.5
18788	4.2476	5.6364	5.e-002	13.959
18789	4.2476	5.3636	0.	5059.1
18790	4.1552	5.4545	0.	5108.1
18791	4.2476	5.4545	5.e-002	13.773
18792	4.2476	5.1818	0.	5020.2
18793	4.1552	5.2727	0.	5067.
18794	4.2476	5.2727	5.e-002	13.798
18795	4.2476	5.	0.	4983.1
18796	4.1552	5.0909	0.	5027.4
18797	4.2476	5.0909	5.e-002	13.819
18798	4.2476	4.8182	0.	4948.
18799	4.1552	4.9091	0.	4989.8
18800	4.2476	4.9091	5.e-002	13.821
18801	4.2476	4.6364	0.	4915.2
18802	4.1552	4.7273	0.	4954.5
18803	4.2476	4.7273	5.e-002	13.807
18804	4.2476	4.4545	0.	4885.1
18805	4.1552	4.5455	0.	4921.9
18806	4.2476	4.5455	5.e-002	13.778
18807	4.2476	4.2727	0.	4857.9
18808	4.1552	4.3636	0.	4892.1
18809	4.2476	4.3636	5.e-002	13.739
18810	4.2476	4.0909	0.	4833.8
18811	4.1552	4.1818	0.	4865.5
18812	4.2476	4.1818	5.e-002	13.693
18813	4.2476	3.9091	0.	4813.1
18814	4.1552	4.	0.	4842.3
18815	4.2476	4.	5.e-002	13.644
18816	4.2476	3.7273	0.	4795.9
18817	4.1552	3.8182	0.	4822.7
18818	4.2476	3.8182	5.e-002	13.597
18819	4.2476	3.5455	0.	4782.5
18820	4.1552	3.6364	0.	4806.8
18821	4.2476	3.6364	5.e-002	13.555
18822	4.2476	3.3636	0.	4772.8
18823	4.1552	3.4545	0.	4794.8
18824	4.2476	3.4545	5.e-002	13.52
18825	4.2476	3.1818	0.	4766.9
18826	4.1552	3.2727	0.	4786.8
18827	4.2476	3.2727	5.e-002	13.496
18828	4.2476	3.	0.	4764.9
18829	4.1552	3.0909	0.	4782.8
18830	4.2476	3.0909	5.e-002	13.483
18831	4.2476	2.8182	0.	4766.9
18832	4.1552	2.9091	0.	4782.8
18833	4.2476	2.9091	5.e-002	13.483
18834	4.2476	2.6364	0.	4772.8
18835	4.1552	2.7273	0.	4786.8
18836	4.2476	2.7273	5.e-002	13.496
18837	4.2476	2.4545	0.	4782.5
18838	4.1552	2.5455	0.	4794.8
18839	4.2476	2.5455	5.e-002	13.52
18840	4.2476	2.2727	0.	4795.9
18841	4.1552	2.3636	0.	4806.8
18842	4.2476	2.3636	5.e-002	13.555
18843	4.2476	2.0909	0.	4813.1
18844	4.1552	2.1818	0.	4822.7
18845	4.2476	2.1818	5.e-002	13.597
18846	4.2476	1.9091	0.	4833.8
18847	4.1552	2.	0.	4842.3
18848	4.2476	2.	5.e-002	13.644
18849	4.2476	1.7273	0.	4857.9
18850	4.1552	1.8182	0.	4865.5
18851	4.2476	1.8182	5.e-002	13.693
18852	4.2476	1.5455	0.	4885.1
18853	4.1552	1.6364	0.	4892.1
18854	4.2476	1.6364	5.e-002	13.739
18855	4.2476	1.3636	0.	4915.2
18856	4.1552	1.4545	0.	4921.9
18857	4.2476	1.4545	5.e-002	13.778
18858	4.2476	1.1818	0.	4948.
18859	4.1552	1.2727	0.	4954.5
18860	4.2476	1.2727	5.e-002	13.807
18861	4.2476	1.	0.	4983.1
18862	4.1552	1.0909	0.	4989.8
18863	4.2476	1.0909	5.e-002	13.821
18864	4.2476	0.81818	0.	5020.2
18865	4.1552	0.90909	0.	5027.4
18866	4.2476	0.90909	5.e-002	13.819
18867	4.2476	0.63636	0.	5059.1
18868	4.1552	0.72727	0.	5067.
18869	4.2476	0.72727	5.e-002	13.798
18870	4.2476	0.45455	0.	5099.3
18871	4.1552	0.54545	0.	5108.1
18872	4.2476	0.54545	5.e-002	13.773
18873	4.2476	0.27273	0.	5141.
18874	4.1552	0.36364	0.	5150.5
18875	4.2476	0.36364	5.e-002	13.959
18876	4.1552	0.18182	0.	5194.9
18877	4.2476	0.18182	5.e-002	18.116
18878	4.2476	9.0909e-002	0.	5177.1
18879	4.0629	5.7273	0.	5204.4
18880	3.9706	5.8182	0.	5260.4
18881	4.0629	5.8182	5.e-002	19.575
18882	4.0629	5.9091	0.	5242.6
18883	4.0629	5.5455	0.	5159.3
18884	3.9706	5.6364	0.	5212.3
18885	4.0629	5.6364	5.e-002	14.427
18886	4.0629	5.3636	0.	5115.9
18887	3.9706	5.4545	0.	5166.5
18888	4.0629	5.4545	5.e-002	14.196
18889	4.0629	5.1818	0.	5074.1
18890	3.9706	5.2727	0.	5122.3
18891	4.0629	5.2727	5.e-002	14.225
18892	4.0629	5.	0.	5034.2
18893	3.9706	5.0909	0.	5079.7
18894	4.0629	5.0909	5.e-002	14.251
18895	4.0629	4.8182	0.	4996.4
18896	3.9706	4.9091	0.	5039.3
18897	4.0629	4.9091	5.e-002	14.257
18898	4.0629	4.6364	0.	4961.2
18899	3.9706	4.7273	0.	5001.5
18900	4.0629	4.7273	5.e-002	14.243
18901	4.0629	4.4545	0.	4928.9
18902	3.9706	4.5455	0.	4966.4
18903	4.0629	4.5455	5.e-002	14.213
18904	4.0629	4.2727	0.	4899.7
18905	3.9706	4.3636	0.	4934.6
18906	4.0629	4.3636	5.e-002	14.17
18907	4.0629	4.0909	0.	4874.
18908	3.9706	4.1818	0.	4906.1
18909	4.0629	4.1818	5.e-002	14.12
18910	4.0629	3.9091	0.	4851.9
18911	3.9706	4.	0.	4881.4
18912	4.0629	4.	5.e-002	14.067
18913	4.0629	3.7273	0.	4833.6
18914	3.9706	3.8182	0.	4860.5
18915	4.0629	3.8182	5.e-002	14.015
18916	4.0629	3.5455	0.	4819.2
18917	3.9706	3.6364	0.	4843.7
18918	4.0629	3.6364	5.e-002	13.969
18919	4.0629	3.3636	0.	4808.9
18920	3.9706	3.4545	0.	4830.9
18921	4.0629	3.4545	5.e-002	13.931
18922	4.0629	3.1818	0.	4802.7
18923	3.9706	3.2727	0.	4822.4
18924	4.0629	3.2727	5.e-002	13.904
18925	4.0629	3.	0.	4800.6
18926	3.9706	3.0909	0.	4818.1
18927	4.0629	3.0909	5.e-002	13.891
18928	4.0629	2.8182	0.	4802.7
18929	3.9706	2.9091	0.	4818.1
18930	4.0629	2.9091	5.e-002	13.891
18931	4.0629	2.6364	0.	4808.9
18932	3.9706	2.7273	0.	4822.4
18933	4.0629	2.7273	5.e-002	13.904
18934	4.0629	2.4545	0.	4819.2
18935	3.9706	2.5455	0.	4830.9
18936	4.0629	2.5455	5.e-002	13.931
18937	4.0629	2.2727	0.	4833.6
18938	3.9706	2.3636	0.	4843.7
18939	4.0629	2.3636	5.e-002	13.969
18940	4.0629	2.0909	0.	4851.9
18941	3.9706	2.1818	0.	4860.5
18942	4.0629	2.1818	5.e-002	14.015
18943	4.0629	1.9091	0.	4874.
18944	3.9706	2.	0.	4881.4
18945	4.0629	2.	5.e-002	14.067
18946	4.0629	1.7273	0.	4899.7
18947	3.9706	1.8182	0.	4906.1
18948	4.0629	1.8182	5.e-002	14.12
18949	4.0629	1.5455	0.	4928.9
18950	3.9706	1.6364	0.	4934.6
18951	4.0629	1.6364	5.e-002	14.17
18952	4.0629	1.3636	0.	4961.2
18953	3.9706	1.4545	0.	4966.4
18954	4.0629	1.4545	5.e-002	14.213
18955	4.0629	1.1818	0.	4996.4
18956	3.9706	1.2727	0.	5001.5
18957	4.0629	1.2727	5.e-002	14.243
18958	4.0629	1.	0.	5034.2
18959	3.9706	1.0909	0.	5039.3
18960	4.0629	1.0909	5.e-002	14.257
18961	4.0629	0.81818	0.	5074.1
18962	3.9706	0.90909	0.	5079.7
18963	4.0629	0.90909	5.e-002	14.251
18964	4.0629	0.63636	0.	5115.9
18965	3.9706	0.72727	0.	5122.3
18966	4.0629	0.72727	5.e-002	14.225
18967	4.0629	0.45455	0.	5159.3
18968	3.9706	0.54545	0.	5166.5
18969	4.0629	0.54545	5.e-002	14.196
18970	4.0629	0.27273	0.	5204.4
18971	3.9706	0.36364	0.	5212.3
18972	4.0629	0.36364	5.e-002	14.427
18973	3.9706	0.18182	0.	5260.4
18974	4.0629	0.18182	5.e-002	19.575
18975	4.0629	9.0909e-002	0.	5242.6
18976	3.8782	5.7273	0.	5268.2
18977	3.7859	5.8182	0.	5326.5
18978	3.8782	5.8182	5.e-002	21.13
18979	3.8782	5.9091	0.	5308.7
18980	3.8782	5.5455	0.	5219.5
18981	3.7859	5.6364	0.	5274.4
18982	3.8782	5.6364	5.e-002	14.931
18983	3.8782	5.3636	0.	5172.8
18984	3.7859	5.4545	0.	5225.1
18985	3.8782	5.4545	5.e-002	14.656
18986	3.8782	5.1818	0.	5127.8
18987	3.7859	5.2727	0.	5177.4
18988	3.8782	5.2727	5.e-002	14.692
18989	3.8782	5.	0.	5084.9
18990	3.7859	5.0909	0.	5131.7
18991	3.8782	5.0909	5.e-002	14.727
18992	3.8782	4.8182	0.	5044.4
18993	3.7859	4.9091	0.	5088.4
18994	3.8782	4.9091	5.e-002	14.738
18995	3.8782	4.6364	0.	5006.7
18996	3.7859	4.7273	0.	5047.8
18997	3.8782	4.7273	5.e-002	14.726
18998	3.8782	4.4545	0.	4972.1
18999	3.7859	4.5455	0.	5010.3
19000	3.8782	4.5455	5.e-002	14.695
19001	3.8782	4.2727	0.	4941.
19002	3.7859	4.3636	0.	4976.4
19003	3.8782	4.3636	5.e-002	14.65
19004	3.8782	4.0909	0.	4913.5
19005	3.7859	4.1818	0.	4946.1
19006	3.8782	4.1818	5.e-002	14.596
19007	3.8782	3.9091	0.	4890.
19008	3.7859	4.	0.	4919.8
19009	3.8782	4.	5.e-002	14.539
19010	3.8782	3.7273	0.	4870.6
19011	3.7859	3.8182	0.	4897.7
19012	3.8782	3.8182	5.e-002	14.484
19013	3.8782	3.5455	0.	4855.3
19014	3.7859	3.6364	0.	4879.8
19015	3.8782	3.6364	5.e-002	14.434
19016	3.8782	3.3636	0.	4844.4
19017	3.7859	3.4545	0.	4866.4
19018	3.8782	3.4545	5.e-002	14.393
19019	3.8782	3.1818	0.	4837.8
19020	3.7859	3.2727	0.	4857.4
19021	3.8782	3.2727	5.e-002	14.365
19022	3.8782	3.	0.	4835.6
19023	3.7859	3.0909	0.	4852.9
19024	3.8782	3.0909	5.e-002	14.35
19025	3.8782	2.8182	0.	4837.8
19026	3.7859	2.9091	0.	4852.9
19027	3.8782	2.9091	5.e-002	14.35
19028	3.8782	2.6364	0.	4844.4
19029	3.7859	2.7273	0.	4857.4
19030	3.8782	2.7273	5.e-002	14.365
19031	3.8782	2.4545	0.	4855.3
19032	3.7859	2.5455	0.	4866.4
19033	3.8782	2.5455	5.e-002	14.393
19034	3.8782	2.2727	0.	4870.6
19035	3.7859	2.3636	0.	4879.8
19036	3.8782	2.3636	5.e-002	14.434
19037	3.8782	2.0909	0.	4890.
19038	3.7859	2.1818	0.	4897.7
19039	3.8782	2.1818	5.e-002	14.484
19040	3.8782	1.9091	0.	4913.5
19041	3.7859	2.	0.	4919.8
19042	3.8782	2.	5.e-002	14.539
19043	3.8782	1.7273	0.	4941.
19044	3.7859	1.8182	0.	4946.1
19045	3.8782	1.8182	5.e-002	14.596
19046	3.8782	1.5455	0.	4972.1
19047	3.7859	1.6364	0.	4976.4
19048	3.8782	1.6364	5.e-002	14.65
19049	3.8782	1.3636	0.	5006.7
19050	3.7859	1.4545	0.	5010.3
19051	3.8782	1.4545	5.e-002	14.695
19052	3.8782	1.1818	0.	5044.4
19053	3.7859	1.2727	0.	5047.8
19054	3.8782	1.2727	5.e-002	14.726
19055	3.8782	1.	0.	5084.9
19056	3.7859	1.0909	0.	5088.4
19057	3.8782	1.0909	5.e-002	14.738
19058	3.8782	0.81818	0.	5127.8
19059	3.7859	0.90909	0.	5131.7
19060	3.8782	0.90909	5.e-002	14.727
19061	3.8782	0.63636	0.	5172.8
19062	3.7859	0.72727	0.	5177.4
19063	3.8782	0.72727	5.e-002	14.692
19064	3.8782	0.45455	0.	5219.5
19065	3.7859	0.54545	0.	5225.1
19066	3.8782	0.54545	5.e-002	14.656
19067	3.8782	0.27273	0.	5268.2
19068	3.7859	0.36364	0.	5274.4
19069	3.8782	0.36364	5.e-002	14.931
19070	3.7859	0.18182	0.	5326.5
19071	3.8782	0.18182	5.e-002	21.13
19072	3.8782	9.0909e-002	0.	5308.7
19073	3.6935	5.7273	0.	5332.6
19074	3.6012	5.8182	0.	5393.1
19075	3.6935	5.8182	5.e-002	22.784
19076	3.6935	5.9091	0.	5375.2
19077	3.6935	5.5455	0.	5279.9
19078	3.6012	5.6364	0.	5336.7
19079	3.6935	5.6364	5.e-002	15.471
19080	3.6935	5.3636	0.	5229.7
19081	3.6012	5.4545	0.	5283.6
19082	3.6935	5.4545	5.e-002	15.158
19083	3.6935	5.1818	0.	5181.3
19084	3.6012	5.2727	0.	5232.4
19085	3.6935	5.2727	5.e-002	15.206
19086	3.6935	5.	0.	5135.2
19087	3.6012	5.0909	0.	5183.3
19088	3.6935	5.0909	5.e-002	15.252
19089	3.6935	4.8182	0.	5091.8
19090	3.6012	4.9091	0.	5136.9
19091	3.6935	4.9091	5.e-002	15.27
19092	3.6935	4.6364	0.	5051.5
19093	3.6012	4.7273	0.	5093.5
19094	3.6935	4.7273	5.e-002	15.261
19095	3.6935	4.4545	0.	5014.6
19096	3.6012	4.5455	0.	5053.6
19097	3.6935	4.5455	5.e-002	15.231
19098	3.6935	4.2727	0.	4981.5
19099	3.6012	4.3636	0.	5017.5
19100	3.6935	4.3636	5.e-002	15.185
19101	3.6935	4.0909	0.	4952.4
19102	3.6012	4.1818	0.	4985.4
19103	3.6935	4.1818	5.e-002	15.128
19104	3.6935	3.9091	0.	4927.5
19105	3.6012	4.	0.	4957.6
19106	3.6935	4.	5.e-002	15.068
19107	3.6935	3.7273	0.	4906.9
19108	3.6012	3.8182	0.	4934.3
19109	3.6935	3.8182	5.e-002	15.01
19110	3.6935	3.5455	0.	4890.9
19111	3.6012	3.6364	0.	4915.5
19112	3.6935	3.6364	5.e-002	14.958
19113	3.6935	3.3636	0.	4879.4
19114	3.6012	3.4545	0.	4901.4
19115	3.6935	3.4545	5.e-002	14.916
19116	3.6935	3.1818	0.	4872.4
19117	3.6012	3.2727	0.	4892.
19118	3.6935	3.2727	5.e-002	14.886
19119	3.6935	3.	0.	4870.1
19120	3.6012	3.0909	0.	4887.3
19121	3.6935	3.0909	5.e-002	14.871
19122	3.6935	2.8182	0.	4872.4
19123	3.6012	2.9091	0.	4887.3
19124	3.6935	2.9091	5.e-002	14.871
19125	3.6935	2.6364	0.	4879.4
19126	3.6012	2.7273	0.	4892.
19127	3.6935	2.7273	5.e-002	14.886
19128	3.6935	2.4545	0.	4890.9
19129	3.6012	2.5455	0.	4901.4
19130	3.6935	2.5455	5.e-002	14.916
19131	3.6935	2.2727	0.	4906.9
19132	3.6012	2.3636	0.	4915.5
19133	3.6935	2.3636	5.e-002	14.958
19134	3.6935	2.0909	0.	4927.5
19135	3.6012	2.1818	0.	4934.3
19136	3.6935	2.1818	5.e-002	15.01
19137	3.6935	1.9091	0.	4952.4
19138	3.6012	2.	0.	4957.6
19139	3.6935	2.	5.e-002	15.068
19140	3.6935	1.7273	0.	4981.5
19141	3.6012	1.8182	0.	4985.4
19142	3.6935	1.8182	5.e-002	15.128
19143	3.6935	1.5455	0.	5014.6
19144	3.6012	1.6364	0.	5017.5
19145	3.6935	1.6364	5.e-002	15.185
19146	3.6935	1.3636	0.	5051.5
19147	3.6012	1.4545	0.	5053.6
19148	3.6935	1.4545	5.e-002	15.231
19149	3.6935	1.1818	0.	5091.8
19150	3.6012	1.2727	0.	5093.5
19151	3.6935	1.2727	5.e-002	15.261
19152	3.6935	1.	0.	5135.2
19153	3.6012	1.0909	0.	5136.9
19154	3.6935	1.0909	5.e-002	15.27
19155	3.6935	0.81818	0.	5181.3
19156	3.6012	0.90909	0.	5183.3
19157	3.6935	0.90909	5.e-002	15.252
19158	3.6935	0.63636	0.	5229.7
19159	3.6012	0.72727	0.	5232.4
19160	3.6935	0.72727	5.e-002	15.206
19161	3.6935	0.45455	0.	5279.9
19162	3.6012	0.54545	0.	5283.6
19163	3.6935	0.54545	5.e-002	15.158
19164	3.6935	0.27273	0.	5332.6
19165	3.6012	0.36364	0.	5336.7
19166	3.6935	0.36364	5.e-002	15.471
19167	3.6012	0.18182	0.	5393.1
19168	3.6935	0.18182	5.e-002	22.784
19169	3.6935	9.0909e-002	0.	5375.2
19170	3.5089	5.7273	0.	5397.2
19171	3.4165	5.8182	0.	5460.3
19172	3.5089	5.8182	5.e-002	24.537
19173	3.5089	5.9091	0.	5441.9
19174	3.5089	5.5455	0.	5340.3
19175	3.4165	5.6364	0.	5399.
19176	3.5089	5.6364	5.e-002	16.052
19177	3.5089	5.3636	0.	5286.3
19178	3.4165	5.4545	0.	5341.9
19179	3.5089	5.4545	5.e-002	15.706
19180	3.5089	5.1818	0.	5234.4
19181	3.4165	5.2727	0.	5286.9
19182	3.5089	5.2727	5.e-002	15.77
19183	3.5089	5.	0.	5185.
19184	3.4165	5.0909	0.	5234.4
19185	3.5089	5.0909	5.e-002	15.832
19186	3.5089	4.8182	0.	5138.6
19187	3.4165	4.9091	0.	5184.7
19188	3.5089	4.9091	5.e-002	15.86
19189	3.5089	4.6364	0.	5095.6
19190	3.4165	4.7273	0.	5138.5
19191	3.5089	4.7273	5.e-002	15.857
19192	3.5089	4.4545	0.	5056.4
19193	3.4165	4.5455	0.	5096.1
19194	3.5089	4.5455	5.e-002	15.829
19195	3.5089	4.2727	0.	5021.3
19196	3.4165	4.3636	0.	5057.9
19197	3.5089	4.3636	5.e-002	15.782
19198	3.5089	4.0909	0.	4990.6
19199	3.4165	4.1818	0.	5024.1
19200	3.5089	4.1818	5.e-002	15.725
19201	3.5089	3.9091	0.	4964.4
19202	3.4165	4.	0.	4994.9
19203	3.5089	4.	5.e-002	15.663
19204	3.5089	3.7273	0.	4942.9
19205	3.4165	3.8182	0.	4970.5
19206	3.5089	3.8182	5.e-002	15.604
19207	3.5089	3.5455	0.	4926.1
19208	3.4165	3.6364	0.	4951.
19209	3.5089	3.6364	5.e-002	15.551
19210	3.5089	3.3636	0.	4914.
19211	3.4165	3.4545	0.	4936.3
19212	3.5089	3.4545	5.e-002	15.508
19213	3.5089	3.1818	0.	4906.8
19214	3.4165	3.2727	0.	4926.5
19215	3.5089	3.2727	5.e-002	15.479
19216	3.5089	3.	0.	4904.4
19217	3.4165	3.0909	0.	4921.6
19218	3.5089	3.0909	5.e-002	15.463
19219	3.5089	2.8182	0.	4906.8
19220	3.4165	2.9091	0.	4921.6
19221	3.5089	2.9091	5.e-002	15.463
19222	3.5089	2.6364	0.	4914.
19223	3.4165	2.7273	0.	4926.5
19224	3.5089	2.7273	5.e-002	15.479
19225	3.5089	2.4545	0.	4926.1
19226	3.4165	2.5455	0.	4936.3
19227	3.5089	2.5455	5.e-002	15.508
19228	3.5089	2.2727	0.	4942.9
19229	3.4165	2.3636	0.	4951.
19230	3.5089	2.3636	5.e-002	15.551
19231	3.5089	2.0909	0.	4964.4
19232	3.4165	2.1818	0.	4970.5
19233	3.5089	2.1818	5.e-002	15.604
19234	3.5089	1.9091	0.	4990.6
19235	3.4165	2.	0.	4994.9
19236	3.5089	2.	5.e-002	15.663
19237	3.5089	1.7273	0.	5021.3
19238	3.4165	1.8182	0.	5024.1
19239	3.5089	1.8182	5.e-002	15.725
19240	3.5089	1.5455	0.	5056.4
19241	3.4165	1.6364	0.	5057.9
19242	3.5089	1.6364	5.e-002	15.782
19243	3.5089	1.3636	0.	5095.6
19244	3.4165	1.4545	0.	5096.1
19245	3.5089	1.4545	5.e-002	15.829
19246	3.5089	1.1818	0.	5138.6
19247	3.4165	1.2727	0.	5138.5
19248	3.5089	1.2727	5.e-002	15.857
19249	3.5089	1.	0.	5185.
19250	3.4165	1.0909	0.	5184.7
19251	3.5089	1.0909	5.e-002	15.86
19252	3.5089	0.81818	0.	5234.4
19253	3.4165	0.90909	0.	5234.4
19254	3.5089	0.90909	5.e-002	15.832
19255	3.5089	0.63636	0.	5286.3
19256	3.4165	0.72727	0.	5286.9
19257	3.5089	0.72727	5.e-002	15.77
19258	3.5089	0.45455	0.	5340.3
19259	3.4165	0.54545	0.	5341.9
19260	3.5089	0.54545	5.e-002	15.706
19261	3.5089	0.27273	0.	5397.2
19262	3.4165	0.36364	0.	5399.
19263	3.5089	0.36364	5.e-002	16.052
19264	3.4165	0.18182	0.	5460.3
19265	3.5089	0.18182	5.e-002	24.537
19266	3.5089	9.0909e-002	0.	5441.9
19267	3.3242	5.7273	0.	5462.1
19268	3.2319	5.8182	0.	5527.7
19269	3.3242	5.8182	5.e-002	26.389
19270	3.3242	5.9091	0.	5508.9
19271	3.3242	5.5455	0.	5400.6
19272	3.2319	5.6364	0.	5461.3
19273	3.3242	5.6364	5.e-002	16.675
19274	3.3242	5.3636	0.	5342.5
19275	3.2319	5.4545	0.	5399.8
19276	3.3242	5.4545	5.e-002	16.306
19277	3.3242	5.1818	0.	5286.9
19278	3.2319	5.2727	0.	5340.8
19279	3.3242	5.2727	5.e-002	16.394
19280	3.3242	5.	0.	5234.
19281	3.2319	5.0909	0.	5284.6
19282	3.3242	5.0909	5.e-002	16.475
19283	3.3242	4.8182	0.	5184.6
19284	3.2319	4.9091	0.	5231.7
19285	3.3242	4.9091	5.e-002	16.517
19286	3.3242	4.6364	0.	5138.9
19287	3.2319	4.7273	0.	5182.6
19288	3.3242	4.7273	5.e-002	16.522
19289	3.3242	4.4545	0.	5097.5
19290	3.2319	4.5455	0.	5137.7
19291	3.3242	4.5455	5.e-002	16.497
19292	3.3242	4.2727	0.	5060.5
19293	3.2319	4.3636	0.	5097.5
19294	3.3242	4.3636	5.e-002	16.452
19295	3.3242	4.0909	0.	5028.3
19296	3.2319	4.1818	0.	5062.2
19297	3.3242	4.1818	5.e-002	16.395
19298	3.3242	3.9091	0.	5001.
19299	3.2319	4.	0.	5031.8
19300	3.3242	4.	5.e-002	16.334
19301	3.3242	3.7273	0.	4978.6
19302	3.2319	3.8182	0.	5006.6
19303	3.3242	3.8182	5.e-002	16.276
19304	3.3242	3.5455	0.	4961.2
19305	3.2319	3.6364	0.	4986.4
19306	3.3242	3.6364	5.e-002	16.224
19307	3.3242	3.3636	0.	4948.7
19308	3.2319	3.4545	0.	4971.3
19309	3.3242	3.4545	5.e-002	16.183
19310	3.3242	3.1818	0.	4941.3
19311	3.2319	3.2727	0.	4961.3
19312	3.3242	3.2727	5.e-002	16.155
19313	3.3242	3.	0.	4938.8
19314	3.2319	3.0909	0.	4956.3
19315	3.3242	3.0909	5.e-002	16.14
19316	3.3242	2.8182	0.	4941.3
19317	3.2319	2.9091	0.	4956.3
19318	3.3242	2.9091	5.e-002	16.14
19319	3.3242	2.6364	0.	4948.7
19320	3.2319	2.7273	0.	4961.3
19321	3.3242	2.7273	5.e-002	16.155
19322	3.3242	2.4545	0.	4961.2
19323	3.2319	2.5455	0.	4971.3
19324	3.3242	2.5455	5.e-002	16.183
19325	3.3242	2.2727	0.	4978.6
19326	3.2319	2.3636	0.	4986.4
19327	3.3242	2.3636	5.e-002	16.224
19328	3.3242	2.0909	0.	5001.
19329	3.2319	2.1818	0.	5006.6
19330	3.3242	2.1818	5.e-002	16.276
19331	3.3242	1.9091	0.	5028.3
19332	3.2319	2.	0.	5031.8
19333	3.3242	2.	5.e-002	16.334
19334	3.3242	1.7273	0.	5060.5
19335	3.2319	1.8182	0.	5062.2
19336	3.3242	1.8182	5.e-002	16.396
19337	3.3242	1.5455	0.	5097.5
19338	3.2319	1.6364	0.	5097.5
19339	3.3242	1.6364	5.e-002	16.452
19340	3.3242	1.3636	0.	5138.9
19341	3.2319	1.4545	0.	5137.7
19342	3.3242	1.4545	5.e-002	16.497
19343	3.3242	1.1818	0.	5184.6
19344	3.2319	1.2727	0.	5182.6
19345	3.3242	1.2727	5.e-002	16.522
19346	3.3242	1.	0.	5234.
19347	3.2319	1.0909	0.	5231.7
19348	3.3242	1.0909	5.e-002	16.517
19349	3.3242	0.81818	0.	5286.9
19350	3.2319	0.90909	0.	5284.6
19351	3.3242	0.90909	5.e-002	16.475
19352	3.3242	0.63636	0.	5342.5
19353	3.2319	0.72727	0.	5340.8
19354	3.3242	0.72727	5.e-002	16.394
19355	3.3242	0.45455	0.	5400.6
19356	3.2319	0.54545	0.	5399.8
19357	3.3242	0.54545	5.e-002	16.306
19358	3.3242	0.27273	0.	5462.1
19359	3.2319	0.36364	0.	5461.3
19360	3.3242	0.36364	5.e-002	16.675
19361	3.2319	0.18182	0.	5527.7
19362	3.3242	0.18182	5.e-002	26.389
19363	3.3242	9.0909e-002	0.	5508.9
19364	3.1395	5.7273	0.	5526.9
19365	3.0472	5.8182	0.	5595.3
19366	3.1395	5.8182	5.e-002	28.339
19367	3.1395	5.9091	0.	5575.7
19368	3.1395	5.5455	0.	5460.5
19369	3.0472	5.6364	0.	5523.1
19370	3.1395	5.6364	5.e-002	17.345
19371	3.1395	5.3636	0.	5398.1
19372	3.0472	5.4545	0.	5457.
19373	3.1395	5.4545	5.e-002	16.967
19374	3.1395	5.1818	0.	5338.5
19375	3.0472	5.2727	0.	5393.8
19376	3.1395	5.2727	5.e-002	17.086
19377	3.1395	5.	0.	5282.2
19378	3.0472	5.0909	0.	5333.7
19379	3.1395	5.0909	5.e-002	17.193
19380	3.1395	4.8182	0.	5229.6
19381	3.0472	4.9091	0.	5277.5
19382	3.1395	4.9091	5.e-002	17.251
19383	3.1395	4.6364	0.	5181.3
19384	3.0472	4.7273	0.	5225.6
19385	3.1395	4.7273	5.e-002	17.266
19386	3.1395	4.4545	0.	5137.8
19387	3.0472	4.5455	0.	5178.5
19388	3.1395	4.5455	5.e-002	17.247
19389	3.1395	4.2727	0.	5099.1
19390	3.0472	4.3636	0.	5136.5
19391	3.1395	4.3636	5.e-002	17.205
19392	3.1395	4.0909	0.	5065.7
19393	3.0472	4.1818	0.	5099.9
19394	3.1395	4.1818	5.e-002	17.151
19395	3.1395	3.9091	0.	5037.4
19396	3.0472	4.	0.	5068.6
19397	3.1395	4.	5.e-002	17.093
19398	3.1395	3.7273	0.	5014.3
19399	3.0472	3.8182	0.	5042.7
19400	3.1395	3.8182	5.e-002	17.038
19401	3.1395	3.5455	0.	4996.5
19402	3.0472	3.6364	0.	5022.2
19403	3.1395	3.6364	5.e-002	16.991
19404	3.1395	3.3636	0.	4983.8
19405	3.0472	3.4545	0.	5006.9
19406	3.1395	3.4545	5.e-002	16.954
19407	3.1395	3.1818	0.	4976.2
19408	3.0472	3.2727	0.	4996.8
19409	3.1395	3.2727	5.e-002	16.929
19410	3.1395	3.	0.	4973.7
19411	3.0472	3.0909	0.	4991.8
19412	3.1395	3.0909	5.e-002	16.916
19413	3.1395	2.8182	0.	4976.2
19414	3.0472	2.9091	0.	4991.8
19415	3.1395	2.9091	5.e-002	16.916
19416	3.1395	2.6364	0.	4983.8
19417	3.0472	2.7273	0.	4996.8
19418	3.1395	2.7273	5.e-002	16.929
19419	3.1395	2.4545	0.	4996.5
19420	3.0472	2.5455	0.	5006.9
19421	3.1395	2.5455	5.e-002	16.954
19422	3.1395	2.2727	0.	5014.3
19423	3.0472	2.3636	0.	5022.2
19424	3.1395	2.3636	5.e-002	16.991
19425	3.1395	2.0909	0.	5037.4
19426	3.0472	2.1818	0.	5042.7
19427	3.1395	2.1818	5.e-002	17.038
19428	3.1395	1.9091	0.	5065.7
19429	3.0472	2.	0.	5068.6
19430	3.1395	2.	5.e-002	17.093
19431	3.1395	1.7273	0.	5099.1
19432	3.0472	1.8182	0.	5099.9
19433	3.1395	1.8182	5.e-002	17.151
19434	3.1395	1.5455	0.	5137.8
19435	3.0472	1.6364	0.	5136.5
19436	3.1395	1.6364	5.e-002	17.205
19437	3.1395	1.3636	0.	5181.3
19438	3.0472	1.4545	0.	5178.5
19439	3.1395	1.4545	5.e-002	17.247
19440	3.1395	1.1818	0.	5229.6
19441	3.0472	1.2727	0.	5225.6
19442	3.1395	1.2727	5.e-002	17.266
19443	3.1395	1.	0.	5282.2
19444	3.0472	1.0909	0.	5277.5
19445	3.1395	1.0909	5.e-002	17.251
19446	3.1395	0.81818	0.	5338.5
19447	3.0472	0.90909	0.	5333.7
19448	3.1395	0.90909	5.e-002	17.193
19449	3.1395	0.63636	0.	5398.1
19450	3.0472	0.72727	0.	5393.8
19451	3.1395	0.72727	5.e-002	17.086
19452	3.1395	0.45455	0.	5460.5
19453	3.0472	0.54545	0.	5457.
19454	3.1395	0.54545	5.e-002	16.967
19455	3.1395	0.27273	0.	5526.9
19456	3.0472	0.36364	0.	5523.1
19457	3.1395	0.36364	5.e-002	17.345
19458	3.0472	0.18182	0.	5595.3
19459	3.1395	0.18182	5.e-002	28.339
19460	3.1395	9.0909e-002	0.	5575.7
19461	2.9548	5.7273	0.	5591.4
19462	2.8625	5.8182	0.	5662.5
19463	2.9548	5.8182	5.e-002	30.381
19464	2.9548	5.9091	0.	5642.
19465	2.9548	5.5455	0.	5519.6
19466	2.8625	5.6364	0.	5584.
19467	2.9548	5.6364	5.e-002	18.069
19468	2.9548	5.3636	0.	5452.7
19469	2.8625	5.4545	0.	5513.1
19470	2.9548	5.4545	5.e-002	17.7
19471	2.9548	5.1818	0.	5389.
19472	2.8625	5.2727	0.	5445.4
19473	2.9548	5.2727	5.e-002	17.86
19474	2.9548	5.	0.	5329.
19475	2.8625	5.0909	0.	5381.4
19476	2.9548	5.0909	5.e-002	17.998
19477	2.9548	4.8182	0.	5273.4
19478	2.8625	4.9091	0.	5321.9
19479	2.9548	4.9091	5.e-002	18.077
19480	2.9548	4.6364	0.	5222.7
19481	2.8625	4.7273	0.	5267.3
19482	2.9548	4.7273	5.e-002	18.103
19483	2.9548	4.4545	0.	5177.2
19484	2.8625	4.5455	0.	5218.2
19485	2.9548	4.5455	5.e-002	18.091
19486	2.9548	4.2727	0.	5137.2
19487	2.8625	4.3636	0.	5174.8
19488	2.9548	4.3636	5.e-002	18.054
19489	2.9548	4.0909	0.	5102.7
19490	2.8625	4.1818	0.	5137.2
19491	2.9548	4.1818	5.e-002	18.004
19492	2.9548	3.9091	0.	5073.9
19493	2.8625	4.	0.	5105.5
19494	2.9548	4.	5.e-002	17.952
19495	2.9548	3.7273	0.	5050.6
19496	2.8625	3.8182	0.	5079.4
19497	2.9548	3.8182	5.e-002	17.905
19498	2.9548	3.5455	0.	5032.6
19499	2.8625	3.6364	0.	5058.9
19500	2.9548	3.6364	5.e-002	17.866
19501	2.9548	3.3636	0.	5019.9
19502	2.8625	3.4545	0.	5043.7
19503	2.9548	3.4545	5.e-002	17.837
19504	2.9548	3.1818	0.	5012.3
19505	2.8625	3.2727	0.	5033.7
19506	2.9548	3.2727	5.e-002	17.818
19507	2.9548	3.	0.	5009.8
19508	2.8625	3.0909	0.	5028.8
19509	2.9548	3.0909	5.e-002	17.809
19510	2.9548	2.8182	0.	5012.3
19511	2.8625	2.9091	0.	5028.8
19512	2.9548	2.9091	5.e-002	17.809
19513	2.9548	2.6364	0.	5019.9
19514	2.8625	2.7273	0.	5033.7
19515	2.9548	2.7273	5.e-002	17.818
19516	2.9548	2.4545	0.	5032.6
19517	2.8625	2.5455	0.	5043.7
19518	2.9548	2.5455	5.e-002	17.837
19519	2.9548	2.2727	0.	5050.6
19520	2.8625	2.3636	0.	5058.9
19521	2.9548	2.3636	5.e-002	17.866
19522	2.9548	2.0909	0.	5073.9
19523	2.8625	2.1818	0.	5079.4
19524	2.9548	2.1818	5.e-002	17.905
19525	2.9548	1.9091	0.	5102.7
19526	2.8625	2.	0.	5105.5
19527	2.9548	2.	5.e-002	17.952
19528	2.9548	1.7273	0.	5137.2
19529	2.8625	1.8182	0.	5137.2
19530	2.9548	1.8182	5.e-002	18.004
19531	2.9548	1.5455	0.	5177.2
19532	2.8625	1.6364	0.	5174.8
19533	2.9548	1.6364	5.e-002	18.054
19534	2.9548	1.3636	0.	5222.7
19535	2.8625	1.4545	0.	5218.2
19536	2.9548	1.4545	5.e-002	18.091
19537	2.9548	1.1818	0.	5273.4
19538	2.8625	1.2727	0.	5267.3
19539	2.9548	1.2727	5.e-002	18.103
19540	2.9548	1.	0.	5329.
19541	2.8625	1.0909	0.	5321.9
19542	2.9548	1.0909	5.e-002	18.077
19543	2.9548	0.81818	0.	5389.
19544	2.8625	0.90909	0.	5381.4
19545	2.9548	0.90909	5.e-002	17.998
19546	2.9548	0.63636	0.	5452.7
19547	2.8625	0.72727	0.	5445.4
19548	2.9548	0.72727	5.e-002	17.86
19549	2.9548	0.45455	0.	5519.6
19550	2.8625	0.54545	0.	5513.1
19551	2.9548	0.54545	5.e-002	17.7
19552	2.9548	0.27273	0.	5591.4
19553	2.8625	0.36364	0.	5584.
19554	2.9548	0.36364	5.e-002	18.069
19555	2.8625	0.18182	0.	5662.5
19556	2.9548	0.18182	5.e-002	30.381
19557	2.9548	9.0909e-002	0.	5642.
19558	2.7702	5.7273	0.	5655.1
19559	2.6778	5.8182	0.	5729.
19560	2.7702	5.8182	5.e-002	32.509
19561	2.7702	5.9091	0.	5707.4
19562	2.7702	5.5455	0.	5577.4
19563	2.6778	5.6364	0.	5643.6
19564	2.7702	5.6364	5.e-002	18.856
19565	2.7702	5.3636	0.	5505.7
19566	2.6778	5.4545	0.	5567.4
19567	2.7702	5.4545	5.e-002	18.521
19568	2.7702	5.1818	0.	5437.8
19569	2.6778	5.2727	0.	5495.1
19570	2.7702	5.2727	5.e-002	18.734
19571	2.7702	5.	0.	5374.2
19572	2.6778	5.0909	0.	5427.2
19573	2.7702	5.0909	5.e-002	18.909
19574	2.7702	4.8182	0.	5315.7
19575	2.6778	4.9091	0.	5364.4
19576	2.7702	4.9091	5.e-002	19.01
19577	2.7702	4.6364	0.	5262.7
19578	2.6778	4.7273	0.	5307.4
19579	2.7702	4.7273	5.e-002	19.049
19580	2.7702	4.4545	0.	5215.7
19581	2.6778	4.5455	0.	5256.7
19582	2.7702	4.5455	5.e-002	19.043
19583	2.7702	4.2727	0.	5174.7
19584	2.6778	4.3636	0.	5212.4
19585	2.7702	4.3636	5.e-002	19.012
19586	2.7702	4.0909	0.	5139.9
19587	2.6778	4.1818	0.	5174.5
19588	2.7702	4.1818	5.e-002	18.97
19589	2.7702	3.9091	0.	5110.9
19590	2.6778	4.	0.	5142.8
19591	2.7702	4.	5.e-002	18.928
19592	2.7702	3.7273	0.	5087.7
19593	2.6778	3.8182	0.	5117.1
19594	2.7702	3.8182	5.e-002	18.893
19595	2.7702	3.5455	0.	5070.
19596	2.6778	3.6364	0.	5097.1
19597	2.7702	3.6364	5.e-002	18.868
19598	2.7702	3.3636	0.	5057.5
19599	2.6778	3.4545	0.	5082.4
19600	2.7702	3.4545	5.e-002	18.851
19601	2.7702	3.1818	0.	5050.1
19602	2.6778	3.2727	0.	5072.8
19603	2.7702	3.2727	5.e-002	18.841
19604	2.7702	3.	0.	5047.7
19605	2.6778	3.0909	0.	5068.1
19606	2.7702	3.0909	5.e-002	18.837
19607	2.7702	2.8182	0.	5050.1
19608	2.6778	2.9091	0.	5068.1
19609	2.7702	2.9091	5.e-002	18.837
19610	2.7702	2.6364	0.	5057.5
19611	2.6778	2.7273	0.	5072.8
19612	2.7702	2.7273	5.e-002	18.841
19613	2.7702	2.4545	0.	5070.
19614	2.6778	2.5455	0.	5082.4
19615	2.7702	2.5455	5.e-002	18.851
19616	2.7702	2.2727	0.	5087.7
19617	2.6778	2.3636	0.	5097.1
19618	2.7702	2.3636	5.e-002	18.868
19619	2.7702	2.0909	0.	5110.9
19620	2.6778	2.1818	0.	5117.1
19621	2.7702	2.1818	5.e-002	18.893
19622	2.7702	1.9091	0.	5139.9
19623	2.6778	2.	0.	5142.8
19624	2.7702	2.	5.e-002	18.928
19625	2.7702	1.7273	0.	5174.7
19626	2.6778	1.8182	0.	5174.5
19627	2.7702	1.8182	5.e-002	18.97
19628	2.7702	1.5455	0.	5215.7
19629	2.6778	1.6364	0.	5212.4
19630	2.7702	1.6364	5.e-002	19.012
19631	2.7702	1.3636	0.	5262.7
19632	2.6778	1.4545	0.	5256.7
19633	2.7702	1.4545	5.e-002	19.043
19634	2.7702	1.1818	0.	5315.7
19635	2.6778	1.2727	0.	5307.4
19636	2.7702	1.2727	5.e-002	19.049
19637	2.7702	1.	0.	5374.2
19638	2.6778	1.0909	0.	5364.4
19639	2.7702	1.0909	5.e-002	19.01
19640	2.7702	0.81818	0.	5437.8
19641	2.6778	0.90909	0.	5427.2
19642	2.7702	0.90909	5.e-002	18.909
19643	2.7702	0.63636	0.	5505.7
19644	2.6778	0.72727	0.	5495.1
19645	2.7702	0.72727	5.e-002	18.734
19646	2.7702	0.45455	0.	5577.4
19647	2.6778	0.54545	0.	5567.4
19648	2.7702	0.54545	5.e-002	18.521
19649	2.7702	0.27273	0.	5655.1
19650	2.6778	0.36364	0.	5643.6
19651	2.7702	0.36364	5.e-002	18.856
19652	2.6778	0.18182	0.	5729.
19653	2.7702	0.18182	5.e-002	32.509
19654	2.7702	9.0909e-002	0.	5707.4
19655	2.5855	5.7273	0.	5717.4
19656	2.4931	5.8182	0.	5794.
19657	2.5855	5.8182	5.e-002	34.708
19658	2.5855	5.9091	0.	5771.1
19659	2.5855	5.5455	0.	5633.4
19660	2.4931	5.6364	0.	5701.
19661	2.5855	5.6364	5.e-002	19.723
19662	2.5855	5.3636	0.	5556.6
19663	2.4931	5.4545	0.	5619.2
19664	2.5855	5.4545	5.e-002	19.455
19665	2.5855	5.1818	0.	5484.3
19666	2.4931	5.2727	0.	5542.1
19667	2.5855	5.2727	5.e-002	19.733
19668	2.5855	5.	0.	5417.2
19669	2.4931	5.0909	0.	5470.2
19670	2.5855	5.0909	5.e-002	19.95
19671	2.5855	4.8182	0.	5356.
19672	2.4931	4.9091	0.	5404.5
19673	2.5855	4.9091	5.e-002	20.074
19674	2.5855	4.6364	0.	5301.2
19675	2.4931	4.7273	0.	5345.6
19676	2.5855	4.7273	5.e-002	20.123
19677	2.5855	4.4545	0.	5253.2
19678	2.4931	4.5455	0.	5293.8
19679	2.5855	4.5455	5.e-002	20.123
19680	2.5855	4.2727	0.	5212.
19681	2.4931	4.3636	0.	5249.3
19682	2.5855	4.3636	5.e-002	20.098
19683	2.5855	4.0909	0.	5177.3
19684	2.4931	4.1818	0.	5211.9
19685	2.5855	4.1818	5.e-002	20.066
19686	2.5855	3.9091	0.	5148.9
19687	2.4931	4.	0.	5181.1
19688	2.5855	4.	5.e-002	20.04
19689	2.5855	3.7273	0.	5126.4
19690	2.4931	3.8182	0.	5156.5
19691	2.5855	3.8182	5.e-002	20.023
19692	2.5855	3.5455	0.	5109.5
19693	2.4931	3.6364	0.	5137.6
19694	2.5855	3.6364	5.e-002	20.016
19695	2.5855	3.3636	0.	5097.6
19696	2.4931	3.4545	0.	5123.9
19697	2.5855	3.4545	5.e-002	20.017
19698	2.5855	3.1818	0.	5090.7
19699	2.4931	3.2727	0.	5115.
19700	2.5855	3.2727	5.e-002	20.02
19701	2.5855	3.	0.	5088.4
19702	2.4931	3.0909	0.	5110.7
19703	2.5855	3.0909	5.e-002	20.023
19704	2.5855	2.8182	0.	5090.7
19705	2.4931	2.9091	0.	5110.7
19706	2.5855	2.9091	5.e-002	20.023
19707	2.5855	2.6364	0.	5097.6
19708	2.4931	2.7273	0.	5115.
19709	2.5855	2.7273	5.e-002	20.02
19710	2.5855	2.4545	0.	5109.5
19711	2.4931	2.5455	0.	5123.9
19712	2.5855	2.5455	5.e-002	20.017
19713	2.5855	2.2727	0.	5126.4
19714	2.4931	2.3636	0.	5137.6
19715	2.5855	2.3636	5.e-002	20.016
19716	2.5855	2.0909	0.	5148.9
19717	2.4931	2.1818	0.	5156.5
19718	2.5855	2.1818	5.e-002	20.023
19719	2.5855	1.9091	0.	5177.3
19720	2.4931	2.	0.	5181.1
19721	2.5855	2.	5.e-002	20.04
19722	2.5855	1.7273	0.	5212.
19723	2.4931	1.8182	0.	5211.9
19724	2.5855	1.8182	5.e-002	20.066
19725	2.5855	1.5455	0.	5253.2
19726	2.4931	1.6364	0.	5249.3
19727	2.5855	1.6364	5.e-002	20.098
19728	2.5855	1.3636	0.	5301.2
19729	2.4931	1.4545	0.	5293.8
19730	2.5855	1.4545	5.e-002	20.123
19731	2.5855	1.1818	0.	5356.
19732	2.4931	1.2727	0.	5345.6
19733	2.5855	1.2727	5.e-002	20.123
19734	2.5855	1.	0.	5417.2
19735	2.4931	1.0909	0.	5404.5
19736	2.5855	1.0909	5.e-002	20.074
19737	2.5855	0.81818	0.	5484.3
19738	2.4931	0.90909	0.	5470.2
19739	2.5855	0.90909	5.e-002	19.95
19740	2.5855	0.63636	0.	5556.6
19741	2.4931	0.72727	0.	5542.1
19742	2.5855	0.72727	5.e-002	19.733
19743	2.5855	0.45455	0.	5633.4
19744	2.4931	0.54545	0.	5619.2
19745	2.5855	0.54545	5.e-002	19.455
19746	2.5855	0.27273	0.	5717.4
19747	2.4931	0.36364	0.	5701.
19748	2.5855	0.36364	5.e-002	19.723
19749	2.4931	0.18182	0.	5794.
19750	2.5855	0.18182	5.e-002	34.708
19751	2.5855	9.0909e-002	0.	5771.1
19752	2.4008	5.7273	0.	5777.5
19753	2.3085	5.8182	0.	5856.7
19754	2.4008	5.8182	5.e-002	36.962
19755	2.4008	5.9091	0.	5832.4
19756	2.4008	5.5455	0.	5686.6
19757	2.3085	5.6364	0.	5755.2
19758	2.4008	5.6364	5.e-002	20.696
19759	2.4008	5.3636	0.	5604.5
19760	2.3085	5.4545	0.	5667.4
19761	2.4008	5.4545	5.e-002	20.538
19762	2.4008	5.1818	0.	5527.8
19763	2.3085	5.2727	0.	5585.3
19764	2.4008	5.2727	5.e-002	20.892
19765	2.4008	5.	0.	5457.3
19766	2.3085	5.0909	0.	5509.7
19767	2.4008	5.0909	5.e-002	21.154
19768	2.4008	4.8182	0.	5393.8
19769	2.3085	4.9091	0.	5441.4
19770	2.4008	4.9091	5.e-002	21.295
19771	2.4008	4.6364	0.	5337.9
19772	2.3085	4.7273	0.	5381.2
19773	2.4008	4.7273	5.e-002	21.349
19774	2.4008	4.4545	0.	5289.7
19775	2.3085	4.5455	0.	5329.4
19776	2.4008	4.5455	5.e-002	21.35
19777	2.4008	4.2727	0.	5249.
19778	2.3085	4.3636	0.	5285.7
19779	2.4008	4.3636	5.e-002	21.331
19780	2.4008	4.0909	0.	5215.5
19781	2.3085	4.1818	0.	5249.8
19782	2.4008	4.1818	5.e-002	21.313
19783	2.4008	3.9091	0.	5188.5
19784	2.3085	4.	0.	5220.9
19785	2.4008	4.	5.e-002	21.307
19786	2.4008	3.7273	0.	5167.5
19787	2.3085	3.8182	0.	5198.4
19788	2.4008	3.8182	5.e-002	21.316
19789	2.4008	3.5455	0.	5151.9
19790	2.3085	3.6364	0.	5181.4
19791	2.4008	3.6364	5.e-002	21.335
19792	2.4008	3.3636	0.	5141.2
19793	2.3085	3.4545	0.	5169.3
19794	2.4008	3.4545	5.e-002	21.359
19795	2.4008	3.1818	0.	5134.9
19796	2.3085	3.2727	0.	5161.6
19797	2.4008	3.2727	5.e-002	21.379
19798	2.4008	3.	0.	5132.9
19799	2.3085	3.0909	0.	5157.8
19800	2.4008	3.0909	5.e-002	21.391
19801	2.4008	2.8182	0.	5134.9
19802	2.3085	2.9091	0.	5157.8
19803	2.4008	2.9091	5.e-002	21.391
19804	2.4008	2.6364	0.	5141.2
19805	2.3085	2.7273	0.	5161.6
19806	2.4008	2.7273	5.e-002	21.379
19807	2.4008	2.4545	0.	5151.9
19808	2.3085	2.5455	0.	5169.3
19809	2.4008	2.5455	5.e-002	21.359
19810	2.4008	2.2727	0.	5167.5
19811	2.3085	2.3636	0.	5181.4
19812	2.4008	2.3636	5.e-002	21.335
19813	2.4008	2.0909	0.	5188.5
19814	2.3085	2.1818	0.	5198.4
19815	2.4008	2.1818	5.e-002	21.316
19816	2.4008	1.9091	0.	5215.5
19817	2.3085	2.	0.	5220.9
19818	2.4008	2.	5.e-002	21.307
19819	2.4008	1.7273	0.	5249.
19820	2.3085	1.8182	0.	5249.8
19821	2.4008	1.8182	5.e-002	21.313
19822	2.4008	1.5455	0.	5289.7
19823	2.3085	1.6364	0.	5285.7
19824	2.4008	1.6364	5.e-002	21.331
19825	2.4008	1.3636	0.	5337.9
19826	2.3085	1.4545	0.	5329.4
19827	2.4008	1.4545	5.e-002	21.35
19828	2.4008	1.1818	0.	5393.8
19829	2.3085	1.2727	0.	5381.2
19830	2.4008	1.2727	5.e-002	21.349
19831	2.4008	1.	0.	5457.3
19832	2.3085	1.0909	0.	5441.4
19833	2.4008	1.0909	5.e-002	21.295
19834	2.4008	0.81818	0.	5527.8
19835	2.3085	0.90909	0.	5509.7
19836	2.4008	0.90909	5.e-002	21.154
19837	2.4008	0.63636	0.	5604.5
19838	2.3085	0.72727	0.	5585.3
19839	2.4008	0.72727	5.e-002	20.892
19840	2.4008	0.45455	0.	5686.6
19841	2.3085	0.54545	0.	5667.4
19842	2.4008	0.54545	5.e-002	20.538
19843	2.4008	0.27273	0.	5777.5
19844	2.3085	0.36364	0.	5755.2
19845	2.4008	0.36364	5.e-002	20.696
19846	2.3085	0.18182	0.	5856.7
19847	2.4008	0.18182	5.e-002	36.962
19848	2.4008	9.0909e-002	0.	5832.4
19849	2.2161	5.7273	0.	5834.2
19850	2.1238	5.8182	0.	5915.7
19851	2.2161	5.8182	5.e-002	39.242
19852	2.2161	5.9091	0.	5890.
19853	2.2161	5.5455	0.	5735.8
19854	2.1238	5.6364	0.	5804.8
19855	2.2161	5.6364	5.e-002	21.816
19856	2.2161	5.3636	0.	5648.
19857	2.1238	5.4545	0.	5710.5
19858	2.2161	5.4545	5.e-002	21.822
19859	2.2161	5.1818	0.	5567.
19860	2.1238	5.2727	0.	5623.5
19861	2.2161	5.2727	5.e-002	22.264
19862	2.2161	5.	0.	5493.5
19863	2.1238	5.0909	0.	5544.3
19864	2.2161	5.0909	5.e-002	22.564
19865	2.2161	4.8182	0.	5428.5
19866	2.1238	4.9091	0.	5474.3
19867	2.2161	4.9091	5.e-002	22.711
19868	2.2161	4.6364	0.	5372.4
19869	2.1238	4.7273	0.	5413.9
19870	2.2161	4.7273	5.e-002	22.757
19871	2.2161	4.4545	0.	5325.1
19872	2.1238	4.5455	0.	5363.2
19873	2.2161	4.5455	5.e-002	22.752
19874	2.2161	4.2727	0.	5286.2
19875	2.1238	4.3636	0.	5321.8
19876	2.2161	4.3636	5.e-002	22.737
19877	2.2161	4.0909	0.	5255.
19878	2.1238	4.1818	0.	5288.8
19879	2.2161	4.1818	5.e-002	22.735
19880	2.2161	3.9091	0.	5230.6
19881	2.1238	4.	0.	5263.1
19882	2.2161	4.	5.e-002	22.756
19883	2.2161	3.7273	0.	5212.
19884	2.1238	3.8182	0.	5243.8
19885	2.2161	3.8182	5.e-002	22.797
19886	2.2161	3.5455	0.	5198.6
19887	2.1238	3.6364	0.	5229.7
19888	2.2161	3.6364	5.e-002	22.85
19889	2.2161	3.3636	0.	5189.5
19890	2.1238	3.4545	0.	5219.9
19891	2.2161	3.4545	5.e-002	22.902
19892	2.2161	3.1818	0.	5184.3
19893	2.1238	3.2727	0.	5213.8
19894	2.2161	3.2727	5.e-002	22.943
19895	2.2161	3.	0.	5182.6
19896	2.1238	3.0909	0.	5210.9
19897	2.2161	3.0909	5.e-002	22.966
19898	2.2161	2.8182	0.	5184.3
19899	2.1238	2.9091	0.	5210.9
19900	2.2161	2.9091	5.e-002	22.966
19901	2.2161	2.6364	0.	5189.5
19902	2.1238	2.7273	0.	5213.8
19903	2.2161	2.7273	5.e-002	22.943
19904	2.2161	2.4545	0.	5198.6
19905	2.1238	2.5455	0.	5219.9
19906	2.2161	2.5455	5.e-002	22.902
19907	2.2161	2.2727	0.	5212.
19908	2.1238	2.3636	0.	5229.7
19909	2.2161	2.3636	5.e-002	22.85
19910	2.2161	2.0909	0.	5230.6
19911	2.1238	2.1818	0.	5243.8
19912	2.2161	2.1818	5.e-002	22.797
19913	2.2161	1.9091	0.	5255.
19914	2.1238	2.	0.	5263.1
19915	2.2161	2.	5.e-002	22.756
19916	2.2161	1.7273	0.	5286.2
19917	2.1238	1.8182	0.	5288.8
19918	2.2161	1.8182	5.e-002	22.735
19919	2.2161	1.5455	0.	5325.1
19920	2.1238	1.6364	0.	5321.8
19921	2.2161	1.6364	5.e-002	22.737
19922	2.2161	1.3636	0.	5372.4
19923	2.1238	1.4545	0.	5363.2
19924	2.2161	1.4545	5.e-002	22.752
19925	2.2161	1.1818	0.	5428.5
19926	2.1238	1.2727	0.	5413.9
19927	2.2161	1.2727	5.e-002	22.757
19928	2.2161	1.	0.	5493.5
19929	2.1238	1.0909	0.	5474.3
19930	2.2161	1.0909	5.e-002	22.711
19931	2.2161	0.81818	0.	5567.
19932	2.1238	0.90909	0.	5544.3
19933	2.2161	0.90909	5.e-002	22.564
19934	2.2161	0.63636	0.	5648.
19935	2.1238	0.72727	0.	5623.5
19936	2.2161	0.72727	5.e-002	22.264
19937	2.2161	0.45455	0.	5735.8
19938	2.1238	0.54545	0.	5710.5
19939	2.2161	0.54545	5.e-002	21.822
19940	2.2161	0.27273	0.	5834.2
19941	2.1238	0.36364	0.	5804.8
19942	2.2161	0.36364	5.e-002	21.816
19943	2.1238	0.18182	0.	5915.7
19944	2.2161	0.18182	5.e-002	39.241
19945	2.2161	9.0909e-002	0.	5890.
19946	2.0315	5.7273	0.	5886.
19947	1.9391	5.8182	0.	5969.3
19948	2.0315	5.8182	5.e-002	41.51
19949	2.0315	5.9091	0.	5942.3
19950	2.0315	5.5455	0.	5779.3
19951	1.9391	5.6364	0.	5847.8
19952	2.0315	5.6364	5.e-002	23.153
19953	2.0315	5.3636	0.	5685.7
19954	1.9391	5.4545	0.	5746.7
19955	2.0315	5.4545	5.e-002	23.39
19956	2.0315	5.1818	0.	5600.5
19957	1.9391	5.2727	0.	5654.7
19958	2.0315	5.2727	5.e-002	23.921
19959	2.0315	5.	0.	5524.8
19960	1.9391	5.0909	0.	5572.7
19961	2.0315	5.0909	5.e-002	24.24
19962	2.0315	4.8182	0.	5459.3
19963	1.9391	4.9091	0.	5502.
19964	2.0315	4.9091	5.e-002	24.368
19965	2.0315	4.6364	0.	5404.4
19966	1.9391	4.7273	0.	5443.
19967	2.0315	4.7273	5.e-002	24.385
19968	2.0315	4.4545	0.	5359.6
19969	1.9391	4.5455	0.	5395.3
19970	2.0315	4.5455	5.e-002	24.361
19971	2.0315	4.2727	0.	5324.1
19972	1.9391	4.3636	0.	5358.
19973	2.0315	4.3636	5.e-002	24.345
19974	2.0315	4.0909	0.	5296.7
19975	1.9391	4.1818	0.	5329.7
19976	2.0315	4.1818	5.e-002	24.363
19977	2.0315	3.9091	0.	5276.1
19978	1.9391	4.	0.	5308.9
19979	2.0315	4.	5.e-002	24.417
19980	2.0315	3.7273	0.	5261.2
19981	1.9391	3.8182	0.	5294.1
19982	2.0315	3.8182	5.e-002	24.497
19983	2.0315	3.5455	0.	5250.8
19984	1.9391	3.6364	0.	5283.9
19985	2.0315	3.6364	5.e-002	24.588
19986	2.0315	3.3636	0.	5244.1
19987	1.9391	3.4545	0.	5277.3
19988	2.0315	3.4545	5.e-002	24.674
19989	2.0315	3.1818	0.	5240.3
19990	1.9391	3.2727	0.	5273.4
19991	2.0315	3.2727	5.e-002	24.738
19992	2.0315	3.	0.	5239.1
19993	1.9391	3.0909	0.	5271.6
19994	2.0315	3.0909	5.e-002	24.773
19995	2.0315	2.8182	0.	5240.3
19996	1.9391	2.9091	0.	5271.6
19997	2.0315	2.9091	5.e-002	24.773
19998	2.0315	2.6364	0.	5244.1
19999	1.9391	2.7273	0.	5273.4
20000	2.0315	2.7273	5.e-002	24.738
20001	2.0315	2.4545	0.	5250.8
20002	1.9391	2.5455	0.	5277.3
20003	2.0315	2.5455	5.e-002	24.674
20004	2.0315	2.2727	0.	5261.2
20005	1.9391	2.3636	0.	5283.9
20006	2.0315	2.3636	5.e-002	24.588
20007	2.0315	2.0909	0.	5276.1
20008	1.9391	2.1818	0.	5294.1
20009	2.0315	2.1818	5.e-002	24.497
20010	2.0315	1.9091	0.	5296.7
20011	1.9391	2.	0.	5308.9
20012	2.0315	2.	5.e-002	24.417
20013	2.0315	1.7273	0.	5324.1
20014	1.9391	1.8182	0.	5329.7
20015	2.0315	1.8182	5.e-002	24.363
20016	2.0315	1.5455	0.	5359.6
20017	1.9391	1.6364	0.	5358.
20018	2.0315	1.6364	5.e-002	24.345
20019	2.0315	1.3636	0.	5404.4
20020	1.9391	1.4545	0.	5395.3
20021	2.0315	1.4545	5.e-002	24.361
20022	2.0315	1.1818	0.	5459.3
20023	1.9391	1.2727	0.	5443.
20024	2.0315	1.2727	5.e-002	24.385
20025	2.0315	1.	0.	5524.8
20026	1.9391	1.0909	0.	5502.
20027	2.0315	1.0909	5.e-002	24.368
20028	2.0315	0.81818	0.	5600.5
20029	1.9391	0.90909	0.	5572.7
20030	2.0315	0.90909	5.e-002	24.24
20031	2.0315	0.63636	0.	5685.7
20032	1.9391	0.72727	0.	5654.7
20033	2.0315	0.72727	5.e-002	23.921
20034	2.0315	0.45455	0.	5779.3
20035	1.9391	0.54545	0.	5746.7
20036	2.0315	0.54545	5.e-002	23.39
20037	2.0315	0.27273	0.	5886.
20038	1.9391	0.36364	0.	5847.8
20039	2.0315	0.36364	5.e-002	23.153
20040	1.9391	0.18182	0.	5969.3
20041	2.0315	0.18182	5.e-002	41.51
20042	2.0315	9.0909e-002	0.	5942.3
20043	1.8468	5.7273	0.	5930.7
20044	1.7544	5.8182	0.	6014.8
20045	1.8468	5.8182	5.e-002	43.713
20046	1.8468	5.9091	0.	5987.
20047	1.8468	5.5455	0.	5814.8
20048	1.7544	5.6364	0.	5881.4
20049	1.8468	5.6364	5.e-002	24.822
20050	1.8468	5.3636	0.	5715.3
20051	1.7544	5.4545	0.	5773.1
20052	1.8468	5.4545	5.e-002	25.362
20053	1.8468	5.1818	0.	5626.5
20054	1.7544	5.2727	0.	5676.5
20055	1.8468	5.2727	5.e-002	25.964
20056	1.8468	5.	0.	5549.5
20057	1.7544	5.0909	0.	5592.8
20058	1.8468	5.0909	5.e-002	26.261
20059	1.8468	4.8182	0.	5485.2
20060	1.7544	4.9091	0.	5523.3
20061	1.8468	4.9091	5.e-002	26.325
20062	1.8468	4.6364	0.	5433.4
20063	1.7544	4.7273	0.	5467.9
20064	1.8468	4.7273	5.e-002	26.277
20065	1.8468	4.4545	0.	5393.3
20066	1.7544	4.5455	0.	5425.7
20067	1.8468	4.5455	5.e-002	26.214
20068	1.8468	4.2727	0.	5363.2
20069	1.7544	4.3636	0.	5394.9
20070	1.8468	4.3636	5.e-002	26.192
20071	1.8468	4.0909	0.	5341.6
20072	1.7544	4.1818	0.	5373.6
20073	1.8468	4.1818	5.e-002	26.232
20074	1.8468	3.9091	0.	5326.6
20075	1.7544	4.	0.	5359.6
20076	1.8468	4.	5.e-002	26.324
20077	1.8468	3.7273	0.	5316.6
20078	1.7544	3.8182	0.	5351.
20079	1.8468	3.8182	5.e-002	26.449
20080	1.8468	3.5455	0.	5310.3
20081	1.7544	3.6364	0.	5346.
20082	1.8468	3.6364	5.e-002	26.582
20083	1.8468	3.3636	0.	5306.6
20084	1.7544	3.4545	0.	5343.5
20085	1.8468	3.4545	5.e-002	26.701
20086	1.8468	3.1818	0.	5304.6
20087	1.7544	3.2727	0.	5342.3
20088	1.8468	3.2727	5.e-002	26.79
20089	1.8468	3.	0.	5304.
20090	1.7544	3.0909	0.	5341.9
20091	1.8468	3.0909	5.e-002	26.837
20092	1.8468	2.8182	0.	5304.6
20093	1.7544	2.9091	0.	5341.9
20094	1.8468	2.9091	5.e-002	26.837
20095	1.8468	2.6364	0.	5306.6
20096	1.7544	2.7273	0.	5342.3
20097	1.8468	2.7273	5.e-002	26.79
20098	1.8468	2.4545	0.	5310.3
20099	1.7544	2.5455	0.	5343.5
20100	1.8468	2.5455	5.e-002	26.701
20101	1.8468	2.2727	0.	5316.6
20102	1.7544	2.3636	0.	5346.
20103	1.8468	2.3636	5.e-002	26.582
20104	1.8468	2.0909	0.	5326.6
20105	1.7544	2.1818	0.	5351.
20106	1.8468	2.1818	5.e-002	26.449
20107	1.8468	1.9091	0.	5341.6
20108	1.7544	2.	0.	5359.6
20109	1.8468	2.	5.e-002	26.324
20110	1.8468	1.7273	0.	5363.2
20111	1.7544	1.8182	0.	5373.6
20112	1.8468	1.8182	5.e-002	26.232
20113	1.8468	1.5455	0.	5393.3
20114	1.7544	1.6364	0.	5394.9
20115	1.8468	1.6364	5.e-002	26.192
20116	1.8468	1.3636	0.	5433.4
20117	1.7544	1.4545	0.	5425.7
20118	1.8468	1.4545	5.e-002	26.214
20119	1.8468	1.1818	0.	5485.2
20120	1.7544	1.2727	0.	5467.9
20121	1.8468	1.2727	5.e-002	26.277
20122	1.8468	1.	0.	5549.5
20123	1.7544	1.0909	0.	5523.3
20124	1.8468	1.0909	5.e-002	26.325
20125	1.8468	0.81818	0.	5626.5
20126	1.7544	0.90909	0.	5592.8
20127	1.8468	0.90909	5.e-002	26.261
20128	1.8468	0.63636	0.	5715.3
20129	1.7544	0.72727	0.	5676.5
20130	1.8468	0.72727	5.e-002	25.964
20131	1.8468	0.45455	0.	5814.8
20132	1.7544	0.54545	0.	5773.1
20133	1.8468	0.54545	5.e-002	25.362
20134	1.8468	0.27273	0.	5930.7
20135	1.7544	0.36364	0.	5881.4
20136	1.8468	0.36364	5.e-002	24.822
20137	1.7544	0.18182	0.	6014.8
20138	1.8468	0.18182	5.e-002	43.713
20139	1.8468	9.0909e-002	0.	5987.
20140	1.6621	5.7273	0.	5965.1
20141	1.5698	5.8182	0.	6048.8
20142	1.6621	5.8182	5.e-002	45.78
20143	1.6621	5.9091	0.	6021.
20144	1.6621	5.5455	0.	5839.3
20145	1.5698	5.6364	0.	5901.8
20146	1.6621	5.6364	5.e-002	27.013
20147	1.6621	5.3636	0.	5733.8
20148	1.5698	5.4545	0.	5786.1
20149	1.6621	5.4545	5.e-002	27.921
20150	1.6621	5.1818	0.	5642.3
20151	1.5698	5.2727	0.	5685.8
20152	1.6621	5.2727	5.e-002	28.539
20153	1.6621	5.	0.	5566.
20154	1.5698	5.0909	0.	5602.3
20155	1.6621	5.0909	5.e-002	28.729
20156	1.6621	4.8182	0.	5505.3
20157	1.5698	4.9091	0.	5536.7
20158	1.6621	4.9091	5.e-002	28.651
20159	1.6621	4.6364	0.	5459.5
20160	1.5698	4.7273	0.	5488.3
20161	1.6621	4.7273	5.e-002	28.486
20162	1.6621	4.4545	0.	5426.9
20163	1.5698	4.5455	0.	5454.9
20164	1.6621	4.5455	5.e-002	28.359
20165	1.6621	4.2727	0.	5404.9
20166	1.5698	4.3636	0.	5433.9
20167	1.6621	4.3636	5.e-002	28.325
20168	1.6621	4.0909	0.	5391.3
20169	1.5698	4.1818	0.	5422.3
20170	1.6621	4.1818	5.e-002	28.388
20171	1.6621	3.9091	0.	5383.8
20172	1.5698	4.	0.	5417.3
20173	1.6621	4.	5.e-002	28.521
20174	1.6621	3.7273	0.	5380.2
20175	1.5698	3.8182	0.	5416.5
20176	1.6621	3.8182	5.e-002	28.69
20177	1.6621	3.5455	0.	5379.
20178	1.5698	3.6364	0.	5418.
20179	1.6621	3.6364	5.e-002	28.861
20180	1.6621	3.3636	0.	5379.1
20181	1.5698	3.4545	0.	5420.4
20182	1.6621	3.4545	5.e-002	29.009
20183	1.6621	3.1818	0.	5379.4
20184	1.5698	3.2727	0.	5422.5
20185	1.6621	3.2727	5.e-002	29.117
20186	1.6621	3.	0.	5379.6
20187	1.5698	3.0909	0.	5423.7
20188	1.6621	3.0909	5.e-002	29.174
20189	1.6621	2.8182	0.	5379.4
20190	1.5698	2.9091	0.	5423.7
20191	1.6621	2.9091	5.e-002	29.174
20192	1.6621	2.6364	0.	5379.1
20193	1.5698	2.7273	0.	5422.5
20194	1.6621	2.7273	5.e-002	29.117
20195	1.6621	2.4545	0.	5379.
20196	1.5698	2.5455	0.	5420.4
20197	1.6621	2.5455	5.e-002	29.009
20198	1.6621	2.2727	0.	5380.2
20199	1.5698	2.3636	0.	5418.
20200	1.6621	2.3636	5.e-002	28.861
20201	1.6621	2.0909	0.	5383.8
20202	1.5698	2.1818	0.	5416.5
20203	1.6621	2.1818	5.e-002	28.69
20204	1.6621	1.9091	0.	5391.3
20205	1.5698	2.	0.	5417.3
20206	1.6621	2.	5.e-002	28.521
20207	1.6621	1.7273	0.	5404.9
20208	1.5698	1.8182	0.	5422.3
20209	1.6621	1.8182	5.e-002	28.388
20210	1.6621	1.5455	0.	5426.9
20211	1.5698	1.6364	0.	5433.9
20212	1.6621	1.6364	5.e-002	28.325
20213	1.6621	1.3636	0.	5459.5
20214	1.5698	1.4545	0.	5454.9
20215	1.6621	1.4545	5.e-002	28.359
20216	1.6621	1.1818	0.	5505.3
20217	1.5698	1.2727	0.	5488.3
20218	1.6621	1.2727	5.e-002	28.486
20219	1.6621	1.	0.	5566.
20220	1.5698	1.0909	0.	5536.7
20221	1.6621	1.0909	5.e-002	28.651
20222	1.6621	0.81818	0.	5642.3
20223	1.5698	0.90909	0.	5602.3
20224	1.6621	0.90909	5.e-002	28.729
20225	1.6621	0.63636	0.	5733.8
20226	1.5698	0.72727	0.	5685.8
20227	1.6621	0.72727	5.e-002	28.539
20228	1.6621	0.45455	0.	5839.3
20229	1.5698	0.54545	0.	5786.1
20230	1.6621	0.54545	5.e-002	27.921
20231	1.6621	0.27273	0.	5965.1
20232	1.5698	0.36364	0.	5901.8
20233	1.6621	0.36364	5.e-002	27.013
20234	1.5698	0.18182	0.	6048.8
20235	1.6621	0.18182	5.e-002	45.78
20236	1.6621	9.0909e-002	0.	6021.
20237	1.4774	5.7273	0.	5984.9
20238	1.3851	5.8182	0.	6065.9
20239	1.4774	5.8182	5.e-002	47.619
20240	1.4774	5.9091	0.	6039.8
20241	1.4774	5.5455	0.	5848.
20242	1.3851	5.6364	0.	5903.5
20243	1.4774	5.6364	5.e-002	30.04
20244	1.4774	5.3636	0.	5737.2
20245	1.3851	5.4545	0.	5780.4
20246	1.4774	5.4545	5.e-002	31.339
20247	1.4774	5.1818	0.	5644.9
20248	1.3851	5.2727	0.	5678.1
20249	1.4774	5.2727	5.e-002	31.842
20250	1.4774	5.	0.	5572.1
20251	1.3851	5.0909	0.	5598.3
20252	1.4774	5.0909	5.e-002	31.773
20253	1.4774	4.8182	0.	5518.8
20254	1.3851	4.9091	0.	5541.2
20255	1.4774	4.9091	5.e-002	31.432
20256	1.4774	4.6364	0.	5483.
20257	1.3851	4.7273	0.	5504.5
20258	1.4774	4.7273	5.e-002	31.081
20259	1.4774	4.4545	0.	5461.5
20260	1.3851	4.5455	0.	5484.6
20261	1.4774	4.5455	5.e-002	30.862
20262	1.4774	4.2727	0.	5450.9
20263	1.3851	4.3636	0.	5477.2
20264	1.4774	4.3636	5.e-002	30.808
20265	1.4774	4.0909	0.	5448.
20266	1.3851	4.1818	0.	5478.4
20267	1.4774	4.1818	5.e-002	30.89
20268	1.4774	3.9091	0.	5449.8
20269	1.3851	4.	0.	5484.7
20270	1.4774	4.	5.e-002	31.058
20271	1.4774	3.7273	0.	5454.2
20272	1.3851	3.8182	0.	5493.4
20273	1.4774	3.8182	5.e-002	31.259
20274	1.4774	3.5455	0.	5459.2
20275	1.3851	3.6364	0.	5502.5
20276	1.4774	3.6364	5.e-002	31.455
20277	1.4774	3.3636	0.	5463.6
20278	1.3851	3.4545	0.	5510.5
20279	1.4774	3.4545	5.e-002	31.619
20280	1.4774	3.1818	0.	5466.6
20281	1.3851	3.2727	0.	5516.3
20282	1.4774	3.2727	5.e-002	31.736
20283	1.4774	3.	0.	5467.7
20284	1.3851	3.0909	0.	5519.4
20285	1.4774	3.0909	5.e-002	31.796
20286	1.4774	2.8182	0.	5466.6
20287	1.3851	2.9091	0.	5519.4
20288	1.4774	2.9091	5.e-002	31.796
20289	1.4774	2.6364	0.	5463.6
20290	1.3851	2.7273	0.	5516.3
20291	1.4774	2.7273	5.e-002	31.736
20292	1.4774	2.4545	0.	5459.2
20293	1.3851	2.5455	0.	5510.5
20294	1.4774	2.5455	5.e-002	31.619
20295	1.4774	2.2727	0.	5454.2
20296	1.3851	2.3636	0.	5502.5
20297	1.4774	2.3636	5.e-002	31.455
20298	1.4774	2.0909	0.	5449.8
20299	1.3851	2.1818	0.	5493.4
20300	1.4774	2.1818	5.e-002	31.259
20301	1.4774	1.9091	0.	5448.
20302	1.3851	2.	0.	5484.7
20303	1.4774	2.	5.e-002	31.058
20304	1.4774	1.7273	0.	5450.9
20305	1.3851	1.8182	0.	5478.4
20306	1.4774	1.8182	5.e-002	30.89
20307	1.4774	1.5455	0.	5461.5
20308	1.3851	1.6364	0.	5477.2
20309	1.4774	1.6364	5.e-002	30.808
20310	1.4774	1.3636	0.	5483.
20311	1.3851	1.4545	0.	5484.6
20312	1.4774	1.4545	5.e-002	30.862
20313	1.4774	1.1818	0.	5518.8
20314	1.3851	1.2727	0.	5504.5
20315	1.4774	1.2727	5.e-002	31.081
20316	1.4774	1.	0.	5572.1
20317	1.3851	1.0909	0.	5541.2
20318	1.4774	1.0909	5.e-002	31.432
20319	1.4774	0.81818	0.	5644.9
20320	1.3851	0.90909	0.	5598.3
20321	1.4774	0.90909	5.e-002	31.773
20322	1.4774	0.63636	0.	5737.2
20323	1.3851	0.72727	0.	5678.1
20324	1.4774	0.72727	5.e-002	31.842
20325	1.4774	0.45455	0.	5848.
20326	1.3851	0.54545	0.	5780.4
20327	1.4774	0.54545	5.e-002	31.339
20328	1.4774	0.27273	0.	5984.9
20329	1.3851	0.36364	0.	5903.5
20330	1.4774	0.36364	5.e-002	30.04
20331	1.3851	0.18182	0.	6065.9
20332	1.4774	0.18182	5.e-002	47.619
20333	1.4774	9.0909e-002	0.	6039.8
20334	1.2927	5.7273	0.	5983.6
20335	1.2004	5.8182	0.	6058.
20336	1.2927	5.8182	5.e-002	49.131
20337	1.2927	5.9091	0.	6036.9
20338	1.2927	5.5455	0.	5835.
20339	1.2004	5.6364	0.	5877.9
20340	1.2927	5.6364	5.e-002	34.411
20341	1.2927	5.3636	0.	5720.2
20342	1.2004	5.4545	0.	5748.3
20343	1.2927	5.4545	5.e-002	36.016
20344	1.2927	5.1818	0.	5630.4
20345	1.2004	5.2727	0.	5647.8
20346	1.2927	5.2727	5.e-002	36.129
20347	1.2927	5.	0.	5566.2
20348	1.2004	5.0909	0.	5577.6
20349	1.2927	5.0909	5.e-002	35.537
20350	1.2927	4.8182	0.	5525.9
20351	1.2004	4.9091	0.	5535.9
20352	1.2927	4.9091	5.e-002	34.761
20353	1.2927	4.6364	0.	5505.4
20354	1.2004	4.7273	0.	5517.7
20355	1.2927	4.7273	5.e-002	34.141
20356	1.2927	4.4545	0.	5499.8
20357	1.2004	4.5455	0.	5517.
20358	1.2927	4.5455	5.e-002	33.801
20359	1.2927	4.2727	0.	5504.3
20360	1.2004	4.3636	0.	5527.7
20361	1.2927	4.3636	5.e-002	33.717
20362	1.2927	4.0909	0.	5514.8
20363	1.2004	4.1818	0.	5544.8
20364	1.2927	4.1818	5.e-002	33.805
20365	1.2927	3.9091	0.	5528.1
20366	1.2004	4.	0.	5564.6
20367	1.2927	4.	5.e-002	33.984
20368	1.2927	3.7273	0.	5541.6
20369	1.2004	3.8182	0.	5584.2
20370	1.2927	3.8182	5.e-002	34.188
20371	1.2927	3.5455	0.	5553.7
20372	1.2004	3.6364	0.	5601.7
20373	1.2927	3.6364	5.e-002	34.378
20374	1.2927	3.3636	0.	5563.
20375	1.2004	3.4545	0.	5615.8
20376	1.2927	3.4545	5.e-002	34.532
20377	1.2927	3.1818	0.	5569.
20378	1.2004	3.2727	0.	5625.6
20379	1.2927	3.2727	5.e-002	34.638
20380	1.2927	3.	0.	5571.
20381	1.2004	3.0909	0.	5630.6
20382	1.2927	3.0909	5.e-002	34.692
20383	1.2927	2.8182	0.	5569.
20384	1.2004	2.9091	0.	5630.6
20385	1.2927	2.9091	5.e-002	34.692
20386	1.2927	2.6364	0.	5563.
20387	1.2004	2.7273	0.	5625.6
20388	1.2927	2.7273	5.e-002	34.638
20389	1.2927	2.4545	0.	5553.7
20390	1.2004	2.5455	0.	5615.8
20391	1.2927	2.5455	5.e-002	34.532
20392	1.2927	2.2727	0.	5541.6
20393	1.2004	2.3636	0.	5601.7
20394	1.2927	2.3636	5.e-002	34.378
20395	1.2927	2.0909	0.	5528.1
20396	1.2004	2.1818	0.	5584.2
20397	1.2927	2.1818	5.e-002	34.188
20398	1.2927	1.9091	0.	5514.8
20399	1.2004	2.	0.	5564.6
20400	1.2927	2.	5.e-002	33.984
20401	1.2927	1.7273	0.	5504.3
20402	1.2004	1.8182	0.	5544.8
20403	1.2927	1.8182	5.e-002	33.805
20404	1.2927	1.5455	0.	5499.8
20405	1.2004	1.6364	0.	5527.7
20406	1.2927	1.6364	5.e-002	33.717
20407	1.2927	1.3636	0.	5505.4
20408	1.2004	1.4545	0.	5517.
20409	1.2927	1.4545	5.e-002	33.801
20410	1.2927	1.1818	0.	5525.9
20411	1.2004	1.2727	0.	5517.7
20412	1.2927	1.2727	5.e-002	34.141
20413	1.2927	1.	0.	5566.2
20414	1.2004	1.0909	0.	5535.9
20415	1.2927	1.0909	5.e-002	34.761
20416	1.2927	0.81818	0.	5630.4
20417	1.2004	0.90909	0.	5577.6
20418	1.2927	0.90909	5.e-002	35.537
20419	1.2927	0.63636	0.	5720.2
20420	1.2004	0.72727	0.	5647.8
20421	1.2927	0.72727	5.e-002	36.129
20422	1.2927	0.45455	0.	5835.
20423	1.2004	0.54545	0.	5748.3
20424	1.2927	0.54545	5.e-002	36.016
20425	1.2927	0.27273	0.	5983.6
20426	1.2004	0.36364	0.	5877.9
20427	1.2927	0.36364	5.e-002	34.411
20428	1.2004	0.18182	0.	6058.
20429	1.2927	0.18182	5.e-002	49.131
20430	1.2927	9.0909e-002	0.	6036.9
20431	1.1081	5.7273	0.	5950.9
20432	1.0157	5.8182	0.	6012.6
20433	1.1081	5.8182	5.e-002	50.334
20434	1.1081	5.9091	0.	6001.9
20435	1.1081	5.5455	0.	5790.
20436	1.0157	5.6364	0.	5813.2
20437	1.1081	5.6364	5.e-002	40.983
20438	1.1081	5.3636	0.	5674.4
20439	1.0157	5.4545	0.	5680.6
20440	1.1081	5.4545	5.e-002	42.524
20441	1.1081	5.1818	0.	5593.4
20442	1.0157	5.2727	0.	5589.8
20443	1.1081	5.2727	5.e-002	41.712
20444	1.1081	5.	0.	5545.8
20445	1.0157	5.0909	0.	5539.8
20446	1.1081	5.0909	5.e-002	40.187
20447	1.1081	4.8182	0.	5526.6
20448	1.0157	4.9091	0.	5524.3
20449	1.1081	4.9091	5.e-002	38.76
20450	1.1081	4.6364	0.	5528.6
20451	1.0157	4.7273	0.	5533.9
20452	1.1081	4.7273	5.e-002	37.801
20453	1.1081	4.4545	0.	5544.4
20454	1.0157	4.5455	0.	5559.1
20455	1.1081	4.5455	5.e-002	37.323
20456	1.1081	4.2727	0.	5567.8
20457	1.0157	4.3636	0.	5592.5
20458	1.1081	4.3636	5.e-002	37.188
20459	1.1081	4.0909	0.	5594.4
20460	1.0157	4.1818	0.	5628.4
20461	1.1081	4.1818	5.e-002	37.244
20462	1.1081	3.9091	0.	5620.6
20463	1.0157	4.	0.	5663.2
20464	1.1081	4.	5.e-002	37.381
20465	1.1081	3.7273	0.	5644.2
20466	1.0157	3.8182	0.	5694.5
20467	1.1081	3.8182	5.e-002	37.532
20468	1.1081	3.5455	0.	5663.7
20469	1.0157	3.6364	0.	5720.7
20470	1.1081	3.6364	5.e-002	37.666
20471	1.1081	3.3636	0.	5678.2
20472	1.0157	3.4545	0.	5740.9
20473	1.1081	3.4545	5.e-002	37.769
20474	1.1081	3.1818	0.	5687.2
20475	1.0157	3.2727	0.	5754.6
20476	1.1081	3.2727	5.e-002	37.837
20477	1.1081	3.	0.	5690.1
20478	1.0157	3.0909	0.	5761.6
20479	1.1081	3.0909	5.e-002	37.87
20480	1.1081	2.8182	0.	5687.2
20481	1.0157	2.9091	0.	5761.6
20482	1.1081	2.9091	5.e-002	37.87
20483	1.1081	2.6364	0.	5678.2
20484	1.0157	2.7273	0.	5754.6
20485	1.1081	2.7273	5.e-002	37.837
20486	1.1081	2.4545	0.	5663.7
20487	1.0157	2.5455	0.	5740.9
20488	1.1081	2.5455	5.e-002	37.769
20489	1.1081	2.2727	0.	5644.2
20490	1.0157	2.3636	0.	5720.7
20491	1.1081	2.3636	5.e-002	37.666
20492	1.1081	2.0909	0.	5620.6
20493	1.0157	2.1818	0.	5694.5
20494	1.1081	2.1818	5.e-002	37.532
20495	1.1081	1.9091	0.	5594.4
20496	1.0157	2.	0.	5663.2
20497	1.1081	2.	5.e-002	37.381
20498	1.1081	1.7273	0.	5567.8
20499	1.0157	1.8182	0.	5628.4
20500	1.1081	1.8182	5.e-002	37.244
20501	1.1081	1.5455	0.	5544.4
20502	1.0157	1.6364	0.	5592.5
20503	1.1081	1.6364	5.e-002	37.188
20504	1.1081	1.3636	0.	5528.6
20505	1.0157	1.4545	0.	5559.1
20506	1.1081	1.4545	5.e-002	37.323
20507	1.1081	1.1818	0.	5526.6
20508	1.0157	1.2727	0.	5533.9
20509	1.1081	1.2727	5.e-002	37.801
20510	1.1081	1.	0.	5545.8
20511	1.0157	1.0909	0.	5524.3
20512	1.1081	1.0909	5.e-002	38.76
20513	1.1081	0.81818	0.	5593.4
20514	1.0157	0.90909	0.	5539.8
20515	1.1081	0.90909	5.e-002	40.187
20516	1.1081	0.63636	0.	5674.4
20517	1.0157	0.72727	0.	5589.8
20518	1.1081	0.72727	5.e-002	41.712
20519	1.1081	0.45455	0.	5790.
20520	1.0157	0.54545	0.	5680.6
20521	1.1081	0.54545	5.e-002	42.524
20522	1.1081	0.27273	0.	5950.9
20523	1.0157	0.36364	0.	5813.2
20524	1.1081	0.36364	5.e-002	40.983
20525	1.0157	0.18182	0.	6012.6
20526	1.1081	0.18182	5.e-002	50.334
20527	1.1081	9.0909e-002	0.	6001.9
20528	0.92339	5.7273	0.	5872.8
20529	0.83105	5.8182	0.	5906.7
20530	0.92339	5.8182	5.e-002	51.568
20531	0.92339	5.9091	0.	5919.2
20532	0.92339	5.5455	0.	5701.8
20533	0.83105	5.6364	0.	5685.5
20534	0.92339	5.6364	5.e-002	51.107
20535	0.92339	5.3636	0.	5593.7
20536	0.83105	5.4545	0.	5557.5
20537	0.92339	5.4545	5.e-002	51.651
20538	0.92339	5.1818	0.	5534.
20539	0.83105	5.2727	0.	5492.
20540	0.92339	5.2727	5.e-002	48.904
20541	0.92339	5.	0.	5516.7
20542	0.83105	5.0909	0.	5480.
20543	0.92339	5.0909	5.e-002	45.832
20544	0.92339	4.8182	0.	5530.5
20545	0.83105	4.9091	0.	5506.
20546	0.92339	4.9091	5.e-002	43.534
20547	0.92339	4.6364	0.	5563.8
20548	0.83105	4.7273	0.	5554.
20549	0.92339	4.7273	5.e-002	42.182
20550	0.92339	4.4545	0.	5606.9
20551	0.83105	4.5455	0.	5611.7
20552	0.92339	4.5455	5.e-002	41.527
20553	0.92339	4.2727	0.	5652.8
20554	0.83105	4.3636	0.	5671.
20555	0.92339	4.3636	5.e-002	41.268
20556	0.92339	4.0909	0.	5697.1
20557	0.83105	4.1818	0.	5727.1
20558	0.92339	4.1818	5.e-002	41.192
20559	0.92339	3.9091	0.	5737.1
20560	0.83105	4.	0.	5777.2
20561	0.92339	4.	5.e-002	41.183
20562	0.92339	3.7273	0.	5770.9
20563	0.83105	3.8182	0.	5819.7
20564	0.92339	3.8182	5.e-002	41.187
20565	0.92339	3.5455	0.	5797.8
20566	0.83105	3.6364	0.	5854.
20567	0.92339	3.6364	5.e-002	41.187
20568	0.92339	3.3636	0.	5817.3
20569	0.83105	3.4545	0.	5879.8
20570	0.92339	3.4545	5.e-002	41.181
20571	0.92339	3.1818	0.	5829.
20572	0.83105	3.2727	0.	5897.
20573	0.92339	3.2727	5.e-002	41.172
20574	0.92339	3.	0.	5832.9
20575	0.83105	3.0909	0.	5905.6
20576	0.92339	3.0909	5.e-002	41.167
20577	0.92339	2.8182	0.	5829.
20578	0.83105	2.9091	0.	5905.6
20579	0.92339	2.9091	5.e-002	41.167
20580	0.92339	2.6364	0.	5817.3
20581	0.83105	2.7273	0.	5897.
20582	0.92339	2.7273	5.e-002	41.172
20583	0.92339	2.4545	0.	5797.8
20584	0.83105	2.5455	0.	5879.8
20585	0.92339	2.5455	5.e-002	41.181
20586	0.92339	2.2727	0.	5770.9
20587	0.83105	2.3636	0.	5854.
20588	0.92339	2.3636	5.e-002	41.187
20589	0.92339	2.0909	0.	5737.1
20590	0.83105	2.1818	0.	5819.7
20591	0.92339	2.1818	5.e-002	41.187
20592	0.92339	1.9091	0.	5697.1
20593	0.83105	2.	0.	5777.2
20594	0.92339	2.	5.e-002	41.183
20595	0.92339	1.7273	0.	5652.8
20596	0.83105	1.8182	0.	5727.1
20597	0.92339	1.8182	5.e-002	41.192
20598	0.92339	1.5455	0.	5606.9
20599	0.83105	1.6364	0.	5671.
20600	0.92339	1.6364	5.e-002	41.268
20601	0.92339	1.3636	0.	5563.8
20602	0.83105	1.4545	0.	5611.7
20603	0.92339	1.4545	5.e-002	41.527
20604	0.92339	1.1818	0.	5530.5
20605	0.83105	1.2727	0.	5554.
20606	0.92339	1.2727	5.e-002	42.182
20607	0.92339	1.	0.	5516.7
20608	0.83105	1.0909	0.	5506.
20609	0.92339	1.0909	5.e-002	43.534
20610	0.92339	0.81818	0.	5534.
20611	0.83105	0.90909	0.	5480.
20612	0.92339	0.90909	5.e-002	45.832
20613	0.92339	0.63636	0.	5593.7
20614	0.83105	0.72727	0.	5492.
20615	0.92339	0.72727	5.e-002	48.904
20616	0.92339	0.45455	0.	5701.8
20617	0.83105	0.54545	0.	5557.5
20618	0.92339	0.54545	5.e-002	51.651
20619	0.92339	0.27273	0.	5872.8
20620	0.83105	0.36364	0.	5685.5
20621	0.92339	0.36364	5.e-002	51.107
20622	0.83105	0.18182	0.	5906.7
20623	0.92339	0.18182	5.e-002	51.568
20624	0.92339	9.0909e-002	0.	5919.2
20625	0.73871	5.7273	0.	5716.1
20626	0.64637	5.8182	0.	5705.7
20627	0.73871	5.8182	5.e-002	55.53
20628	0.73871	5.9091	0.	5758.9
20629	0.73871	5.5455	0.	5537.7
20630	0.64637	5.6364	0.	5475.3
20631	0.73871	5.6364	5.e-002	67.157
20632	0.73871	5.3636	0.	5452.2
20633	0.64637	5.4545	0.	5381.5
20634	0.73871	5.4545	5.e-002	64.322
20635	0.73871	5.1818	0.	5435.2
20636	0.64637	5.2727	0.	5378.4
20637	0.73871	5.2727	5.e-002	57.967
20638	0.73871	5.	0.	5467.7
20639	0.64637	5.0909	0.	5436.3
20640	0.73871	5.0909	5.e-002	52.798
20641	0.73871	4.8182	0.	5528.6
20642	0.64637	4.9091	0.	5524.7
20643	0.73871	4.9091	5.e-002	49.613
20644	0.73871	4.6364	0.	5601.5
20645	0.64637	4.7273	0.	5622.5
20646	0.73871	4.7273	5.e-002	47.907
20647	0.73871	4.4545	0.	5675.7
20648	0.64637	4.5455	0.	5717.7
20649	0.73871	4.5455	5.e-002	47.013
20650	0.73871	4.2727	0.	5745.3
20651	0.64637	4.3636	0.	5804.5
20652	0.73871	4.3636	5.e-002	46.493
20653	0.73871	4.0909	0.	5807.2
20654	0.64637	4.1818	0.	5880.2
20655	0.73871	4.1818	5.e-002	46.127
20656	0.73871	3.9091	0.	5859.8
20657	0.64637	4.	0.	5944.2
20658	0.73871	4.	5.e-002	45.827
20659	0.73871	3.7273	0.	5902.8
20660	0.64637	3.8182	0.	5996.5
20661	0.73871	3.8182	5.e-002	45.566
20662	0.73871	3.5455	0.	5936.
20663	0.64637	3.6364	0.	6037.6
20664	0.73871	3.6364	5.e-002	45.342
20665	0.73871	3.3636	0.	5959.5
20666	0.64637	3.4545	0.	6067.8
20667	0.73871	3.4545	5.e-002	45.164
20668	0.73871	3.1818	0.	5973.5
20669	0.64637	3.2727	0.	6087.7
20670	0.73871	3.2727	5.e-002	45.04
20671	0.73871	3.	0.	5978.2
20672	0.64637	3.0909	0.	6097.6
20673	0.73871	3.0909	5.e-002	44.977
20674	0.73871	2.8182	0.	5973.5
20675	0.64637	2.9091	0.	6097.6
20676	0.73871	2.9091	5.e-002	44.977
20677	0.73871	2.6364	0.	5959.5
20678	0.64637	2.7273	0.	6087.7
20679	0.73871	2.7273	5.e-002	45.04
20680	0.73871	2.4545	0.	5936.
20681	0.64637	2.5455	0.	6067.8
20682	0.73871	2.5455	5.e-002	45.164
20683	0.73871	2.2727	0.	5902.8
20684	0.64637	2.3636	0.	6037.6
20685	0.73871	2.3636	5.e-002	45.342
20686	0.73871	2.0909	0.	5859.8
20687	0.64637	2.1818	0.	5996.5
20688	0.73871	2.1818	5.e-002	45.566
20689	0.73871	1.9091	0.	5807.2
20690	0.64637	2.	0.	5944.2
20691	0.73871	2.	5.e-002	45.827
20692	0.73871	1.7273	0.	5745.3
20693	0.64637	1.8182	0.	5880.2
20694	0.73871	1.8182	5.e-002	46.127
20695	0.73871	1.5455	0.	5675.7
20696	0.64637	1.6364	0.	5804.5
20697	0.73871	1.6364	5.e-002	46.493
20698	0.73871	1.3636	0.	5601.5
20699	0.64637	1.4545	0.	5717.7
20700	0.73871	1.4545	5.e-002	47.013
20701	0.73871	1.1818	0.	5528.6
20702	0.64637	1.2727	0.	5622.5
20703	0.73871	1.2727	5.e-002	47.907
20704	0.73871	1.	0.	5467.7
20705	0.64637	1.0909	0.	5524.7
20706	0.73871	1.0909	5.e-002	49.613
20707	0.73871	0.81818	0.	5435.2
20708	0.64637	0.90909	0.	5436.3
20709	0.73871	0.90909	5.e-002	52.798
20710	0.73871	0.63636	0.	5452.2
20711	0.64637	0.72727	0.	5378.4
20712	0.73871	0.72727	5.e-002	57.967
20713	0.73871	0.45455	0.	5537.7
20714	0.64637	0.54545	0.	5381.5
20715	0.73871	0.54545	5.e-002	64.321
20716	0.73871	0.27273	0.	5716.1
20717	0.64637	0.36364	0.	5475.3
20718	0.73871	0.36364	5.e-002	67.157
20719	0.64637	0.18182	0.	5705.7
20720	0.73871	0.18182	5.e-002	55.53
20721	0.73871	9.0909e-002	0.	5758.9
20722	0.55403	5.7273	0.	5458.1
20723	0.46169	5.8182	0.	5305.5
20724	0.55403	5.8182	5.e-002	69.38
20725	0.55403	5.9091	0.	5474.6
20726	0.55403	5.5455	0.	5313.
20727	0.46169	5.6364	0.	5066.4
20728	0.55403	5.6364	5.e-002	93.145
20729	0.55403	5.3636	0.	5303.4
20730	0.46169	5.4545	0.	5060.4
20731	0.55403	5.4545	5.e-002	81.128
20732	0.55403	5.1818	0.	5377.6
20733	0.46169	5.2727	0.	5175.1
20734	0.55403	5.2727	5.e-002	68.611
20735	0.55403	5.	0.	5493.1
20736	0.46169	5.0909	0.	5333.3
20737	0.55403	5.0909	5.e-002	60.877
20738	0.55403	4.8182	0.	5619.2
20739	0.46169	4.9091	0.	5494.6
20740	0.55403	4.9091	5.e-002	56.593
20741	0.55403	4.6364	0.	5739.5
20742	0.46169	4.7273	0.	5641.7
20743	0.55403	4.7273	5.e-002	54.169
20744	0.55403	4.4545	0.	5847.2
20745	0.46169	4.5455	0.	5769.5
20746	0.55403	4.5455	5.e-002	52.577
20747	0.55403	4.2727	0.	5940.
20748	0.46169	4.3636	0.	5877.4
20749	0.55403	4.3636	5.e-002	51.366
20750	0.55403	4.0909	0.	6017.8
20751	0.46169	4.1818	0.	5966.7
20752	0.55403	4.1818	5.e-002	50.364
20753	0.55403	3.9091	0.	6081.3
20754	0.46169	4.	0.	6039.3
20755	0.55403	4.	5.e-002	49.514
20756	0.55403	3.7273	0.	6131.6
20757	0.46169	3.8182	0.	6097.1
20758	0.55403	3.8182	5.e-002	48.801
20759	0.55403	3.5455	0.	6169.6
20760	0.46169	3.6364	0.	6141.5
20761	0.55403	3.6364	5.e-002	48.225
20762	0.55403	3.3636	0.	6196.2
20763	0.46169	3.4545	0.	6173.7
20764	0.55403	3.4545	5.e-002	47.789
20765	0.55403	3.1818	0.	6211.9
20766	0.46169	3.2727	0.	6194.7
20767	0.55403	3.2727	5.e-002	47.496
20768	0.55403	3.	0.	6217.1
20769	0.46169	3.0909	0.	6205.1
20770	0.55403	3.0909	5.e-002	47.35
20771	0.55403	2.8182	0.	6211.9
20772	0.46169	2.9091	0.	6205.1
20773	0.55403	2.9091	5.e-002	47.35
20774	0.55403	2.6364	0.	6196.2
20775	0.46169	2.7273	0.	6194.7
20776	0.55403	2.7273	5.e-002	47.496
20777	0.55403	2.4545	0.	6169.6
20778	0.46169	2.5455	0.	6173.7
20779	0.55403	2.5455	5.e-002	47.789
20780	0.55403	2.2727	0.	6131.6
20781	0.46169	2.3636	0.	6141.5
20782	0.55403	2.3636	5.e-002	48.225
20783	0.55403	2.0909	0.	6081.3
20784	0.46169	2.1818	0.	6097.1
20785	0.55403	2.1818	5.e-002	48.801
20786	0.55403	1.9091	0.	6017.8
20787	0.46169	2.	0.	6039.3
20788	0.55403	2.	5.e-002	49.514
20789	0.55403	1.7273	0.	5940.
20790	0.46169	1.8182	0.	5966.7
20791	0.55403	1.8182	5.e-002	50.364
20792	0.55403	1.5455	0.	5847.2
20793	0.46169	1.6364	0.	5877.4
20794	0.55403	1.6364	5.e-002	51.366
20795	0.55403	1.3636	0.	5739.5
20796	0.46169	1.4545	0.	5769.5
20797	0.55403	1.4545	5.e-002	52.577
20798	0.55403	1.1818	0.	5619.2
20799	0.46169	1.2727	0.	5641.7
20800	0.55403	1.2727	5.e-002	54.169
20801	0.55403	1.	0.	5493.1
20802	0.46169	1.0909	0.	5494.6
20803	0.55403	1.0909	5.e-002	56.593
20804	0.55403	0.81818	0.	5377.6
20805	0.46169	0.90909	0.	5333.3
20806	0.55403	0.90909	5.e-002	60.877
20807	0.55403	0.63636	0.	5303.4
20808	0.46169	0.72727	0.	5175.1
20809	0.55403	0.72727	5.e-002	68.611
20810	0.55403	0.45455	0.	5313.
20811	0.46169	0.54545	0.	5060.4
20812	0.55403	0.54545	5.e-002	81.128
20813	0.55403	0.27273	0.	5458.1
20814	0.46169	0.36364	0.	5066.4
20815	0.55403	0.36364	5.e-002	93.145
20816	0.46169	0.18182	0.	5305.5
20817	0.55403	0.18182	5.e-002	69.38
20818	0.55403	9.0909e-002	0.	5474.6
20819	0.36935	5.7273	0.	4899.
20820	0.27702	5.8182	0.	4544.7
20821	0.36935	5.8182	5.e-002	121.28
20822	0.36935	5.9091	0.	4932.5
20823	0.36935	5.5455	0.	4800.6
20824	0.27702	5.6364	0.	4646.5
20825	0.36935	5.6364	5.e-002	134.98
20826	0.36935	5.3636	0.	4925.3
20827	0.27702	5.4545	0.	5005.
20828	0.36935	5.4545	5.e-002	102.83
20829	0.36935	5.1818	0.	5128.7
20830	0.27702	5.2727	0.	5365.3
20831	0.36935	5.2727	5.e-002	84.64
20832	0.36935	5.	0.	5334.7
20833	0.27702	5.0909	0.	5671.5
20834	0.36935	5.0909	5.e-002	75.315
20835	0.36935	4.8182	0.	5517.7
20836	0.27702	4.9091	0.	5919.6
20837	0.36935	4.9091	5.e-002	70.369
20838	0.36935	4.6364	0.	5672.4
20839	0.27702	4.7273	0.	6117.9
20840	0.36935	4.7273	5.e-002	67.031
20841	0.36935	4.4545	0.	5800.2
20842	0.27702	4.5455	0.	6276.2
20843	0.36935	4.5455	5.e-002	64.442
20844	0.36935	4.2727	0.	5904.5
20845	0.27702	4.3636	0.	6402.4
20846	0.36935	4.3636	5.e-002	62.306
20847	0.36935	4.0909	0.	5988.6
20848	0.27702	4.1818	0.	6502.9
20849	0.36935	4.1818	5.e-002	60.517
20850	0.36935	3.9091	0.	6055.4
20851	0.27702	4.	0.	6582.2
20852	0.36935	4.	5.e-002	59.03
20853	0.36935	3.7273	0.	6107.2
20854	0.27702	3.8182	0.	6644.
20855	0.36935	3.8182	5.e-002	57.819
20856	0.36935	3.5455	0.	6145.8
20857	0.27702	3.6364	0.	6690.7
20858	0.36935	3.6364	5.e-002	56.869
20859	0.36935	3.3636	0.	6172.5
20860	0.27702	3.4545	0.	6724.3
20861	0.36935	3.4545	5.e-002	56.167
20862	0.36935	3.1818	0.	6188.2
20863	0.27702	3.2727	0.	6746.1
20864	0.36935	3.2727	5.e-002	55.704
20865	0.36935	3.	0.	6193.4
20866	0.27702	3.0909	0.	6756.7
20867	0.36935	3.0909	5.e-002	55.474
20868	0.36935	2.8182	0.	6188.2
20869	0.27702	2.9091	0.	6756.7
20870	0.36935	2.9091	5.e-002	55.474
20871	0.36935	2.6364	0.	6172.5
20872	0.27702	2.7273	0.	6746.1
20873	0.36935	2.7273	5.e-002	55.704
20874	0.36935	2.4545	0.	6145.8
20875	0.27702	2.5455	0.	6724.3
20876	0.36935	2.5455	5.e-002	56.167
20877	0.36935	2.2727	0.	6107.2
20878	0.27702	2.3636	0.	6690.7
20879	0.36935	2.3636	5.e-002	56.869
20880	0.36935	2.0909	0.	6055.4
20881	0.27702	2.1818	0.	6644.
20882	0.36935	2.1818	5.e-002	57.819
20883	0.36935	1.9091	0.	5988.6
20884	0.27702	2.	0.	6582.2
20885	0.36935	2.	5.e-002	59.03
20886	0.36935	1.7273	0.	5904.5
20887	0.27702	1.8182	0.	6502.9
20888	0.36935	1.8182	5.e-002	60.517
20889	0.36935	1.5455	0.	5800.2
20890	0.27702	1.6364	0.	6402.4
20891	0.36935	1.6364	5.e-002	62.306
20892	0.36935	1.3636	0.	5672.4
20893	0.27702	1.4545	0.	6276.2
20894	0.36935	1.4545	5.e-002	64.442
20895	0.36935	1.1818	0.	5517.7
20896	0.27702	1.2727	0.	6117.9
20897	0.36935	1.2727	5.e-002	67.031
20898	0.36935	1.	0.	5334.7
20899	0.27702	1.0909	0.	5919.6
20900	0.36935	1.0909	5.e-002	70.369
20901	0.36935	0.81818	0.	5128.7
20902	0.27702	0.90909	0.	5671.5
20903	0.36935	0.90909	5.e-002	75.315
20904	0.36935	0.63636	0.	4925.3
20905	0.27702	0.72727	0.	5365.3
20906	0.36935	0.72727	5.e-002	84.64
20907	0.36935	0.45455	0.	4800.6
20908	0.27702	0.54545	0.	5005.
20909	0.36935	0.54545	5.e-002	102.83
20910	0.36935	0.27273	0.	4899.
20911	0.27702	0.36364	0.	4646.5
20912	0.36935	0.36364	5.e-002	134.98
20913	0.27702	0.18182	0.	4544.7
20914	0.36935	0.18182	5.e-002	121.28
20915	0.36935	9.0909e-002	0.	4932.5
20916	0.18468	5.7273	0.	4258.6
20917	0.18468	5.8182	5.e-002	293.73
20918	0.18468	5.9091	0.	3851.4
20919	9.2339e-002	5.8182	0.	2712.1
20920	0.18468	5.5455	0.	4876.5
20921	0.18468	5.6364	5.e-002	187.34
20922	9.2339e-002	5.6364	0.	3408.5
20923	0.18468	5.3636	0.	5475.4
20924	0.18468	5.4545	5.e-002	127.11
20925	9.2339e-002	5.4545	0.	3987.9
20926	0.18468	5.1818	0.	5931.6
20927	0.18468	5.2727	5.e-002	97.282
20928	9.2339e-002	5.2727	0.	4403.2
20929	0.18468	5.	0.	6273.7
20930	0.18468	5.0909	5.e-002	81.801
20931	9.2339e-002	5.0909	0.	4701.8
20932	0.18468	4.8182	0.	6533.1
20933	0.18468	4.9091	5.e-002	71.231
20934	9.2339e-002	4.9091	0.	4922.9
20935	0.18468	4.6364	0.	6732.6
20936	0.18468	4.7273	5.e-002	63.52
20937	9.2339e-002	4.7273	0.	5090.1
20938	0.18468	4.4545	0.	6887.8
20939	0.18468	4.5455	5.e-002	57.633
20940	9.2339e-002	4.5455	0.	5218.8
20941	0.18468	4.2727	0.	7009.2
20942	0.18468	4.3636	5.e-002	53.039
20943	9.2339e-002	4.3636	0.	5319.
20944	0.18468	4.0909	0.	7104.3
20945	0.18468	4.1818	5.e-002	49.421
20946	9.2339e-002	4.1818	0.	5397.2
20947	0.18468	3.9091	0.	7178.2
20948	0.18468	4.	5.e-002	46.574
20949	9.2339e-002	4.	0.	5458.2
20950	0.18468	3.7273	0.	7234.7
20951	0.18468	3.8182	5.e-002	44.359
20952	9.2339e-002	3.8182	0.	5505.2
20953	0.18468	3.5455	0.	7276.2
20954	0.18468	3.6364	5.e-002	42.681
20955	9.2339e-002	3.6364	0.	5540.4
20956	0.18468	3.3636	0.	7304.7
20957	0.18468	3.4545	5.e-002	41.473
20958	9.2339e-002	3.4545	0.	5565.7
20959	0.18468	3.1818	0.	7321.4
20960	0.18468	3.2727	5.e-002	40.691
20961	9.2339e-002	3.2727	0.	5581.9
20962	0.18468	3.	0.	7326.9
20963	0.18468	3.0909	5.e-002	40.307
20964	9.2339e-002	3.0909	0.	5589.9
20965	0.18468	2.8182	0.	7321.4
20966	0.18468	2.9091	5.e-002	40.307
20967	9.2339e-002	2.9091	0.	5589.9
20968	0.18468	2.6364	0.	7304.7
20969	0.18468	2.7273	5.e-002	40.691
20970	9.2339e-002	2.7273	0.	5581.9
20971	0.18468	2.4545	0.	7276.2
20972	0.18468	2.5455	5.e-002	41.473
20973	9.2339e-002	2.5455	0.	5565.7
20974	0.18468	2.2727	0.	7234.7
20975	0.18468	2.3636	5.e-002	42.681
20976	9.2339e-002	2.3636	0.	5540.4
20977	0.18468	2.0909	0.	7178.2
20978	0.18468	2.1818	5.e-002	44.359
20979	9.2339e-002	2.1818	0.	5505.2
20980	0.18468	1.9091	0.	7104.3
20981	0.18468	2.	5.e-002	46.574
20982	9.2339e-002	2.	0.	5458.2
20983	0.18468	1.7273	0.	7009.2
20984	0.18468	1.8182	5.e-002	49.421
20985	9.2339e-002	1.8182	0.	5397.2
20986	0.18468	1.5455	0.	6887.8
20987	0.18468	1.6364	5.e-002	53.039
20988	9.2339e-002	1.6364	0.	5319.
20989	0.18468	1.3636	0.	6732.6
20990	0.18468	1.4545	5.e-002	57.633
20991	9.2339e-002	1.4545	0.	5218.8
20992	0.18468	1.1818	0.	6533.1
20993	0.18468	1.2727	5.e-002	63.52
20994	9.2339e-002	1.2727	0.	5090.1
20995	0.18468	1.	0.	6273.7
20996	0.18468	1.0909	5.e-002	71.231
20997	9.2339e-002	1.0909	0.	4922.9
20998	0.18468	0.81818	0.	5931.6
20999	0.18468	0.90909	5.e-002	81.801
21000	9.2339e-002	0.90909	0.	4701.8
21001	0.18468	0.63636	0.	5475.4
21002	0.18468	0.72727	5.e-002	97.282
21003	9.2339e-002	0.72727	0.	4403.2
21004	0.18468	0.45455	0.	4876.5
21005	0.18468	0.54545	5.e-002	127.11
21006	9.2339e-002	0.54545	0.	3987.9
21007	0.18468	0.27273	0.	4258.6
21008	0.18468	0.36364	5.e-002	187.34
21009	9.2339e-002	0.36364	0.	3408.5
21010	0.18468	0.18182	5.e-002	293.73
21011	0.18468	9.0909e-002	0.	3851.4
21012	9.2339e-002	0.18182	0.	2712.1
21013	23.067	2.2727	0.	851.14
21014	23.144	2.1818	0.	883.61
21015	23.067	2.1818	5.e-002	89.178
21016	23.067	2.0909	0.	1267.6
21017	23.067	2.4545	0.	620.89
21018	23.144	2.3636	0.	636.7
21019	23.067	2.3636	5.e-002	16.558
21020	23.067	2.6364	0.	523.76
21021	23.144	2.5455	0.	517.9
21022	23.067	2.5455	5.e-002	6.6915
21023	23.067	2.8182	0.	478.59
21024	23.144	2.7273	0.	457.96
21025	23.067	2.7273	5.e-002	4.3078
21026	23.067	3.	0.	465.07
21027	23.144	2.9091	0.	431.73
21028	23.067	2.9091	5.e-002	3.7908
21029	23.067	3.1818	0.	478.59
21030	23.144	3.0909	0.	431.73
21031	23.067	3.0909	5.e-002	3.7908
21032	23.067	3.3636	0.	523.76
21033	23.144	3.2727	0.	457.96
21034	23.067	3.2727	5.e-002	4.3078
21035	23.067	3.5455	0.	620.89
21036	23.144	3.4545	0.	517.9
21037	23.067	3.4545	5.e-002	6.6915
21038	23.067	3.7273	0.	851.14
21039	23.144	3.6364	0.	636.7
21040	23.067	3.6364	5.e-002	16.558
21041	23.144	3.8182	0.	883.61
21042	23.067	3.8182	5.e-002	89.178
21043	23.067	3.9091	0.	1267.6
21044	23.222	2.2727	0.	663.59
21045	23.3	2.1818	0.	651.8
21046	23.222	2.1818	5.e-002	62.953
21047	23.222	2.4545	0.	533.7
21048	23.3	2.3636	0.	527.12
21049	23.222	2.3636	5.e-002	23.897
21050	23.222	2.6364	0.	450.37
21051	23.3	2.5455	0.	435.46
21052	23.222	2.5455	5.e-002	12.99
21053	23.222	2.8182	0.	408.25
21054	23.3	2.7273	0.	381.09
21055	23.222	2.7273	5.e-002	7.9977
21056	23.222	3.	0.	395.23
21057	23.3	2.9091	0.	356.03
21058	23.222	2.9091	5.e-002	6.5189
21059	23.222	3.1818	0.	408.25
21060	23.3	3.0909	0.	356.03
21061	23.222	3.0909	5.e-002	6.5189
21062	23.222	3.3636	0.	450.37
21063	23.3	3.2727	0.	381.09
21064	23.222	3.2727	5.e-002	7.9977
21065	23.222	3.5455	0.	533.7
21066	23.3	3.4545	0.	435.46
21067	23.222	3.4545	5.e-002	12.99
21068	23.222	3.7273	0.	663.59
21069	23.3	3.6364	0.	527.12
21070	23.222	3.6364	5.e-002	23.897
21071	23.3	3.8182	0.	651.8
21072	23.222	3.8182	5.e-002	62.953
21073	23.378	2.2727	0.	501.07
21074	23.456	2.1818	0.	484.03
21075	23.378	2.1818	5.e-002	30.437
21076	23.378	2.4545	0.	425.81
21077	23.456	2.3636	0.	416.77
21078	23.378	2.3636	5.e-002	23.941
21079	23.378	2.6364	0.	362.86
21080	23.456	2.5455	0.	346.86
21081	23.378	2.5455	5.e-002	15.428
21082	23.378	2.8182	0.	324.64
21083	23.456	2.7273	0.	296.63
21084	23.378	2.7273	5.e-002	10.993
21085	23.378	3.	0.	312.2
21086	23.456	2.9091	0.	271.22
21087	23.378	2.9091	5.e-002	9.1702
21088	23.378	3.1818	0.	324.64
21089	23.456	3.0909	0.	271.22
21090	23.378	3.0909	5.e-002	9.1702
21091	23.378	3.3636	0.	362.86
21092	23.456	3.2727	0.	296.63
21093	23.378	3.2727	5.e-002	10.993
21094	23.378	3.5455	0.	425.81
21095	23.456	3.4545	0.	346.86
21096	23.378	3.4545	5.e-002	15.428
21097	23.378	3.7273	0.	501.07
21098	23.456	3.6364	0.	416.77
21099	23.378	3.6364	5.e-002	23.941
21100	23.456	3.8182	0.	484.03
21101	23.378	3.8182	5.e-002	30.437
21102	23.533	2.2727	0.	392.61
21103	23.611	2.1818	0.	386.48
21104	23.533	2.1818	5.e-002	19.309
21105	23.533	2.4545	0.	334.7
21106	23.611	2.3636	0.	334.95
21107	23.533	2.3636	5.e-002	19.372
21108	23.533	2.6364	0.	277.6
21109	23.611	2.5455	0.	271.12
21110	23.533	2.5455	5.e-002	15.601
21111	23.533	2.8182	0.	238.51
21112	23.611	2.7273	0.	217.66
21113	23.533	2.7273	5.e-002	12.816
21114	23.533	3.	0.	224.64
21115	23.611	2.9091	0.	186.85
21116	23.533	2.9091	5.e-002	11.328
21117	23.533	3.1818	0.	238.51
21118	23.611	3.0909	0.	186.85
21119	23.533	3.0909	5.e-002	11.328
21120	23.533	3.3636	0.	277.6
21121	23.611	3.2727	0.	217.66
21122	23.533	3.2727	5.e-002	12.816
21123	23.533	3.5455	0.	334.7
21124	23.611	3.4545	0.	271.12
21125	23.533	3.4545	5.e-002	15.601
21126	23.533	3.7273	0.	392.61
21127	23.611	3.6364	0.	334.95
21128	23.533	3.6364	5.e-002	19.372
21129	23.611	3.8182	0.	386.48
21130	23.533	3.8182	5.e-002	19.309
21131	23.689	2.2727	0.	327.43
21132	23.767	2.1818	0.	341.1
21133	23.689	2.1818	5.e-002	14.745
21134	23.689	2.4545	0.	272.02
21135	23.767	2.3636	0.	292.14
21136	23.689	2.3636	5.e-002	16.141
21137	23.689	2.6364	0.	211.68
21138	23.767	2.5455	0.	227.13
21139	23.689	2.5455	5.e-002	15.323
21140	23.689	2.8182	0.	163.55
21141	23.767	2.7273	0.	163.26
21142	23.689	2.7273	5.e-002	13.894
21143	23.689	3.	0.	144.25
21144	23.767	2.9091	0.	118.75
21145	23.689	2.9091	5.e-002	12.999
21146	23.689	3.1818	0.	163.55
21147	23.767	3.0909	0.	118.75
21148	23.689	3.0909	5.e-002	12.999
21149	23.689	3.3636	0.	211.68
21150	23.767	3.2727	0.	163.26
21151	23.689	3.2727	5.e-002	13.894
21152	23.689	3.5455	0.	272.02
21153	23.767	3.4545	0.	227.13
21154	23.689	3.4545	5.e-002	15.323
21155	23.689	3.7273	0.	327.43
21156	23.767	3.6364	0.	292.14
21157	23.689	3.6364	5.e-002	16.141
21158	23.767	3.8182	0.	341.1
21159	23.689	3.8182	5.e-002	14.745
21160	23.844	2.2727	0.	307.66
21161	23.844	2.1818	5.e-002	15.564
21162	23.922	2.1818	0.	288.55
21163	23.844	2.4545	0.	252.12
21164	23.844	2.3636	5.e-002	17.578
21165	23.922	2.3636	0.	245.52
21166	23.844	2.6364	0.	186.39
21167	23.844	2.5455	5.e-002	17.381
21168	23.922	2.5455	0.	190.85
21169	23.844	2.8182	0.	125.74
21170	23.844	2.7273	5.e-002	16.067
21171	23.922	2.7273	0.	137.53
21172	23.844	3.	0.	96.766
21173	23.844	2.9091	5.e-002	14.998
21174	23.922	2.9091	0.	100.53
21175	23.844	3.1818	0.	125.74
21176	23.844	3.0909	5.e-002	14.998
21177	23.922	3.0909	0.	100.53
21178	23.844	3.3636	0.	186.39
21179	23.844	3.2727	5.e-002	16.067
21180	23.922	3.2727	0.	137.53
21181	23.844	3.5455	0.	252.12
21182	23.844	3.4545	5.e-002	17.381
21183	23.922	3.4545	0.	190.85
21184	23.844	3.7273	0.	307.66
21185	23.844	3.6364	5.e-002	17.578
21186	23.922	3.6364	0.	245.52
21187	23.844	3.8182	5.e-002	15.564
21188	23.922	3.8182	0.	288.55
21189	23.767	4.1818	0.	342.65
21190	23.844	4.2727	0.	320.61
21191	23.844	4.1818	5.e-002	7.6585
21192	23.922	4.1818	0.	301.28
21193	23.611	4.1818	0.	367.81
21194	23.689	4.2727	0.	326.23
21195	23.689	4.1818	5.e-002	10.043
21196	23.456	4.1818	0.	421.08
21197	23.533	4.2727	0.	355.66
21198	23.533	4.1818	5.e-002	13.094
21199	23.3	4.1818	0.	520.34
21200	23.378	4.2727	0.	403.7
21201	23.378	4.1818	5.e-002	20.986
21202	23.222	4.2727	0.	493.65
21203	23.222	4.1818	5.e-002	45.15
21204	23.144	4.1818	0.	572.27
21205	23.767	4.3636	0.	303.65
21206	23.844	4.4545	0.	281.13
21207	23.844	4.3636	5.e-002	5.499
21208	23.922	4.3636	0.	272.15
21209	23.611	4.3636	0.	314.24
21210	23.689	4.4545	0.	279.31
21211	23.689	4.3636	5.e-002	9.9804
21212	23.456	4.3636	0.	339.08
21213	23.533	4.4545	0.	293.47
21214	23.533	4.3636	5.e-002	12.737
21215	23.3	4.3636	0.	378.03
21216	23.378	4.4545	0.	315.93
21217	23.378	4.3636	5.e-002	17.161
21218	23.222	4.4545	0.	351.67
21219	23.222	4.3636	5.e-002	26.144
21220	23.144	4.3636	0.	391.47
21221	23.767	4.5455	0.	256.03
21222	23.844	4.6364	0.	235.63
21223	23.844	4.5455	5.e-002	4.952
21224	23.922	4.5455	0.	231.27
21225	23.611	4.5455	0.	258.24
21226	23.689	4.6364	0.	229.49
21227	23.689	4.5455	5.e-002	9.6139
21228	23.456	4.5455	0.	270.16
21229	23.533	4.6364	0.	235.69
21230	23.533	4.5455	5.e-002	11.23
21231	23.3	4.5455	0.	289.26
21232	23.378	4.6364	0.	247.03
21233	23.378	4.5455	5.e-002	12.867
21234	23.222	4.6364	0.	265.06
21235	23.222	4.5455	5.e-002	17.598
21236	23.144	4.5455	0.	293.93
21237	23.767	4.7273	0.	208.41
21238	23.844	4.8182	0.	190.79
21239	23.844	4.7273	5.e-002	4.7163
21240	23.922	4.7273	0.	187.42
21241	23.611	4.7273	0.	206.68
21242	23.689	4.8182	0.	182.71
21243	23.689	4.7273	5.e-002	8.736
21244	23.456	4.7273	0.	212.32
21245	23.533	4.8182	0.	185.1
21246	23.533	4.7273	5.e-002	9.5322
21247	23.3	4.7273	0.	222.47
21248	23.378	4.8182	0.	190.87
21249	23.378	4.7273	5.e-002	10.352
21250	23.222	4.8182	0.	200.99
21251	23.222	4.7273	5.e-002	13.252
21252	23.144	4.7273	0.	221.77
21253	23.767	4.9091	0.	164.56
21254	23.844	5.	0.	149.93
21255	23.844	4.9091	5.e-002	4.3458
21256	23.922	4.9091	0.	145.98
21257	23.611	4.9091	0.	160.93
21258	23.689	5.	0.	141.07
21259	23.689	4.9091	5.e-002	7.6361
21260	23.456	4.9091	0.	163.39
21261	23.533	5.	0.	141.44
21262	23.533	4.9091	5.e-002	8.0003
21263	23.3	4.9091	0.	169.04
21264	23.378	5.	0.	144.29
21265	23.378	4.9091	5.e-002	8.3767
21266	23.222	5.	0.	150.41
21267	23.222	4.9091	5.e-002	10.421
21268	23.144	4.9091	0.	166.32
21269	23.767	5.0909	0.	126.07
21270	23.844	5.1818	0.	114.53
21271	23.844	5.0909	5.e-002	3.868
21272	23.922	5.0909	0.	109.79
21273	23.611	5.0909	0.	121.45
21274	23.689	5.1818	0.	105.46
21275	23.689	5.0909	5.e-002	6.4338
21276	23.456	5.0909	0.	122.1
21277	23.533	5.1818	0.	104.57
21278	23.533	5.0909	5.e-002	6.5934
21279	23.3	5.0909	0.	125.35
21280	23.378	5.1818	0.	105.72
21281	23.378	5.0909	5.e-002	6.7869
21282	23.222	5.1818	0.	109.66
21283	23.222	5.0909	5.e-002	8.3146
21284	23.144	5.0909	0.	121.84
21285	23.767	5.2727	0.	93.732
21286	23.844	5.3636	0.	85.214
21287	23.844	5.2727	5.e-002	3.3482
21288	23.922	5.2727	0.	80.346
21289	23.611	5.2727	0.	88.508
21290	23.689	5.3636	0.	76.371
21291	23.689	5.2727	5.e-002	5.1875
21292	23.456	5.2727	0.	87.957
21293	23.533	5.3636	0.	74.514
21294	23.533	5.2727	5.e-002	5.2522
21295	23.3	5.2727	0.	89.726
21296	23.378	5.3636	0.	74.406
21297	23.378	5.2727	5.e-002	5.3923
21298	23.222	5.3636	0.	76.869
21299	23.222	5.2727	5.e-002	6.5861
21300	23.144	5.2727	0.	86.063
21301	23.767	5.4545	0.	67.902
21302	23.844	5.5455	0.	61.998
21303	23.844	5.4545	5.e-002	2.8166
21304	23.922	5.4545	0.	58.275
21305	23.611	5.4545	0.	62.415
21306	23.689	5.5455	0.	54.277
21307	23.689	5.4545	5.e-002	3.8935
21308	23.456	5.4545	0.	60.792
21309	23.533	5.5455	0.	51.653
21310	23.533	5.4545	5.e-002	3.9546
21311	23.3	5.4545	0.	61.247
21312	23.378	5.5455	0.	50.074
21313	23.378	5.4545	5.e-002	4.1424
21314	23.222	5.5455	0.	50.856
21315	23.222	5.4545	5.e-002	5.1188
21316	23.144	5.4545	0.	57.597
21317	23.767	5.6364	0.	48.567
21318	23.844	5.7273	0.	44.4
21319	23.844	5.6364	5.e-002	2.315
21320	23.922	5.6364	0.	42.743
21321	23.611	5.6364	0.	43.718
21322	23.689	5.7273	0.	40.287
21323	23.689	5.6364	5.e-002	2.5257
21324	23.456	5.6364	0.	40.96
21325	23.533	5.7273	0.	37.586
21326	23.533	5.6364	5.e-002	2.6914
21327	23.3	5.6364	0.	39.43
21328	23.378	5.7273	0.	33.679
21329	23.378	5.6364	5.e-002	3.0478
21330	23.222	5.7273	0.	30.896
21331	23.222	5.6364	5.e-002	3.9296
21332	23.144	5.6364	0.	35.285
21333	23.767	5.8182	0.	36.017
21334	23.844	5.8182	5.e-002	1.5809
21335	23.922	5.8182	0.	29.76
21336	23.844	5.9091	0.	27.137
21337	23.611	5.8182	0.	34.443
21338	23.689	5.8182	5.e-002	0.8007
21339	23.689	5.9091	0.	28.53
21340	23.456	5.8182	0.	30.903
21341	23.533	5.8182	5.e-002	1.6277
21342	23.533	5.9091	0.	27.138
21343	23.3	5.8182	0.	25.468
21344	23.378	5.8182	5.e-002	2.3474
21345	23.378	5.9091	0.	22.476
21346	23.222	5.8182	5.e-002	3.2865
21347	23.222	5.9091	0.	15.635
21348	23.144	5.8182	0.	17.95
21349	23.3	1.8182	0.	520.34
21350	23.222	1.7273	0.	493.65
21351	23.222	1.8182	5.e-002	45.15
21352	23.144	1.8182	0.	572.27
21353	23.456	1.8182	0.	421.08
21354	23.378	1.7273	0.	403.7
21355	23.378	1.8182	5.e-002	20.986
21356	23.611	1.8182	0.	367.81
21357	23.533	1.7273	0.	355.66
21358	23.533	1.8182	5.e-002	13.094
21359	23.767	1.8182	0.	342.65
21360	23.689	1.7273	0.	326.23
21361	23.689	1.8182	5.e-002	10.043
21362	23.844	1.7273	0.	320.61
21363	23.844	1.8182	5.e-002	7.6585
21364	23.922	1.8182	0.	301.28
21365	23.3	1.6364	0.	378.03
21366	23.222	1.5455	0.	351.67
21367	23.222	1.6364	5.e-002	26.144
21368	23.144	1.6364	0.	391.47
21369	23.456	1.6364	0.	339.08
21370	23.378	1.5455	0.	315.93
21371	23.378	1.6364	5.e-002	17.161
21372	23.611	1.6364	0.	314.24
21373	23.533	1.5455	0.	293.47
21374	23.533	1.6364	5.e-002	12.737
21375	23.767	1.6364	0.	303.65
21376	23.689	1.5455	0.	279.31
21377	23.689	1.6364	5.e-002	9.9804
21378	23.844	1.5455	0.	281.13
21379	23.844	1.6364	5.e-002	5.499
21380	23.922	1.6364	0.	272.15
21381	23.3	1.4545	0.	289.26
21382	23.222	1.3636	0.	265.06
21383	23.222	1.4545	5.e-002	17.598
21384	23.144	1.4545	0.	293.93
21385	23.456	1.4545	0.	270.16
21386	23.378	1.3636	0.	247.03
21387	23.378	1.4545	5.e-002	12.867
21388	23.611	1.4545	0.	258.24
21389	23.533	1.3636	0.	235.69
21390	23.533	1.4545	5.e-002	11.23
21391	23.767	1.4545	0.	256.03
21392	23.689	1.3636	0.	229.49
21393	23.689	1.4545	5.e-002	9.6139
21394	23.844	1.3636	0.	235.63
21395	23.844	1.4545	5.e-002	4.952
21396	23.922	1.4545	0.	231.27
21397	23.3	1.2727	0.	222.47
21398	23.222	1.1818	0.	200.99
21399	23.222	1.2727	5.e-002	13.252
21400	23.144	1.2727	0.	221.77
21401	23.456	1.2727	0.	212.32
21402	23.378	1.1818	0.	190.87
21403	23.378	1.2727	5.e-002	10.352
21404	23.611	1.2727	0.	206.68
21405	23.533	1.1818	0.	185.1
21406	23.533	1.2727	5.e-002	9.5322
21407	23.767	1.2727	0.	208.41
21408	23.689	1.1818	0.	182.71
21409	23.689	1.2727	5.e-002	8.736
21410	23.844	1.1818	0.	190.79
21411	23.844	1.2727	5.e-002	4.7163
21412	23.922	1.2727	0.	187.42
21413	23.3	1.0909	0.	169.04
21414	23.222	1.	0.	150.41
21415	23.222	1.0909	5.e-002	10.421
21416	23.144	1.0909	0.	166.32
21417	23.456	1.0909	0.	163.39
21418	23.378	1.	0.	144.29
21419	23.378	1.0909	5.e-002	8.3767
21420	23.611	1.0909	0.	160.93
21421	23.533	1.	0.	141.44
21422	23.533	1.0909	5.e-002	8.0003
21423	23.767	1.0909	0.	164.56
21424	23.689	1.	0.	141.07
21425	23.689	1.0909	5.e-002	7.6361
21426	23.844	1.	0.	149.93
21427	23.844	1.0909	5.e-002	4.3458
21428	23.922	1.0909	0.	145.98
21429	23.3	0.90909	0.	125.35
21430	23.222	0.81818	0.	109.66
21431	23.222	0.90909	5.e-002	8.3146
21432	23.144	0.90909	0.	121.84
21433	23.456	0.90909	0.	122.1
21434	23.378	0.81818	0.	105.72
21435	23.378	0.90909	5.e-002	6.7869
21436	23.611	0.90909	0.	121.45
21437	23.533	0.81818	0.	104.57
21438	23.533	0.90909	5.e-002	6.5934
21439	23.767	0.90909	0.	126.07
21440	23.689	0.81818	0.	105.46
21441	23.689	0.90909	5.e-002	6.4338
21442	23.844	0.81818	0.	114.53
21443	23.844	0.90909	5.e-002	3.868
21444	23.922	0.90909	0.	109.79
21445	23.3	0.72727	0.	89.726
21446	23.222	0.63636	0.	76.869
21447	23.222	0.72727	5.e-002	6.5861
21448	23.144	0.72727	0.	86.063
21449	23.456	0.72727	0.	87.957
21450	23.378	0.63636	0.	74.406
21451	23.378	0.72727	5.e-002	5.3923
21452	23.611	0.72727	0.	88.508
21453	23.533	0.63636	0.	74.514
21454	23.533	0.72727	5.e-002	5.2522
21455	23.767	0.72727	0.	93.732
21456	23.689	0.63636	0.	76.371
21457	23.689	0.72727	5.e-002	5.1875
21458	23.844	0.63636	0.	85.214
21459	23.844	0.72727	5.e-002	3.3482
21460	23.922	0.72727	0.	80.346
21461	23.3	0.54545	0.	61.247
21462	23.222	0.45455	0.	50.855
21463	23.222	0.54545	5.e-002	5.1188
21464	23.144	0.54545	0.	57.597
21465	23.456	0.54545	0.	60.792
21466	23.378	0.45455	0.	50.074
21467	23.378	0.54545	5.e-002	4.1424
21468	23.611	0.54545	0.	62.415
21469	23.533	0.45455	0.	51.653
21470	23.533	0.54545	5.e-002	3.9546
21471	23.767	0.54545	0.	67.902
21472	23.689	0.45455	0.	54.277
21473	23.689	0.54545	5.e-002	3.8935
21474	23.844	0.45455	0.	61.998
21475	23.844	0.54545	5.e-002	2.8166
21476	23.922	0.54545	0.	58.275
21477	23.3	0.36364	0.	39.43
21478	23.222	0.27273	0.	30.896
21479	23.222	0.36364	5.e-002	3.9296
21480	23.144	0.36364	0.	35.285
21481	23.456	0.36364	0.	40.96
21482	23.378	0.27273	0.	33.679
21483	23.378	0.36364	5.e-002	3.0478
21484	23.611	0.36364	0.	43.718
21485	23.533	0.27273	0.	37.586
21486	23.533	0.36364	5.e-002	2.6914
21487	23.767	0.36364	0.	48.567
21488	23.689	0.27273	0.	40.287
21489	23.689	0.36364	5.e-002	2.5257
21490	23.844	0.27273	0.	44.4
21491	23.844	0.36364	5.e-002	2.315
21492	23.922	0.36364	0.	42.743
21493	23.3	0.18182	0.	25.468
21494	23.222	0.18182	5.e-002	3.2865
21495	23.222	9.0909e-002	0.	15.635
21496	23.144	0.18182	0.	17.95
21497	23.456	0.18182	0.	30.903
21498	23.378	0.18182	5.e-002	2.3474
21499	23.378	9.0909e-002	0.	22.475
21500	23.611	0.18182	0.	34.443
21501	23.533	0.18182	5.e-002	1.6277
21502	23.533	9.0909e-002	0.	27.138
21503	23.767	0.18182	0.	36.017
21504	23.689	0.18182	5.e-002	0.80071
21505	23.689	9.0909e-002	0.	28.53
21506	23.844	0.18182	5.e-002	1.5809
21507	23.844	9.0909e-002	0.	27.137
21508	23.922	0.18182	0.	29.76
21509	23.767	0.18182	0.1	36.017
21510	23.844	0.27273	0.1	44.4
21511	23.922	0.18182	0.1	29.76
21512	23.844	9.0909e-002	0.1	27.137
21513	23.611	0.18182	0.1	34.443
21514	23.689	0.27273	0.1	40.287
21515	23.689	9.0909e-002	0.1	28.53
21516	23.456	0.18182	0.1	30.903
21517	23.533	0.27273	0.1	37.586
21518	23.533	9.0909e-002	0.1	27.138
21519	23.3	0.18182	0.1	25.468
21520	23.378	0.27273	0.1	33.679
21521	23.378	9.0909e-002	0.1	22.475
21522	23.222	0.27273	0.1	30.896
21523	23.144	0.18182	0.1	17.95
21524	23.222	9.0909e-002	0.1	15.635
21525	23.767	0.36364	0.1	48.567
21526	23.844	0.45455	0.1	61.998
21527	23.922	0.36364	0.1	42.743
21528	23.611	0.36364	0.1	43.718
21529	23.689	0.45455	0.1	54.277
21530	23.456	0.36364	0.1	40.96
21531	23.533	0.45455	0.1	51.653
21532	23.3	0.36364	0.1	39.43
21533	23.378	0.45455	0.1	50.074
21534	23.222	0.45455	0.1	50.855
21535	23.144	0.36364	0.1	35.285
21536	23.767	0.54545	0.1	67.902
21537	23.844	0.63636	0.1	85.214
21538	23.922	0.54545	0.1	58.275
21539	23.611	0.54545	0.1	62.415
21540	23.689	0.63636	0.1	76.371
21541	23.456	0.54545	0.1	60.792
21542	23.533	0.63636	0.1	74.514
21543	23.3	0.54545	0.1	61.247
21544	23.378	0.63636	0.1	74.406
21545	23.222	0.63636	0.1	76.869
21546	23.144	0.54545	0.1	57.597
21547	23.767	0.72727	0.1	93.732
21548	23.844	0.81818	0.1	114.53
21549	23.922	0.72727	0.1	80.346
21550	23.611	0.72727	0.1	88.508
21551	23.689	0.81818	0.1	105.46
21552	23.456	0.72727	0.1	87.957
21553	23.533	0.81818	0.1	104.57
21554	23.3	0.72727	0.1	89.726
21555	23.378	0.81818	0.1	105.72
21556	23.222	0.81818	0.1	109.66
21557	23.144	0.72727	0.1	86.063
21558	23.767	0.90909	0.1	126.07
21559	23.844	1.	0.1	149.93
21560	23.922	0.90909	0.1	109.79
21561	23.611	0.90909	0.1	121.45
21562	23.689	1.	0.1	141.07
21563	23.456	0.90909	0.1	122.1
21564	23.533	1.	0.1	141.44
21565	23.3	0.90909	0.1	125.35
21566	23.378	1.	0.1	144.29
21567	23.222	1.	0.1	150.41
21568	23.144	0.90909	0.1	121.84
21569	23.767	1.0909	0.1	164.56
21570	23.844	1.1818	0.1	190.79
21571	23.922	1.0909	0.1	145.98
21572	23.611	1.0909	0.1	160.93
21573	23.689	1.1818	0.1	182.71
21574	23.456	1.0909	0.1	163.39
21575	23.533	1.1818	0.1	185.1
21576	23.3	1.0909	0.1	169.04
21577	23.378	1.1818	0.1	190.87
21578	23.222	1.1818	0.1	200.99
21579	23.144	1.0909	0.1	166.32
21580	23.767	1.2727	0.1	208.41
21581	23.844	1.3636	0.1	235.63
21582	23.922	1.2727	0.1	187.42
21583	23.611	1.2727	0.1	206.68
21584	23.689	1.3636	0.1	229.49
21585	23.456	1.2727	0.1	212.32
21586	23.533	1.3636	0.1	235.69
21587	23.3	1.2727	0.1	222.47
21588	23.378	1.3636	0.1	247.03
21589	23.222	1.3636	0.1	265.06
21590	23.144	1.2727	0.1	221.77
21591	23.767	1.4545	0.1	256.03
21592	23.844	1.5455	0.1	281.13
21593	23.922	1.4545	0.1	231.27
21594	23.611	1.4545	0.1	258.24
21595	23.689	1.5455	0.1	279.31
21596	23.456	1.4545	0.1	270.16
21597	23.533	1.5455	0.1	293.47
21598	23.3	1.4545	0.1	289.26
21599	23.378	1.5455	0.1	315.93
21600	23.222	1.5455	0.1	351.67
21601	23.144	1.4545	0.1	293.93
21602	23.767	1.6364	0.1	303.65
21603	23.844	1.7273	0.1	320.61
21604	23.922	1.6364	0.1	272.15
21605	23.611	1.6364	0.1	314.24
21606	23.689	1.7273	0.1	326.23
21607	23.456	1.6364	0.1	339.08
21608	23.533	1.7273	0.1	355.66
21609	23.3	1.6364	0.1	378.03
21610	23.378	1.7273	0.1	403.7
21611	23.222	1.7273	0.1	493.65
21612	23.144	1.6364	0.1	391.47
21613	23.767	1.8182	0.1	342.65
21614	23.844	1.9091	0.1	343.7
21615	23.922	1.8182	0.1	301.28
21616	23.611	1.8182	0.1	367.81
21617	23.689	1.9091	0.1	357.84
21618	23.456	1.8182	0.1	421.08
21619	23.533	1.9091	0.1	406.93
21620	23.3	1.8182	0.1	520.34
21621	23.378	1.9091	0.1	496.43
21622	23.222	1.9091	0.1	666.39
21623	23.144	1.8182	0.1	572.27
21624	23.3	5.8182	0.1	25.468
21625	23.222	5.7273	0.1	30.896
21626	23.144	5.8182	0.1	17.95
21627	23.222	5.9091	0.1	15.635
21628	23.456	5.8182	0.1	30.903
21629	23.378	5.7273	0.1	33.679
21630	23.378	5.9091	0.1	22.476
21631	23.611	5.8182	0.1	34.443
21632	23.533	5.7273	0.1	37.586
21633	23.533	5.9091	0.1	27.138
21634	23.767	5.8182	0.1	36.017
21635	23.689	5.7273	0.1	40.287
21636	23.689	5.9091	0.1	28.53
21637	23.844	5.7273	0.1	44.4
21638	23.844	5.9091	0.1	27.137
21639	23.922	5.8182	0.1	29.76
21640	23.3	5.6364	0.1	39.43
21641	23.222	5.5455	0.1	50.855
21642	23.144	5.6364	0.1	35.285
21643	23.456	5.6364	0.1	40.96
21644	23.378	5.5455	0.1	50.074
21645	23.611	5.6364	0.1	43.718
21646	23.533	5.5455	0.1	51.653
21647	23.767	5.6364	0.1	48.567
21648	23.689	5.5455	0.1	54.277
21649	23.844	5.5455	0.1	61.998
21650	23.922	5.6364	0.1	42.743
21651	23.3	5.4545	0.1	61.247
21652	23.222	5.3636	0.1	76.869
21653	23.144	5.4545	0.1	57.597
21654	23.456	5.4545	0.1	60.792
21655	23.378	5.3636	0.1	74.406
21656	23.611	5.4545	0.1	62.415
21657	23.533	5.3636	0.1	74.514
21658	23.767	5.4545	0.1	67.902
21659	23.689	5.3636	0.1	76.371
21660	23.844	5.3636	0.1	85.214
21661	23.922	5.4545	0.1	58.275
21662	23.3	5.2727	0.1	89.726
21663	23.222	5.1818	0.1	109.66
21664	23.144	5.2727	0.1	86.063
21665	23.456	5.2727	0.1	87.957
21666	23.378	5.1818	0.1	105.72
21667	23.611	5.2727	0.1	88.508
21668	23.533	5.1818	0.1	104.57
21669	23.767	5.2727	0.1	93.732
21670	23.689	5.1818	0.1	105.46
21671	23.844	5.1818	0.1	114.53
21672	23.922	5.2727	0.1	80.346
21673	23.3	5.0909	0.1	125.35
21674	23.222	5.	0.1	150.41
21675	23.144	5.0909	0.1	121.84
21676	23.456	5.0909	0.1	122.1
21677	23.378	5.	0.1	144.29
21678	23.611	5.0909	0.1	121.45
21679	23.533	5.	0.1	141.44
21680	23.767	5.0909	0.1	126.07
21681	23.689	5.	0.1	141.07
21682	23.844	5.	0.1	149.93
21683	23.922	5.0909	0.1	109.79
21684	23.3	4.9091	0.1	169.04
21685	23.222	4.8182	0.1	200.99
21686	23.144	4.9091	0.1	166.32
21687	23.456	4.9091	0.1	163.39
21688	23.378	4.8182	0.1	190.87
21689	23.611	4.9091	0.1	160.93
21690	23.533	4.8182	0.1	185.1
21691	23.767	4.9091	0.1	164.56
21692	23.689	4.8182	0.1	182.71
21693	23.844	4.8182	0.1	190.79
21694	23.922	4.9091	0.1	145.98
21695	23.3	4.7273	0.1	222.47
21696	23.222	4.6364	0.1	265.06
21697	23.144	4.7273	0.1	221.77
21698	23.456	4.7273	0.1	212.32
21699	23.378	4.6364	0.1	247.03
21700	23.611	4.7273	0.1	206.68
21701	23.533	4.6364	0.1	235.69
21702	23.767	4.7273	0.1	208.41
21703	23.689	4.6364	0.1	229.49
21704	23.844	4.6364	0.1	235.63
21705	23.922	4.7273	0.1	187.42
21706	23.3	4.5455	0.1	289.26
21707	23.222	4.4545	0.1	351.67
21708	23.144	4.5455	0.1	293.93
21709	23.456	4.5455	0.1	270.16
21710	23.378	4.4545	0.1	315.93
21711	23.611	4.5455	0.1	258.24
21712	23.533	4.4545	0.1	293.47
21713	23.767	4.5455	0.1	256.03
21714	23.689	4.4545	0.1	279.31
21715	23.844	4.4545	0.1	281.13
21716	23.922	4.5455	0.1	231.27
21717	23.3	4.3636	0.1	378.03
21718	23.222	4.2727	0.1	493.65
21719	23.144	4.3636	0.1	391.47
21720	23.456	4.3636	0.1	339.08
21721	23.378	4.2727	0.1	403.7
21722	23.611	4.3636	0.1	314.24
21723	23.533	4.2727	0.1	355.66
21724	23.767	4.3636	0.1	303.65
21725	23.689	4.2727	0.1	326.23
21726	23.844	4.2727	0.1	320.61
21727	23.922	4.3636	0.1	272.15
21728	23.3	4.1818	0.1	520.34
21729	23.222	4.0909	0.1	666.39
21730	23.144	4.1818	0.1	572.27
21731	23.456	4.1818	0.1	421.08
21732	23.378	4.0909	0.1	496.43
21733	23.611	4.1818	0.1	367.81
21734	23.533	4.0909	0.1	406.93
21735	23.767	4.1818	0.1	342.65
21736	23.689	4.0909	0.1	357.84
21737	23.844	4.0909	0.1	343.7
21738	23.922	4.1818	0.1	301.28
21739	23.844	3.7273	0.1	307.66
21740	23.767	3.8182	0.1	341.1
21741	23.844	3.9091	0.1	340.4
21742	23.922	3.8182	0.1	288.55
21743	23.844	3.5455	0.1	252.12
21744	23.767	3.6364	0.1	292.14
21745	23.922	3.6364	0.1	245.52
21746	23.844	3.3636	0.1	186.39
21747	23.767	3.4545	0.1	227.13
21748	23.922	3.4545	0.1	190.85
21749	23.844	3.1818	0.1	125.74
21750	23.767	3.2727	0.1	163.26
21751	23.922	3.2727	0.1	137.53
21752	23.844	3.	0.1	96.766
21753	23.767	3.0909	0.1	118.75
21754	23.922	3.0909	0.1	100.53
21755	23.844	2.8182	0.1	125.74
21756	23.767	2.9091	0.1	118.75
21757	23.922	2.9091	0.1	100.53
21758	23.844	2.6364	0.1	186.39
21759	23.767	2.7273	0.1	163.26
21760	23.922	2.7273	0.1	137.53
21761	23.844	2.4545	0.1	252.12
21762	23.767	2.5455	0.1	227.13
21763	23.922	2.5455	0.1	190.85
21764	23.844	2.2727	0.1	307.66
21765	23.767	2.3636	0.1	292.14
21766	23.922	2.3636	0.1	245.52
21767	23.767	2.1818	0.1	341.1
21768	23.844	2.0909	0.1	340.4
21769	23.922	2.1818	0.1	288.55
21770	23.689	3.7273	0.1	327.43
21771	23.611	3.8182	0.1	386.48
21772	23.689	3.9091	0.1	359.69
21773	23.689	3.5455	0.1	272.02
21774	23.611	3.6364	0.1	334.95
21775	23.689	3.3636	0.1	211.68
21776	23.611	3.4545	0.1	271.12
21777	23.689	3.1818	0.1	163.55
21778	23.611	3.2727	0.1	217.66
21779	23.689	3.	0.1	144.25
21780	23.611	3.0909	0.1	186.85
21781	23.689	2.8182	0.1	163.55
21782	23.611	2.9091	0.1	186.85
21783	23.689	2.6364	0.1	211.68
21784	23.611	2.7273	0.1	217.66
21785	23.689	2.4545	0.1	272.02
21786	23.611	2.5455	0.1	271.12
21787	23.689	2.2727	0.1	327.43
21788	23.611	2.3636	0.1	334.95
21789	23.611	2.1818	0.1	386.48
21790	23.689	2.0909	0.1	359.69
21791	23.533	3.7273	0.1	392.61
21792	23.456	3.8182	0.1	484.03
21793	23.533	3.9091	0.1	422.7
21794	23.533	3.5455	0.1	334.7
21795	23.456	3.6364	0.1	416.77
21796	23.533	3.3636	0.1	277.6
21797	23.456	3.4545	0.1	346.86
21798	23.533	3.1818	0.1	238.51
21799	23.456	3.2727	0.1	296.63
21800	23.533	3.	0.1	224.64
21801	23.456	3.0909	0.1	271.22
21802	23.533	2.8182	0.1	238.51
21803	23.456	2.9091	0.1	271.22
21804	23.533	2.6364	0.1	277.6
21805	23.456	2.7273	0.1	296.63
21806	23.533	2.4545	0.1	334.7
21807	23.456	2.5455	0.1	346.86
21808	23.533	2.2727	0.1	392.61
21809	23.456	2.3636	0.1	416.77
21810	23.456	2.1818	0.1	484.03
21811	23.533	2.0909	0.1	422.7
21812	23.378	3.7273	0.1	501.07
21813	23.3	3.8182	0.1	651.8
21814	23.378	3.9091	0.1	538.5
21815	23.378	3.5455	0.1	425.81
21816	23.3	3.6364	0.1	527.12
21817	23.378	3.3636	0.1	362.86
21818	23.3	3.4545	0.1	435.46
21819	23.378	3.1818	0.1	324.64
21820	23.3	3.2727	0.1	381.09
21821	23.378	3.	0.1	312.2
21822	23.3	3.0909	0.1	356.03
21823	23.378	2.8182	0.1	324.64
21824	23.3	2.9091	0.1	356.03
21825	23.378	2.6364	0.1	362.86
21826	23.3	2.7273	0.1	381.09
21827	23.378	2.4545	0.1	425.81
21828	23.3	2.5455	0.1	435.46
21829	23.378	2.2727	0.1	501.07
21830	23.3	2.3636	0.1	527.12
21831	23.3	2.1818	0.1	651.8
21832	23.378	2.0909	0.1	538.5
21833	23.222	3.7273	0.1	663.59
21834	23.144	3.8182	0.1	883.61
21835	23.222	3.9091	0.1	741.51
21836	23.222	3.5455	0.1	533.7
21837	23.144	3.6364	0.1	636.7
21838	23.222	3.3636	0.1	450.37
21839	23.144	3.4545	0.1	517.9
21840	23.222	3.1818	0.1	408.25
21841	23.144	3.2727	0.1	457.96
21842	23.222	3.	0.1	395.23
21843	23.144	3.0909	0.1	431.73
21844	23.222	2.8182	0.1	408.25
21845	23.144	2.9091	0.1	431.73
21846	23.222	2.6364	0.1	450.37
21847	23.144	2.7273	0.1	457.96
21848	23.222	2.4545	0.1	533.7
21849	23.144	2.5455	0.1	517.9
21850	23.222	2.2727	0.1	663.59
21851	23.144	2.3636	0.1	636.7
21852	23.144	2.1818	0.1	883.61
21853	23.222	2.0909	0.1	741.51
21854	23.067	3.7273	0.1	851.14
21855	22.983	3.8182	0.1	1037.7
21856	23.067	3.9091	0.1	1267.6
21857	23.067	3.5455	0.1	620.89
21858	22.983	3.6364	0.1	699.41
21859	23.067	3.3636	0.1	523.76
21860	22.983	3.4545	0.1	577.72
21861	23.067	3.1818	0.1	478.59
21862	22.983	3.2727	0.1	517.95
21863	23.067	3.	0.1	465.07
21864	22.983	3.0909	0.1	492.58
21865	23.067	2.8182	0.1	478.59
21866	22.983	2.9091	0.1	492.58
21867	23.067	2.6364	0.1	523.76
21868	22.983	2.7273	0.1	517.95
21869	23.067	2.4545	0.1	620.89
21870	22.983	2.5455	0.1	577.72
21871	23.067	2.2727	0.1	851.14
21872	22.983	2.3636	0.1	699.41
21873	22.983	2.1818	0.1	1037.7
21874	23.067	2.0909	0.1	1267.6
21875	0.18468	0.27273	0.1	4258.6
21876	0.27702	0.18182	0.1	4544.7
21877	9.2339e-002	0.18182	0.1	2712.1
21878	0.18468	9.0909e-002	0.1	3851.4
21879	0.18468	0.45455	0.1	4876.5
21880	0.27702	0.36364	0.1	4646.5
21881	9.2339e-002	0.36364	0.1	3408.5
21882	0.18468	0.63636	0.1	5475.4
21883	0.27702	0.54545	0.1	5005.
21884	9.2339e-002	0.54545	0.1	3987.9
21885	0.18468	0.81818	0.1	5931.6
21886	0.27702	0.72727	0.1	5365.3
21887	9.2339e-002	0.72727	0.1	4403.2
21888	0.18468	1.	0.1	6273.7
21889	0.27702	0.90909	0.1	5671.5
21890	9.2339e-002	0.90909	0.1	4701.8
21891	0.18468	1.1818	0.1	6533.1
21892	0.27702	1.0909	0.1	5919.6
21893	9.2339e-002	1.0909	0.1	4922.9
21894	0.18468	1.3636	0.1	6732.6
21895	0.27702	1.2727	0.1	6117.9
21896	9.2339e-002	1.2727	0.1	5090.1
21897	0.18468	1.5455	0.1	6887.8
21898	0.27702	1.4545	0.1	6276.2
21899	9.2339e-002	1.4545	0.1	5218.8
21900	0.18468	1.7273	0.1	7009.2
21901	0.27702	1.6364	0.1	6402.4
21902	9.2339e-002	1.6364	0.1	5319.
21903	0.18468	1.9091	0.1	7104.3
21904	0.27702	1.8182	0.1	6502.9
21905	9.2339e-002	1.8182	0.1	5397.2
21906	0.18468	2.0909	0.1	7178.2
21907	0.27702	2.	0.1	6582.2
21908	9.2339e-002	2.	0.1	5458.2
21909	0.18468	2.2727	0.1	7234.7
21910	0.27702	2.1818	0.1	6644.
21911	9.2339e-002	2.1818	0.1	5505.2
21912	0.18468	2.4545	0.1	7276.2
21913	0.27702	2.3636	0.1	6690.7
21914	9.2339e-002	2.3636	0.1	5540.4
21915	0.18468	2.6364	0.1	7304.7
21916	0.27702	2.5455	0.1	6724.3
21917	9.2339e-002	2.5455	0.1	5565.7
21918	0.18468	2.8182	0.1	7321.4
21919	0.27702	2.7273	0.1	6746.1
21920	9.2339e-002	2.7273	0.1	5581.9
21921	0.18468	3.	0.1	7326.9
21922	0.27702	2.9091	0.1	6756.7
21923	9.2339e-002	2.9091	0.1	5589.9
21924	0.18468	3.1818	0.1	7321.4
21925	0.27702	3.0909	0.1	6756.7
21926	9.2339e-002	3.0909	0.1	5589.9
21927	0.18468	3.3636	0.1	7304.7
21928	0.27702	3.2727	0.1	6746.1
21929	9.2339e-002	3.2727	0.1	5581.9
21930	0.18468	3.5455	0.1	7276.2
21931	0.27702	3.4545	0.1	6724.3
21932	9.2339e-002	3.4545	0.1	5565.7
21933	0.18468	3.7273	0.1	7234.7
21934	0.27702	3.6364	0.1	6690.7
21935	9.2339e-002	3.6364	0.1	5540.4
21936	0.18468	3.9091	0.1	7178.2
21937	0.27702	3.8182	0.1	6644.
21938	9.2339e-002	3.8182	0.1	5505.2
21939	0.18468	4.0909	0.1	7104.3
21940	0.27702	4.	0.1	6582.2
21941	9.2339e-002	4.	0.1	5458.2
21942	0.18468	4.2727	0.1	7009.2
21943	0.27702	4.1818	0.1	6502.9
21944	9.2339e-002	4.1818	0.1	5397.2
21945	0.18468	4.4545	0.1	6887.8
21946	0.27702	4.3636	0.1	6402.4
21947	9.2339e-002	4.3636	0.1	5319.
21948	0.18468	4.6364	0.1	6732.6
21949	0.27702	4.5455	0.1	6276.2
21950	9.2339e-002	4.5455	0.1	5218.8
21951	0.18468	4.8182	0.1	6533.1
21952	0.27702	4.7273	0.1	6117.9
21953	9.2339e-002	4.7273	0.1	5090.1
21954	0.18468	5.	0.1	6273.7
21955	0.27702	4.9091	0.1	5919.6
21956	9.2339e-002	4.9091	0.1	4922.9
21957	0.18468	5.1818	0.1	5931.6
21958	0.27702	5.0909	0.1	5671.5
21959	9.2339e-002	5.0909	0.1	4701.8
21960	0.18468	5.3636	0.1	5475.4
21961	0.27702	5.2727	0.1	5365.3
21962	9.2339e-002	5.2727	0.1	4403.2
21963	0.18468	5.5455	0.1	4876.5
21964	0.27702	5.4545	0.1	5005.
21965	9.2339e-002	5.4545	0.1	3987.9
21966	0.18468	5.7273	0.1	4258.6
21967	0.27702	5.6364	0.1	4646.5
21968	9.2339e-002	5.6364	0.1	3408.5
21969	0.27702	5.8182	0.1	4544.7
21970	9.2339e-002	5.8182	0.1	2712.1
21971	0.18468	5.9091	0.1	3851.4
21972	0.36935	0.27273	0.1	4899.
21973	0.46169	0.18182	0.1	5305.5
21974	0.36935	9.0909e-002	0.1	4932.5
21975	0.36935	0.45455	0.1	4800.6
21976	0.46169	0.36364	0.1	5066.4
21977	0.36935	0.63636	0.1	4925.3
21978	0.46169	0.54545	0.1	5060.4
21979	0.36935	0.81818	0.1	5128.7
21980	0.46169	0.72727	0.1	5175.1
21981	0.36935	1.	0.1	5334.7
21982	0.46169	0.90909	0.1	5333.3
21983	0.36935	1.1818	0.1	5517.7
21984	0.46169	1.0909	0.1	5494.6
21985	0.36935	1.3636	0.1	5672.4
21986	0.46169	1.2727	0.1	5641.7
21987	0.36935	1.5455	0.1	5800.2
21988	0.46169	1.4545	0.1	5769.5
21989	0.36935	1.7273	0.1	5904.5
21990	0.46169	1.6364	0.1	5877.4
21991	0.36935	1.9091	0.1	5988.6
21992	0.46169	1.8182	0.1	5966.7
21993	0.36935	2.0909	0.1	6055.4
21994	0.46169	2.	0.1	6039.3
21995	0.36935	2.2727	0.1	6107.2
21996	0.46169	2.1818	0.1	6097.1
21997	0.36935	2.4545	0.1	6145.8
21998	0.46169	2.3636	0.1	6141.5
21999	0.36935	2.6364	0.1	6172.5
22000	0.46169	2.5455	0.1	6173.7
22001	0.36935	2.8182	0.1	6188.2
22002	0.46169	2.7273	0.1	6194.7
22003	0.36935	3.	0.1	6193.4
22004	0.46169	2.9091	0.1	6205.1
22005	0.36935	3.1818	0.1	6188.2
22006	0.46169	3.0909	0.1	6205.1
22007	0.36935	3.3636	0.1	6172.5
22008	0.46169	3.2727	0.1	6194.7
22009	0.36935	3.5455	0.1	6145.8
22010	0.46169	3.4545	0.1	6173.7
22011	0.36935	3.7273	0.1	6107.2
22012	0.46169	3.6364	0.1	6141.5
22013	0.36935	3.9091	0.1	6055.4
22014	0.46169	3.8182	0.1	6097.1
22015	0.36935	4.0909	0.1	5988.6
22016	0.46169	4.	0.1	6039.3
22017	0.36935	4.2727	0.1	5904.5
22018	0.46169	4.1818	0.1	5966.7
22019	0.36935	4.4545	0.1	5800.2
22020	0.46169	4.3636	0.1	5877.4
22021	0.36935	4.6364	0.1	5672.4
22022	0.46169	4.5455	0.1	5769.5
22023	0.36935	4.8182	0.1	5517.7
22024	0.46169	4.7273	0.1	5641.7
22025	0.36935	5.	0.1	5334.7
22026	0.46169	4.9091	0.1	5494.6
22027	0.36935	5.1818	0.1	5128.7
22028	0.46169	5.0909	0.1	5333.3
22029	0.36935	5.3636	0.1	4925.3
22030	0.46169	5.2727	0.1	5175.1
22031	0.36935	5.5455	0.1	4800.6
22032	0.46169	5.4545	0.1	5060.4
22033	0.36935	5.7273	0.1	4899.
22034	0.46169	5.6364	0.1	5066.4
22035	0.46169	5.8182	0.1	5305.5
22036	0.36935	5.9091	0.1	4932.5
22037	0.55403	0.27273	0.1	5458.1
22038	0.64637	0.18182	0.1	5705.7
22039	0.55403	9.0909e-002	0.1	5474.6
22040	0.55403	0.45455	0.1	5313.
22041	0.64637	0.36364	0.1	5475.3
22042	0.55403	0.63636	0.1	5303.4
22043	0.64637	0.54545	0.1	5381.5
22044	0.55403	0.81818	0.1	5377.6
22045	0.64637	0.72727	0.1	5378.4
22046	0.55403	1.	0.1	5493.1
22047	0.64637	0.90909	0.1	5436.3
22048	0.55403	1.1818	0.1	5619.2
22049	0.64637	1.0909	0.1	5524.7
22050	0.55403	1.3636	0.1	5739.5
22051	0.64637	1.2727	0.1	5622.5
22052	0.55403	1.5455	0.1	5847.2
22053	0.64637	1.4545	0.1	5717.7
22054	0.55403	1.7273	0.1	5940.
22055	0.64637	1.6364	0.1	5804.5
22056	0.55403	1.9091	0.1	6017.8
22057	0.64637	1.8182	0.1	5880.2
22058	0.55403	2.0909	0.1	6081.3
22059	0.64637	2.	0.1	5944.2
22060	0.55403	2.2727	0.1	6131.6
22061	0.64637	2.1818	0.1	5996.5
22062	0.55403	2.4545	0.1	6169.6
22063	0.64637	2.3636	0.1	6037.6
22064	0.55403	2.6364	0.1	6196.2
22065	0.64637	2.5455	0.1	6067.8
22066	0.55403	2.8182	0.1	6211.9
22067	0.64637	2.7273	0.1	6087.7
22068	0.55403	3.	0.1	6217.1
22069	0.64637	2.9091	0.1	6097.6
22070	0.55403	3.1818	0.1	6211.9
22071	0.64637	3.0909	0.1	6097.6
22072	0.55403	3.3636	0.1	6196.2
22073	0.64637	3.2727	0.1	6087.7
22074	0.55403	3.5455	0.1	6169.6
22075	0.64637	3.4545	0.1	6067.8
22076	0.55403	3.7273	0.1	6131.6
22077	0.64637	3.6364	0.1	6037.6
22078	0.55403	3.9091	0.1	6081.3
22079	0.64637	3.8182	0.1	5996.5
22080	0.55403	4.0909	0.1	6017.8
22081	0.64637	4.	0.1	5944.2
22082	0.55403	4.2727	0.1	5940.
22083	0.64637	4.1818	0.1	5880.2
22084	0.55403	4.4545	0.1	5847.2
22085	0.64637	4.3636	0.1	5804.5
22086	0.55403	4.6364	0.1	5739.5
22087	0.64637	4.5455	0.1	5717.7
22088	0.55403	4.8182	0.1	5619.2
22089	0.64637	4.7273	0.1	5622.5
22090	0.55403	5.	0.1	5493.1
22091	0.64637	4.9091	0.1	5524.7
22092	0.55403	5.1818	0.1	5377.6
22093	0.64637	5.0909	0.1	5436.3
22094	0.55403	5.3636	0.1	5303.4
22095	0.64637	5.2727	0.1	5378.4
22096	0.55403	5.5455	0.1	5313.
22097	0.64637	5.4545	0.1	5381.5
22098	0.55403	5.7273	0.1	5458.1
22099	0.64637	5.6364	0.1	5475.3
22100	0.64637	5.8182	0.1	5705.7
22101	0.55403	5.9091	0.1	5474.6
22102	0.73871	0.27273	0.1	5716.1
22103	0.83105	0.18182	0.1	5906.7
22104	0.73871	9.0909e-002	0.1	5758.9
22105	0.73871	0.45455	0.1	5537.7
22106	0.83105	0.36364	0.1	5685.5
22107	0.73871	0.63636	0.1	5452.2
22108	0.83105	0.54545	0.1	5557.5
22109	0.73871	0.81818	0.1	5435.2
22110	0.83105	0.72727	0.1	5492.
22111	0.73871	1.	0.1	5467.7
22112	0.83105	0.90909	0.1	5480.
22113	0.73871	1.1818	0.1	5528.6
22114	0.83105	1.0909	0.1	5506.
22115	0.73871	1.3636	0.1	5601.5
22116	0.83105	1.2727	0.1	5554.
22117	0.73871	1.5455	0.1	5675.7
22118	0.83105	1.4545	0.1	5611.7
22119	0.73871	1.7273	0.1	5745.3
22120	0.83105	1.6364	0.1	5671.
22121	0.73871	1.9091	0.1	5807.2
22122	0.83105	1.8182	0.1	5727.1
22123	0.73871	2.0909	0.1	5859.8
22124	0.83105	2.	0.1	5777.2
22125	0.73871	2.2727	0.1	5902.8
22126	0.83105	2.1818	0.1	5819.7
22127	0.73871	2.4545	0.1	5936.
22128	0.83105	2.3636	0.1	5854.
22129	0.73871	2.6364	0.1	5959.5
22130	0.83105	2.5455	0.1	5879.8
22131	0.73871	2.8182	0.1	5973.5
22132	0.83105	2.7273	0.1	5897.
22133	0.73871	3.	0.1	5978.2
22134	0.83105	2.9091	0.1	5905.6
22135	0.73871	3.1818	0.1	5973.5
22136	0.83105	3.0909	0.1	5905.6
22137	0.73871	3.3636	0.1	5959.5
22138	0.83105	3.2727	0.1	5897.
22139	0.73871	3.5455	0.1	5936.
22140	0.83105	3.4545	0.1	5879.8
22141	0.73871	3.7273	0.1	5902.8
22142	0.83105	3.6364	0.1	5854.
22143	0.73871	3.9091	0.1	5859.8
22144	0.83105	3.8182	0.1	5819.7
22145	0.73871	4.0909	0.1	5807.2
22146	0.83105	4.	0.1	5777.2
22147	0.73871	4.2727	0.1	5745.3
22148	0.83105	4.1818	0.1	5727.1
22149	0.73871	4.4545	0.1	5675.7
22150	0.83105	4.3636	0.1	5671.
22151	0.73871	4.6364	0.1	5601.5
22152	0.83105	4.5455	0.1	5611.7
22153	0.73871	4.8182	0.1	5528.6
22154	0.83105	4.7273	0.1	5554.
22155	0.73871	5.	0.1	5467.7
22156	0.83105	4.9091	0.1	5506.
22157	0.73871	5.1818	0.1	5435.2
22158	0.83105	5.0909	0.1	5480.
22159	0.73871	5.3636	0.1	5452.2
22160	0.83105	5.2727	0.1	5492.
22161	0.73871	5.5455	0.1	5537.7
22162	0.83105	5.4545	0.1	5557.5
22163	0.73871	5.7273	0.1	5716.1
22164	0.83105	5.6364	0.1	5685.5
22165	0.83105	5.8182	0.1	5906.7
22166	0.73871	5.9091	0.1	5758.9
22167	0.92339	0.27273	0.1	5872.8
22168	1.0157	0.18182	0.1	6012.6
22169	0.92339	9.0909e-002	0.1	5919.2
22170	0.92339	0.45455	0.1	5701.8
22171	1.0157	0.36364	0.1	5813.2
22172	0.92339	0.63636	0.1	5593.7
22173	1.0157	0.54545	0.1	5680.6
22174	0.92339	0.81818	0.1	5534.
22175	1.0157	0.72727	0.1	5589.8
22176	0.92339	1.	0.1	5516.7
22177	1.0157	0.90909	0.1	5539.8
22178	0.92339	1.1818	0.1	5530.5
22179	1.0157	1.0909	0.1	5524.3
22180	0.92339	1.3636	0.1	5563.8
22181	1.0157	1.2727	0.1	5533.9
22182	0.92339	1.5455	0.1	5606.9
22183	1.0157	1.4545	0.1	5559.1
22184	0.92339	1.7273	0.1	5652.8
22185	1.0157	1.6364	0.1	5592.5
22186	0.92339	1.9091	0.1	5697.1
22187	1.0157	1.8182	0.1	5628.4
22188	0.92339	2.0909	0.1	5737.1
22189	1.0157	2.	0.1	5663.2
22190	0.92339	2.2727	0.1	5770.9
22191	1.0157	2.1818	0.1	5694.5
22192	0.92339	2.4545	0.1	5797.8
22193	1.0157	2.3636	0.1	5720.7
22194	0.92339	2.6364	0.1	5817.3
22195	1.0157	2.5455	0.1	5740.9
22196	0.92339	2.8182	0.1	5829.
22197	1.0157	2.7273	0.1	5754.6
22198	0.92339	3.	0.1	5832.9
22199	1.0157	2.9091	0.1	5761.6
22200	0.92339	3.1818	0.1	5829.
22201	1.0157	3.0909	0.1	5761.6
22202	0.92339	3.3636	0.1	5817.3
22203	1.0157	3.2727	0.1	5754.6
22204	0.92339	3.5455	0.1	5797.8
22205	1.0157	3.4545	0.1	5740.9
22206	0.92339	3.7273	0.1	5770.9
22207	1.0157	3.6364	0.1	5720.7
22208	0.92339	3.9091	0.1	5737.1
22209	1.0157	3.8182	0.1	5694.5
22210	0.92339	4.0909	0.1	5697.1
22211	1.0157	4.	0.1	5663.2
22212	0.92339	4.2727	0.1	5652.8
22213	1.0157	4.1818	0.1	5628.4
22214	0.92339	4.4545	0.1	5606.9
22215	1.0157	4.3636	0.1	5592.5
22216	0.92339	4.6364	0.1	5563.8
22217	1.0157	4.5455	0.1	5559.1
22218	0.92339	4.8182	0.1	5530.5
22219	1.0157	4.7273	0.1	5533.9
22220	0.92339	5.	0.1	5516.7
22221	1.0157	4.9091	0.1	5524.3
22222	0.92339	5.1818	0.1	5534.
22223	1.0157	5.0909	0.1	5539.8
22224	0.92339	5.3636	0.1	5593.7
22225	1.0157	5.2727	0.1	5589.8
22226	0.92339	5.5455	0.1	5701.8
22227	1.0157	5.4545	0.1	5680.6
22228	0.92339	5.7273	0.1	5872.8
22229	1.0157	5.6364	0.1	5813.2
22230	1.0157	5.8182	0.1	6012.6
22231	0.92339	5.9091	0.1	5919.2
22232	1.1081	0.27273	0.1	5950.9
22233	1.2004	0.18182	0.1	6058.
22234	1.1081	9.0909e-002	0.1	6001.9
22235	1.1081	0.45455	0.1	5790.
22236	1.2004	0.36364	0.1	5877.9
22237	1.1081	0.63636	0.1	5674.4
22238	1.2004	0.54545	0.1	5748.3
22239	1.1081	0.81818	0.1	5593.4
22240	1.2004	0.72727	0.1	5647.8
22241	1.1081	1.	0.1	5545.8
22242	1.2004	0.90909	0.1	5577.6
22243	1.1081	1.1818	0.1	5526.6
22244	1.2004	1.0909	0.1	5535.9
22245	1.1081	1.3636	0.1	5528.6
22246	1.2004	1.2727	0.1	5517.7
22247	1.1081	1.5455	0.1	5544.4
22248	1.2004	1.4545	0.1	5517.
22249	1.1081	1.7273	0.1	5567.8
22250	1.2004	1.6364	0.1	5527.7
22251	1.1081	1.9091	0.1	5594.4
22252	1.2004	1.8182	0.1	5544.8
22253	1.1081	2.0909	0.1	5620.6
22254	1.2004	2.	0.1	5564.6
22255	1.1081	2.2727	0.1	5644.2
22256	1.2004	2.1818	0.1	5584.2
22257	1.1081	2.4545	0.1	5663.7
22258	1.2004	2.3636	0.1	5601.7
22259	1.1081	2.6364	0.1	5678.2
22260	1.2004	2.5455	0.1	5615.8
22261	1.1081	2.8182	0.1	5687.2
22262	1.2004	2.7273	0.1	5625.6
22263	1.1081	3.	0.1	5690.1
22264	1.2004	2.9091	0.1	5630.6
22265	1.1081	3.1818	0.1	5687.2
22266	1.2004	3.0909	0.1	5630.6
22267	1.1081	3.3636	0.1	5678.2
22268	1.2004	3.2727	0.1	5625.6
22269	1.1081	3.5455	0.1	5663.7
22270	1.2004	3.4545	0.1	5615.8
22271	1.1081	3.7273	0.1	5644.2
22272	1.2004	3.6364	0.1	5601.7
22273	1.1081	3.9091	0.1	5620.6
22274	1.2004	3.8182	0.1	5584.2
22275	1.1081	4.0909	0.1	5594.4
22276	1.2004	4.	0.1	5564.6
22277	1.1081	4.2727	0.1	5567.8
22278	1.2004	4.1818	0.1	5544.8
22279	1.1081	4.4545	0.1	5544.4
22280	1.2004	4.3636	0.1	5527.7
22281	1.1081	4.6364	0.1	5528.6
22282	1.2004	4.5455	0.1	5517.
22283	1.1081	4.8182	0.1	5526.6
22284	1.2004	4.7273	0.1	5517.7
22285	1.1081	5.	0.1	5545.8
22286	1.2004	4.9091	0.1	5535.9
22287	1.1081	5.1818	0.1	5593.4
22288	1.2004	5.0909	0.1	5577.6
22289	1.1081	5.3636	0.1	5674.4
22290	1.2004	5.2727	0.1	5647.8
22291	1.1081	5.5455	0.1	5790.
22292	1.2004	5.4545	0.1	5748.3
22293	1.1081	5.7273	0.1	5950.9
22294	1.2004	5.6364	0.1	5877.9
22295	1.2004	5.8182	0.1	6058.
22296	1.1081	5.9091	0.1	6001.9
22297	1.2927	0.27273	0.1	5983.6
22298	1.3851	0.18182	0.1	6065.9
22299	1.2927	9.0909e-002	0.1	6036.9
22300	1.2927	0.45455	0.1	5835.
22301	1.3851	0.36364	0.1	5903.5
22302	1.2927	0.63636	0.1	5720.2
22303	1.3851	0.54545	0.1	5780.4
22304	1.2927	0.81818	0.1	5630.4
22305	1.3851	0.72727	0.1	5678.1
22306	1.2927	1.	0.1	5566.2
22307	1.3851	0.90909	0.1	5598.3
22308	1.2927	1.1818	0.1	5525.9
22309	1.3851	1.0909	0.1	5541.2
22310	1.2927	1.3636	0.1	5505.4
22311	1.3851	1.2727	0.1	5504.5
22312	1.2927	1.5455	0.1	5499.8
22313	1.3851	1.4545	0.1	5484.6
22314	1.2927	1.7273	0.1	5504.3
22315	1.3851	1.6364	0.1	5477.2
22316	1.2927	1.9091	0.1	5514.8
22317	1.3851	1.8182	0.1	5478.4
22318	1.2927	2.0909	0.1	5528.1
22319	1.3851	2.	0.1	5484.7
22320	1.2927	2.2727	0.1	5541.6
22321	1.3851	2.1818	0.1	5493.4
22322	1.2927	2.4545	0.1	5553.7
22323	1.3851	2.3636	0.1	5502.5
22324	1.2927	2.6364	0.1	5563.
22325	1.3851	2.5455	0.1	5510.5
22326	1.2927	2.8182	0.1	5569.
22327	1.3851	2.7273	0.1	5516.3
22328	1.2927	3.	0.1	5571.
22329	1.3851	2.9091	0.1	5519.4
22330	1.2927	3.1818	0.1	5569.
22331	1.3851	3.0909	0.1	5519.4
22332	1.2927	3.3636	0.1	5563.
22333	1.3851	3.2727	0.1	5516.3
22334	1.2927	3.5455	0.1	5553.7
22335	1.3851	3.4545	0.1	5510.5
22336	1.2927	3.7273	0.1	5541.6
22337	1.3851	3.6364	0.1	5502.5
22338	1.2927	3.9091	0.1	5528.1
22339	1.3851	3.8182	0.1	5493.4
22340	1.2927	4.0909	0.1	5514.8
22341	1.3851	4.	0.1	5484.7
22342	1.2927	4.2727	0.1	5504.3
22343	1.3851	4.1818	0.1	5478.4
22344	1.2927	4.4545	0.1	5499.8
22345	1.3851	4.3636	0.1	5477.2
22346	1.2927	4.6364	0.1	5505.4
22347	1.3851	4.5455	0.1	5484.6
22348	1.2927	4.8182	0.1	5525.9
22349	1.3851	4.7273	0.1	5504.5
22350	1.2927	5.	0.1	5566.2
22351	1.3851	4.9091	0.1	5541.2
22352	1.2927	5.1818	0.1	5630.4
22353	1.3851	5.0909	0.1	5598.3
22354	1.2927	5.3636	0.1	5720.2
22355	1.3851	5.2727	0.1	5678.1
22356	1.2927	5.5455	0.1	5835.
22357	1.3851	5.4545	0.1	5780.4
22358	1.2927	5.7273	0.1	5983.6
22359	1.3851	5.6364	0.1	5903.5
22360	1.3851	5.8182	0.1	6065.9
22361	1.2927	5.9091	0.1	6036.9
22362	1.4774	0.27273	0.1	5984.9
22363	1.5698	0.18182	0.1	6048.8
22364	1.4774	9.0909e-002	0.1	6039.8
22365	1.4774	0.45455	0.1	5848.
22366	1.5698	0.36364	0.1	5901.8
22367	1.4774	0.63636	0.1	5737.2
22368	1.5698	0.54545	0.1	5786.1
22369	1.4774	0.81818	0.1	5644.9
22370	1.5698	0.72727	0.1	5685.8
22371	1.4774	1.	0.1	5572.1
22372	1.5698	0.90909	0.1	5602.3
22373	1.4774	1.1818	0.1	5518.8
22374	1.5698	1.0909	0.1	5536.7
22375	1.4774	1.3636	0.1	5483.
22376	1.5698	1.2727	0.1	5488.3
22377	1.4774	1.5455	0.1	5461.5
22378	1.5698	1.4545	0.1	5454.9
22379	1.4774	1.7273	0.1	5450.9
22380	1.5698	1.6364	0.1	5433.9
22381	1.4774	1.9091	0.1	5448.
22382	1.5698	1.8182	0.1	5422.3
22383	1.4774	2.0909	0.1	5449.8
22384	1.5698	2.	0.1	5417.3
22385	1.4774	2.2727	0.1	5454.2
22386	1.5698	2.1818	0.1	5416.5
22387	1.4774	2.4545	0.1	5459.2
22388	1.5698	2.3636	0.1	5418.
22389	1.4774	2.6364	0.1	5463.6
22390	1.5698	2.5455	0.1	5420.4
22391	1.4774	2.8182	0.1	5466.6
22392	1.5698	2.7273	0.1	5422.5
22393	1.4774	3.	0.1	5467.7
22394	1.5698	2.9091	0.1	5423.7
22395	1.4774	3.1818	0.1	5466.6
22396	1.5698	3.0909	0.1	5423.7
22397	1.4774	3.3636	0.1	5463.6
22398	1.5698	3.2727	0.1	5422.5
22399	1.4774	3.5455	0.1	5459.2
22400	1.5698	3.4545	0.1	5420.4
22401	1.4774	3.7273	0.1	5454.2
22402	1.5698	3.6364	0.1	5418.
22403	1.4774	3.9091	0.1	5449.8
22404	1.5698	3.8182	0.1	5416.5
22405	1.4774	4.0909	0.1	5448.
22406	1.5698	4.	0.1	5417.3
22407	1.4774	4.2727	0.1	5450.9
22408	1.5698	4.1818	0.1	5422.3
22409	1.4774	4.4545	0.1	5461.5
22410	1.5698	4.3636	0.1	5433.9
22411	1.4774	4.6364	0.1	5483.
22412	1.5698	4.5455	0.1	5454.9
22413	1.4774	4.8182	0.1	5518.8
22414	1.5698	4.7273	0.1	5488.3
22415	1.4774	5.	0.1	5572.1
22416	1.5698	4.9091	0.1	5536.7
22417	1.4774	5.1818	0.1	5644.9
22418	1.5698	5.0909	0.1	5602.3
22419	1.4774	5.3636	0.1	5737.2
22420	1.5698	5.2727	0.1	5685.8
22421	1.4774	5.5455	0.1	5848.
22422	1.5698	5.4545	0.1	5786.1
22423	1.4774	5.7273	0.1	5984.9
22424	1.5698	5.6364	0.1	5901.8
22425	1.5698	5.8182	0.1	6048.8
22426	1.4774	5.9091	0.1	6039.8
22427	1.6621	0.27273	0.1	5965.1
22428	1.7544	0.18182	0.1	6014.8
22429	1.6621	9.0909e-002	0.1	6021.
22430	1.6621	0.45455	0.1	5839.3
22431	1.7544	0.36364	0.1	5881.4
22432	1.6621	0.63636	0.1	5733.8
22433	1.7544	0.54545	0.1	5773.1
22434	1.6621	0.81818	0.1	5642.3
22435	1.7544	0.72727	0.1	5676.5
22436	1.6621	1.	0.1	5566.
22437	1.7544	0.90909	0.1	5592.8
22438	1.6621	1.1818	0.1	5505.3
22439	1.7544	1.0909	0.1	5523.3
22440	1.6621	1.3636	0.1	5459.5
22441	1.7544	1.2727	0.1	5467.9
22442	1.6621	1.5455	0.1	5426.9
22443	1.7544	1.4545	0.1	5425.7
22444	1.6621	1.7273	0.1	5404.9
22445	1.7544	1.6364	0.1	5394.9
22446	1.6621	1.9091	0.1	5391.3
22447	1.7544	1.8182	0.1	5373.6
22448	1.6621	2.0909	0.1	5383.8
22449	1.7544	2.	0.1	5359.6
22450	1.6621	2.2727	0.1	5380.2
22451	1.7544	2.1818	0.1	5351.
22452	1.6621	2.4545	0.1	5379.
22453	1.7544	2.3636	0.1	5346.
22454	1.6621	2.6364	0.1	5379.1
22455	1.7544	2.5455	0.1	5343.5
22456	1.6621	2.8182	0.1	5379.4
22457	1.7544	2.7273	0.1	5342.3
22458	1.6621	3.	0.1	5379.6
22459	1.7544	2.9091	0.1	5341.9
22460	1.6621	3.1818	0.1	5379.4
22461	1.7544	3.0909	0.1	5341.9
22462	1.6621	3.3636	0.1	5379.1
22463	1.7544	3.2727	0.1	5342.3
22464	1.6621	3.5455	0.1	5379.
22465	1.7544	3.4545	0.1	5343.5
22466	1.6621	3.7273	0.1	5380.2
22467	1.7544	3.6364	0.1	5346.
22468	1.6621	3.9091	0.1	5383.8
22469	1.7544	3.8182	0.1	5351.
22470	1.6621	4.0909	0.1	5391.3
22471	1.7544	4.	0.1	5359.6
22472	1.6621	4.2727	0.1	5404.9
22473	1.7544	4.1818	0.1	5373.6
22474	1.6621	4.4545	0.1	5426.9
22475	1.7544	4.3636	0.1	5394.9
22476	1.6621	4.6364	0.1	5459.5
22477	1.7544	4.5455	0.1	5425.7
22478	1.6621	4.8182	0.1	5505.3
22479	1.7544	4.7273	0.1	5467.9
22480	1.6621	5.	0.1	5566.
22481	1.7544	4.9091	0.1	5523.3
22482	1.6621	5.1818	0.1	5642.3
22483	1.7544	5.0909	0.1	5592.8
22484	1.6621	5.3636	0.1	5733.8
22485	1.7544	5.2727	0.1	5676.5
22486	1.6621	5.5455	0.1	5839.3
22487	1.7544	5.4545	0.1	5773.1
22488	1.6621	5.7273	0.1	5965.1
22489	1.7544	5.6364	0.1	5881.4
22490	1.7544	5.8182	0.1	6014.8
22491	1.6621	5.9091	0.1	6021.
22492	1.8468	0.27273	0.1	5930.7
22493	1.9391	0.18182	0.1	5969.3
22494	1.8468	9.0909e-002	0.1	5987.
22495	1.8468	0.45455	0.1	5814.8
22496	1.9391	0.36364	0.1	5847.8
22497	1.8468	0.63636	0.1	5715.3
22498	1.9391	0.54545	0.1	5746.7
22499	1.8468	0.81818	0.1	5626.5
22500	1.9391	0.72727	0.1	5654.7
22501	1.8468	1.	0.1	5549.5
22502	1.9391	0.90909	0.1	5572.7
22503	1.8468	1.1818	0.1	5485.2
22504	1.9391	1.0909	0.1	5502.
22505	1.8468	1.3636	0.1	5433.4
22506	1.9391	1.2727	0.1	5443.
22507	1.8468	1.5455	0.1	5393.3
22508	1.9391	1.4545	0.1	5395.3
22509	1.8468	1.7273	0.1	5363.2
22510	1.9391	1.6364	0.1	5358.
22511	1.8468	1.9091	0.1	5341.6
22512	1.9391	1.8182	0.1	5329.7
22513	1.8468	2.0909	0.1	5326.6
22514	1.9391	2.	0.1	5308.9
22515	1.8468	2.2727	0.1	5316.6
22516	1.9391	2.1818	0.1	5294.1
22517	1.8468	2.4545	0.1	5310.3
22518	1.9391	2.3636	0.1	5283.9
22519	1.8468	2.6364	0.1	5306.6
22520	1.9391	2.5455	0.1	5277.3
22521	1.8468	2.8182	0.1	5304.6
22522	1.9391	2.7273	0.1	5273.4
22523	1.8468	3.	0.1	5304.
22524	1.9391	2.9091	0.1	5271.6
22525	1.8468	3.1818	0.1	5304.6
22526	1.9391	3.0909	0.1	5271.6
22527	1.8468	3.3636	0.1	5306.6
22528	1.9391	3.2727	0.1	5273.4
22529	1.8468	3.5455	0.1	5310.3
22530	1.9391	3.4545	0.1	5277.3
22531	1.8468	3.7273	0.1	5316.6
22532	1.9391	3.6364	0.1	5283.9
22533	1.8468	3.9091	0.1	5326.6
22534	1.9391	3.8182	0.1	5294.1
22535	1.8468	4.0909	0.1	5341.6
22536	1.9391	4.	0.1	5308.9
22537	1.8468	4.2727	0.1	5363.2
22538	1.9391	4.1818	0.1	5329.7
22539	1.8468	4.4545	0.1	5393.3
22540	1.9391	4.3636	0.1	5358.
22541	1.8468	4.6364	0.1	5433.4
22542	1.9391	4.5455	0.1	5395.3
22543	1.8468	4.8182	0.1	5485.2
22544	1.9391	4.7273	0.1	5443.
22545	1.8468	5.	0.1	5549.5
22546	1.9391	4.9091	0.1	5502.
22547	1.8468	5.1818	0.1	5626.5
22548	1.9391	5.0909	0.1	5572.7
22549	1.8468	5.3636	0.1	5715.3
22550	1.9391	5.2727	0.1	5654.7
22551	1.8468	5.5455	0.1	5814.8
22552	1.9391	5.4545	0.1	5746.7
22553	1.8468	5.7273	0.1	5930.7
22554	1.9391	5.6364	0.1	5847.8
22555	1.9391	5.8182	0.1	5969.3
22556	1.8468	5.9091	0.1	5987.
22557	2.0315	0.27273	0.1	5886.
22558	2.1238	0.18182	0.1	5915.7
22559	2.0315	9.0909e-002	0.1	5942.3
22560	2.0315	0.45455	0.1	5779.3
22561	2.1238	0.36364	0.1	5804.8
22562	2.0315	0.63636	0.1	5685.7
22563	2.1238	0.54545	0.1	5710.5
22564	2.0315	0.81818	0.1	5600.5
22565	2.1238	0.72727	0.1	5623.5
22566	2.0315	1.	0.1	5524.8
22567	2.1238	0.90909	0.1	5544.3
22568	2.0315	1.1818	0.1	5459.3
22569	2.1238	1.0909	0.1	5474.3
22570	2.0315	1.3636	0.1	5404.4
22571	2.1238	1.2727	0.1	5413.9
22572	2.0315	1.5455	0.1	5359.6
22573	2.1238	1.4545	0.1	5363.2
22574	2.0315	1.7273	0.1	5324.1
22575	2.1238	1.6364	0.1	5321.8
22576	2.0315	1.9091	0.1	5296.7
22577	2.1238	1.8182	0.1	5288.8
22578	2.0315	2.0909	0.1	5276.1
22579	2.1238	2.	0.1	5263.1
22580	2.0315	2.2727	0.1	5261.2
22581	2.1238	2.1818	0.1	5243.8
22582	2.0315	2.4545	0.1	5250.8
22583	2.1238	2.3636	0.1	5229.7
22584	2.0315	2.6364	0.1	5244.1
22585	2.1238	2.5455	0.1	5219.9
22586	2.0315	2.8182	0.1	5240.3
22587	2.1238	2.7273	0.1	5213.8
22588	2.0315	3.	0.1	5239.1
22589	2.1238	2.9091	0.1	5210.9
22590	2.0315	3.1818	0.1	5240.3
22591	2.1238	3.0909	0.1	5210.9
22592	2.0315	3.3636	0.1	5244.1
22593	2.1238	3.2727	0.1	5213.8
22594	2.0315	3.5455	0.1	5250.8
22595	2.1238	3.4545	0.1	5219.9
22596	2.0315	3.7273	0.1	5261.2
22597	2.1238	3.6364	0.1	5229.7
22598	2.0315	3.9091	0.1	5276.1
22599	2.1238	3.8182	0.1	5243.8
22600	2.0315	4.0909	0.1	5296.7
22601	2.1238	4.	0.1	5263.1
22602	2.0315	4.2727	0.1	5324.1
22603	2.1238	4.1818	0.1	5288.8
22604	2.0315	4.4545	0.1	5359.6
22605	2.1238	4.3636	0.1	5321.8
22606	2.0315	4.6364	0.1	5404.4
22607	2.1238	4.5455	0.1	5363.2
22608	2.0315	4.8182	0.1	5459.3
22609	2.1238	4.7273	0.1	5413.9
22610	2.0315	5.	0.1	5524.8
22611	2.1238	4.9091	0.1	5474.3
22612	2.0315	5.1818	0.1	5600.5
22613	2.1238	5.0909	0.1	5544.3
22614	2.0315	5.3636	0.1	5685.7
22615	2.1238	5.2727	0.1	5623.5
22616	2.0315	5.5455	0.1	5779.3
22617	2.1238	5.4545	0.1	5710.5
22618	2.0315	5.7273	0.1	5886.
22619	2.1238	5.6364	0.1	5804.8
22620	2.1238	5.8182	0.1	5915.7
22621	2.0315	5.9091	0.1	5942.3
22622	2.2161	0.27273	0.1	5834.2
22623	2.3085	0.18182	0.1	5856.7
22624	2.2161	9.0909e-002	0.1	5890.
22625	2.2161	0.45455	0.1	5735.8
22626	2.3085	0.36364	0.1	5755.2
22627	2.2161	0.63636	0.1	5648.
22628	2.3085	0.54545	0.1	5667.4
22629	2.2161	0.81818	0.1	5567.
22630	2.3085	0.72727	0.1	5585.3
22631	2.2161	1.	0.1	5493.5
22632	2.3085	0.90909	0.1	5509.7
22633	2.2161	1.1818	0.1	5428.5
22634	2.3085	1.0909	0.1	5441.4
22635	2.2161	1.3636	0.1	5372.4
22636	2.3085	1.2727	0.1	5381.2
22637	2.2161	1.5455	0.1	5325.1
22638	2.3085	1.4545	0.1	5329.4
22639	2.2161	1.7273	0.1	5286.2
22640	2.3085	1.6364	0.1	5285.7
22641	2.2161	1.9091	0.1	5255.
22642	2.3085	1.8182	0.1	5249.8
22643	2.2161	2.0909	0.1	5230.6
22644	2.3085	2.	0.1	5220.9
22645	2.2161	2.2727	0.1	5212.
22646	2.3085	2.1818	0.1	5198.4
22647	2.2161	2.4545	0.1	5198.6
22648	2.3085	2.3636	0.1	5181.4
22649	2.2161	2.6364	0.1	5189.5
22650	2.3085	2.5455	0.1	5169.3
22651	2.2161	2.8182	0.1	5184.3
22652	2.3085	2.7273	0.1	5161.6
22653	2.2161	3.	0.1	5182.6
22654	2.3085	2.9091	0.1	5157.8
22655	2.2161	3.1818	0.1	5184.3
22656	2.3085	3.0909	0.1	5157.8
22657	2.2161	3.3636	0.1	5189.5
22658	2.3085	3.2727	0.1	5161.6
22659	2.2161	3.5455	0.1	5198.6
22660	2.3085	3.4545	0.1	5169.3
22661	2.2161	3.7273	0.1	5212.
22662	2.3085	3.6364	0.1	5181.4
22663	2.2161	3.9091	0.1	5230.6
22664	2.3085	3.8182	0.1	5198.4
22665	2.2161	4.0909	0.1	5255.
22666	2.3085	4.	0.1	5220.9
22667	2.2161	4.2727	0.1	5286.2
22668	2.3085	4.1818	0.1	5249.8
22669	2.2161	4.4545	0.1	5325.1
22670	2.3085	4.3636	0.1	5285.7
22671	2.2161	4.6364	0.1	5372.4
22672	2.3085	4.5455	0.1	5329.4
22673	2.2161	4.8182	0.1	5428.5
22674	2.3085	4.7273	0.1	5381.2
22675	2.2161	5.	0.1	5493.5
22676	2.3085	4.9091	0.1	5441.4
22677	2.2161	5.1818	0.1	5567.
22678	2.3085	5.0909	0.1	5509.7
22679	2.2161	5.3636	0.1	5648.
22680	2.3085	5.2727	0.1	5585.3
22681	2.2161	5.5455	0.1	5735.8
22682	2.3085	5.4545	0.1	5667.4
22683	2.2161	5.7273	0.1	5834.2
22684	2.3085	5.6364	0.1	5755.2
22685	2.3085	5.8182	0.1	5856.7
22686	2.2161	5.9091	0.1	5890.
22687	2.4008	0.27273	0.1	5777.5
22688	2.4931	0.18182	0.1	5794.
22689	2.4008	9.0909e-002	0.1	5832.4
22690	2.4008	0.45455	0.1	5686.6
22691	2.4931	0.36364	0.1	5701.
22692	2.4008	0.63636	0.1	5604.5
22693	2.4931	0.54545	0.1	5619.2
22694	2.4008	0.81818	0.1	5527.8
22695	2.4931	0.72727	0.1	5542.1
22696	2.4008	1.	0.1	5457.3
22697	2.4931	0.90909	0.1	5470.2
22698	2.4008	1.1818	0.1	5393.8
22699	2.4931	1.0909	0.1	5404.5
22700	2.4008	1.3636	0.1	5337.9
22701	2.4931	1.2727	0.1	5345.6
22702	2.4008	1.5455	0.1	5289.7
22703	2.4931	1.4545	0.1	5293.8
22704	2.4008	1.7273	0.1	5249.
22705	2.4931	1.6364	0.1	5249.3
22706	2.4008	1.9091	0.1	5215.5
22707	2.4931	1.8182	0.1	5211.9
22708	2.4008	2.0909	0.1	5188.5
22709	2.4931	2.	0.1	5181.1
22710	2.4008	2.2727	0.1	5167.5
22711	2.4931	2.1818	0.1	5156.5
22712	2.4008	2.4545	0.1	5151.9
22713	2.4931	2.3636	0.1	5137.6
22714	2.4008	2.6364	0.1	5141.2
22715	2.4931	2.5455	0.1	5123.9
22716	2.4008	2.8182	0.1	5134.9
22717	2.4931	2.7273	0.1	5115.
22718	2.4008	3.	0.1	5132.9
22719	2.4931	2.9091	0.1	5110.7
22720	2.4008	3.1818	0.1	5134.9
22721	2.4931	3.0909	0.1	5110.7
22722	2.4008	3.3636	0.1	5141.2
22723	2.4931	3.2727	0.1	5115.
22724	2.4008	3.5455	0.1	5151.9
22725	2.4931	3.4545	0.1	5123.9
22726	2.4008	3.7273	0.1	5167.5
22727	2.4931	3.6364	0.1	5137.6
22728	2.4008	3.9091	0.1	5188.5
22729	2.4931	3.8182	0.1	5156.5
22730	2.4008	4.0909	0.1	5215.5
22731	2.4931	4.	0.1	5181.1
22732	2.4008	4.2727	0.1	5249.
22733	2.4931	4.1818	0.1	5211.9
22734	2.4008	4.4545	0.1	5289.7
22735	2.4931	4.3636	0.1	5249.3
22736	2.4008	4.6364	0.1	5337.9
22737	2.4931	4.5455	0.1	5293.8
22738	2.4008	4.8182	0.1	5393.8
22739	2.4931	4.7273	0.1	5345.6
22740	2.4008	5.	0.1	5457.3
22741	2.4931	4.9091	0.1	5404.5
22742	2.4008	5.1818	0.1	5527.8
22743	2.4931	5.0909	0.1	5470.2
22744	2.4008	5.3636	0.1	5604.5
22745	2.4931	5.2727	0.1	5542.1
22746	2.4008	5.5455	0.1	5686.6
22747	2.4931	5.4545	0.1	5619.2
22748	2.4008	5.7273	0.1	5777.5
22749	2.4931	5.6364	0.1	5701.
22750	2.4931	5.8182	0.1	5794.
22751	2.4008	5.9091	0.1	5832.4
22752	2.5855	0.27273	0.1	5717.4
22753	2.6778	0.18182	0.1	5729.
22754	2.5855	9.0909e-002	0.1	5771.1
22755	2.5855	0.45455	0.1	5633.4
22756	2.6778	0.36364	0.1	5643.6
22757	2.5855	0.63636	0.1	5556.6
22758	2.6778	0.54545	0.1	5567.4
22759	2.5855	0.81818	0.1	5484.3
22760	2.6778	0.72727	0.1	5495.1
22761	2.5855	1.	0.1	5417.2
22762	2.6778	0.90909	0.1	5427.2
22763	2.5855	1.1818	0.1	5356.
22764	2.6778	1.0909	0.1	5364.4
22765	2.5855	1.3636	0.1	5301.2
22766	2.6778	1.2727	0.1	5307.4
22767	2.5855	1.5455	0.1	5253.2
22768	2.6778	1.4545	0.1	5256.7
22769	2.5855	1.7273	0.1	5212.
22770	2.6778	1.6364	0.1	5212.4
22771	2.5855	1.9091	0.1	5177.3
22772	2.6778	1.8182	0.1	5174.5
22773	2.5855	2.0909	0.1	5148.9
22774	2.6778	2.	0.1	5142.8
22775	2.5855	2.2727	0.1	5126.4
22776	2.6778	2.1818	0.1	5117.1
22777	2.5855	2.4545	0.1	5109.5
22778	2.6778	2.3636	0.1	5097.1
22779	2.5855	2.6364	0.1	5097.6
22780	2.6778	2.5455	0.1	5082.4
22781	2.5855	2.8182	0.1	5090.7
22782	2.6778	2.7273	0.1	5072.8
22783	2.5855	3.	0.1	5088.4
22784	2.6778	2.9091	0.1	5068.1
22785	2.5855	3.1818	0.1	5090.7
22786	2.6778	3.0909	0.1	5068.1
22787	2.5855	3.3636	0.1	5097.6
22788	2.6778	3.2727	0.1	5072.8
22789	2.5855	3.5455	0.1	5109.5
22790	2.6778	3.4545	0.1	5082.4
22791	2.5855	3.7273	0.1	5126.4
22792	2.6778	3.6364	0.1	5097.1
22793	2.5855	3.9091	0.1	5148.9
22794	2.6778	3.8182	0.1	5117.1
22795	2.5855	4.0909	0.1	5177.3
22796	2.6778	4.	0.1	5142.8
22797	2.5855	4.2727	0.1	5212.
22798	2.6778	4.1818	0.1	5174.5
22799	2.5855	4.4545	0.1	5253.2
22800	2.6778	4.3636	0.1	5212.4
22801	2.5855	4.6364	0.1	5301.2
22802	2.6778	4.5455	0.1	5256.7
22803	2.5855	4.8182	0.1	5356.
22804	2.6778	4.7273	0.1	5307.4
22805	2.5855	5.	0.1	5417.2
22806	2.6778	4.9091	0.1	5364.4
22807	2.5855	5.1818	0.1	5484.3
22808	2.6778	5.0909	0.1	5427.2
22809	2.5855	5.3636	0.1	5556.6
22810	2.6778	5.2727	0.1	5495.1
22811	2.5855	5.5455	0.1	5633.4
22812	2.6778	5.4545	0.1	5567.4
22813	2.5855	5.7273	0.1	5717.4
22814	2.6778	5.6364	0.1	5643.6
22815	2.6778	5.8182	0.1	5729.
22816	2.5855	5.9091	0.1	5771.1
22817	2.7702	0.27273	0.1	5655.1
22818	2.8625	0.18182	0.1	5662.5
22819	2.7702	9.0909e-002	0.1	5707.4
22820	2.7702	0.45455	0.1	5577.4
22821	2.8625	0.36364	0.1	5584.
22822	2.7702	0.63636	0.1	5505.7
22823	2.8625	0.54545	0.1	5513.1
22824	2.7702	0.81818	0.1	5437.8
22825	2.8625	0.72727	0.1	5445.4
22826	2.7702	1.	0.1	5374.2
22827	2.8625	0.90909	0.1	5381.4
22828	2.7702	1.1818	0.1	5315.7
22829	2.8625	1.0909	0.1	5321.9
22830	2.7702	1.3636	0.1	5262.7
22831	2.8625	1.2727	0.1	5267.3
22832	2.7702	1.5455	0.1	5215.7
22833	2.8625	1.4545	0.1	5218.2
22834	2.7702	1.7273	0.1	5174.7
22835	2.8625	1.6364	0.1	5174.8
22836	2.7702	1.9091	0.1	5139.9
22837	2.8625	1.8182	0.1	5137.2
22838	2.7702	2.0909	0.1	5110.9
22839	2.8625	2.	0.1	5105.5
22840	2.7702	2.2727	0.1	5087.7
22841	2.8625	2.1818	0.1	5079.4
22842	2.7702	2.4545	0.1	5070.
22843	2.8625	2.3636	0.1	5058.9
22844	2.7702	2.6364	0.1	5057.5
22845	2.8625	2.5455	0.1	5043.7
22846	2.7702	2.8182	0.1	5050.1
22847	2.8625	2.7273	0.1	5033.7
22848	2.7702	3.	0.1	5047.7
22849	2.8625	2.9091	0.1	5028.8
22850	2.7702	3.1818	0.1	5050.1
22851	2.8625	3.0909	0.1	5028.8
22852	2.7702	3.3636	0.1	5057.5
22853	2.8625	3.2727	0.1	5033.7
22854	2.7702	3.5455	0.1	5070.
22855	2.8625	3.4545	0.1	5043.7
22856	2.7702	3.7273	0.1	5087.7
22857	2.8625	3.6364	0.1	5058.9
22858	2.7702	3.9091	0.1	5110.9
22859	2.8625	3.8182	0.1	5079.4
22860	2.7702	4.0909	0.1	5139.9
22861	2.8625	4.	0.1	5105.5
22862	2.7702	4.2727	0.1	5174.7
22863	2.8625	4.1818	0.1	5137.2
22864	2.7702	4.4545	0.1	5215.7
22865	2.8625	4.3636	0.1	5174.8
22866	2.7702	4.6364	0.1	5262.7
22867	2.8625	4.5455	0.1	5218.2
22868	2.7702	4.8182	0.1	5315.7
22869	2.8625	4.7273	0.1	5267.3
22870	2.7702	5.	0.1	5374.2
22871	2.8625	4.9091	0.1	5321.9
22872	2.7702	5.1818	0.1	5437.8
22873	2.8625	5.0909	0.1	5381.4
22874	2.7702	5.3636	0.1	5505.7
22875	2.8625	5.2727	0.1	5445.4
22876	2.7702	5.5455	0.1	5577.4
22877	2.8625	5.4545	0.1	5513.1
22878	2.7702	5.7273	0.1	5655.1
22879	2.8625	5.6364	0.1	5584.
22880	2.8625	5.8182	0.1	5662.5
22881	2.7702	5.9091	0.1	5707.4
22882	2.9548	0.27273	0.1	5591.4
22883	3.0472	0.18182	0.1	5595.3
22884	2.9548	9.0909e-002	0.1	5642.
22885	2.9548	0.45455	0.1	5519.6
22886	3.0472	0.36364	0.1	5523.1
22887	2.9548	0.63636	0.1	5452.7
22888	3.0472	0.54545	0.1	5457.
22889	2.9548	0.81818	0.1	5389.
22890	3.0472	0.72727	0.1	5393.8
22891	2.9548	1.	0.1	5329.
22892	3.0472	0.90909	0.1	5333.7
22893	2.9548	1.1818	0.1	5273.4
22894	3.0472	1.0909	0.1	5277.5
22895	2.9548	1.3636	0.1	5222.7
22896	3.0472	1.2727	0.1	5225.6
22897	2.9548	1.5455	0.1	5177.2
22898	3.0472	1.4545	0.1	5178.5
22899	2.9548	1.7273	0.1	5137.2
22900	3.0472	1.6364	0.1	5136.5
22901	2.9548	1.9091	0.1	5102.7
22902	3.0472	1.8182	0.1	5099.9
22903	2.9548	2.0909	0.1	5073.9
22904	3.0472	2.	0.1	5068.6
22905	2.9548	2.2727	0.1	5050.6
22906	3.0472	2.1818	0.1	5042.7
22907	2.9548	2.4545	0.1	5032.6
22908	3.0472	2.3636	0.1	5022.2
22909	2.9548	2.6364	0.1	5019.9
22910	3.0472	2.5455	0.1	5006.9
22911	2.9548	2.8182	0.1	5012.3
22912	3.0472	2.7273	0.1	4996.8
22913	2.9548	3.	0.1	5009.8
22914	3.0472	2.9091	0.1	4991.8
22915	2.9548	3.1818	0.1	5012.3
22916	3.0472	3.0909	0.1	4991.8
22917	2.9548	3.3636	0.1	5019.9
22918	3.0472	3.2727	0.1	4996.8
22919	2.9548	3.5455	0.1	5032.6
22920	3.0472	3.4545	0.1	5006.9
22921	2.9548	3.7273	0.1	5050.6
22922	3.0472	3.6364	0.1	5022.2
22923	2.9548	3.9091	0.1	5073.9
22924	3.0472	3.8182	0.1	5042.7
22925	2.9548	4.0909	0.1	5102.7
22926	3.0472	4.	0.1	5068.6
22927	2.9548	4.2727	0.1	5137.2
22928	3.0472	4.1818	0.1	5099.9
22929	2.9548	4.4545	0.1	5177.2
22930	3.0472	4.3636	0.1	5136.5
22931	2.9548	4.6364	0.1	5222.7
22932	3.0472	4.5455	0.1	5178.5
22933	2.9548	4.8182	0.1	5273.4
22934	3.0472	4.7273	0.1	5225.6
22935	2.9548	5.	0.1	5329.
22936	3.0472	4.9091	0.1	5277.5
22937	2.9548	5.1818	0.1	5389.
22938	3.0472	5.0909	0.1	5333.7
22939	2.9548	5.3636	0.1	5452.7
22940	3.0472	5.2727	0.1	5393.8
22941	2.9548	5.5455	0.1	5519.6
22942	3.0472	5.4545	0.1	5457.
22943	2.9548	5.7273	0.1	5591.4
22944	3.0472	5.6364	0.1	5523.1
22945	3.0472	5.8182	0.1	5595.3
22946	2.9548	5.9091	0.1	5642.
22947	3.1395	0.27273	0.1	5526.9
22948	3.2319	0.18182	0.1	5527.7
22949	3.1395	9.0909e-002	0.1	5575.7
22950	3.1395	0.45455	0.1	5460.5
22951	3.2319	0.36364	0.1	5461.3
22952	3.1395	0.63636	0.1	5398.1
22953	3.2319	0.54545	0.1	5399.8
22954	3.1395	0.81818	0.1	5338.5
22955	3.2319	0.72727	0.1	5340.8
22956	3.1395	1.	0.1	5282.2
22957	3.2319	0.90909	0.1	5284.6
22958	3.1395	1.1818	0.1	5229.6
22959	3.2319	1.0909	0.1	5231.7
22960	3.1395	1.3636	0.1	5181.3
22961	3.2319	1.2727	0.1	5182.6
22962	3.1395	1.5455	0.1	5137.8
22963	3.2319	1.4545	0.1	5137.7
22964	3.1395	1.7273	0.1	5099.1
22965	3.2319	1.6364	0.1	5097.5
22966	3.1395	1.9091	0.1	5065.7
22967	3.2319	1.8182	0.1	5062.2
22968	3.1395	2.0909	0.1	5037.4
22969	3.2319	2.	0.1	5031.8
22970	3.1395	2.2727	0.1	5014.3
22971	3.2319	2.1818	0.1	5006.6
22972	3.1395	2.4545	0.1	4996.5
22973	3.2319	2.3636	0.1	4986.4
22974	3.1395	2.6364	0.1	4983.8
22975	3.2319	2.5455	0.1	4971.3
22976	3.1395	2.8182	0.1	4976.2
22977	3.2319	2.7273	0.1	4961.3
22978	3.1395	3.	0.1	4973.7
22979	3.2319	2.9091	0.1	4956.3
22980	3.1395	3.1818	0.1	4976.2
22981	3.2319	3.0909	0.1	4956.3
22982	3.1395	3.3636	0.1	4983.8
22983	3.2319	3.2727	0.1	4961.3
22984	3.1395	3.5455	0.1	4996.5
22985	3.2319	3.4545	0.1	4971.3
22986	3.1395	3.7273	0.1	5014.3
22987	3.2319	3.6364	0.1	4986.4
22988	3.1395	3.9091	0.1	5037.4
22989	3.2319	3.8182	0.1	5006.6
22990	3.1395	4.0909	0.1	5065.7
22991	3.2319	4.	0.1	5031.8
22992	3.1395	4.2727	0.1	5099.1
22993	3.2319	4.1818	0.1	5062.2
22994	3.1395	4.4545	0.1	5137.8
22995	3.2319	4.3636	0.1	5097.5
22996	3.1395	4.6364	0.1	5181.3
22997	3.2319	4.5455	0.1	5137.7
22998	3.1395	4.8182	0.1	5229.6
22999	3.2319	4.7273	0.1	5182.6
23000	3.1395	5.	0.1	5282.2
23001	3.2319	4.9091	0.1	5231.7
23002	3.1395	5.1818	0.1	5338.5
23003	3.2319	5.0909	0.1	5284.6
23004	3.1395	5.3636	0.1	5398.1
23005	3.2319	5.2727	0.1	5340.8
23006	3.1395	5.5455	0.1	5460.5
23007	3.2319	5.4545	0.1	5399.8
23008	3.1395	5.7273	0.1	5526.9
23009	3.2319	5.6364	0.1	5461.3
23010	3.2319	5.8182	0.1	5527.7
23011	3.1395	5.9091	0.1	5575.7
23012	3.3242	0.27273	0.1	5462.1
23013	3.4165	0.18182	0.1	5460.3
23014	3.3242	9.0909e-002	0.1	5508.9
23015	3.3242	0.45455	0.1	5400.6
23016	3.4165	0.36364	0.1	5399.
23017	3.3242	0.63636	0.1	5342.5
23018	3.4165	0.54545	0.1	5341.9
23019	3.3242	0.81818	0.1	5286.9
23020	3.4165	0.72727	0.1	5286.9
23021	3.3242	1.	0.1	5234.
23022	3.4165	0.90909	0.1	5234.4
23023	3.3242	1.1818	0.1	5184.6
23024	3.4165	1.0909	0.1	5184.7
23025	3.3242	1.3636	0.1	5138.9
23026	3.4165	1.2727	0.1	5138.5
23027	3.3242	1.5455	0.1	5097.5
23028	3.4165	1.4545	0.1	5096.1
23029	3.3242	1.7273	0.1	5060.5
23030	3.4165	1.6364	0.1	5057.9
23031	3.3242	1.9091	0.1	5028.3
23032	3.4165	1.8182	0.1	5024.1
23033	3.3242	2.0909	0.1	5001.
23034	3.4165	2.	0.1	4994.9
23035	3.3242	2.2727	0.1	4978.6
23036	3.4165	2.1818	0.1	4970.5
23037	3.3242	2.4545	0.1	4961.2
23038	3.4165	2.3636	0.1	4951.
23039	3.3242	2.6364	0.1	4948.7
23040	3.4165	2.5455	0.1	4936.3
23041	3.3242	2.8182	0.1	4941.3
23042	3.4165	2.7273	0.1	4926.5
23043	3.3242	3.	0.1	4938.8
23044	3.4165	2.9091	0.1	4921.6
23045	3.3242	3.1818	0.1	4941.3
23046	3.4165	3.0909	0.1	4921.6
23047	3.3242	3.3636	0.1	4948.7
23048	3.4165	3.2727	0.1	4926.5
23049	3.3242	3.5455	0.1	4961.2
23050	3.4165	3.4545	0.1	4936.3
23051	3.3242	3.7273	0.1	4978.6
23052	3.4165	3.6364	0.1	4951.
23053	3.3242	3.9091	0.1	5001.
23054	3.4165	3.8182	0.1	4970.5
23055	3.3242	4.0909	0.1	5028.3
23056	3.4165	4.	0.1	4994.9
23057	3.3242	4.2727	0.1	5060.5
23058	3.4165	4.1818	0.1	5024.1
23059	3.3242	4.4545	0.1	5097.5
23060	3.4165	4.3636	0.1	5057.9
23061	3.3242	4.6364	0.1	5138.9
23062	3.4165	4.5455	0.1	5096.1
23063	3.3242	4.8182	0.1	5184.6
23064	3.4165	4.7273	0.1	5138.5
23065	3.3242	5.	0.1	5234.
23066	3.4165	4.9091	0.1	5184.7
23067	3.3242	5.1818	0.1	5286.9
23068	3.4165	5.0909	0.1	5234.4
23069	3.3242	5.3636	0.1	5342.5
23070	3.4165	5.2727	0.1	5286.9
23071	3.3242	5.5455	0.1	5400.6
23072	3.4165	5.4545	0.1	5341.9
23073	3.3242	5.7273	0.1	5462.1
23074	3.4165	5.6364	0.1	5399.
23075	3.4165	5.8182	0.1	5460.3
23076	3.3242	5.9091	0.1	5508.9
23077	3.5089	0.27273	0.1	5397.2
23078	3.6012	0.18182	0.1	5393.1
23079	3.5089	9.0909e-002	0.1	5441.9
23080	3.5089	0.45455	0.1	5340.3
23081	3.6012	0.36364	0.1	5336.7
23082	3.5089	0.63636	0.1	5286.3
23083	3.6012	0.54545	0.1	5283.6
23084	3.5089	0.81818	0.1	5234.4
23085	3.6012	0.72727	0.1	5232.4
23086	3.5089	1.	0.1	5185.
23087	3.6012	0.90909	0.1	5183.3
23088	3.5089	1.1818	0.1	5138.6
23089	3.6012	1.0909	0.1	5136.9
23090	3.5089	1.3636	0.1	5095.6
23091	3.6012	1.2727	0.1	5093.5
23092	3.5089	1.5455	0.1	5056.4
23093	3.6012	1.4545	0.1	5053.6
23094	3.5089	1.7273	0.1	5021.3
23095	3.6012	1.6364	0.1	5017.5
23096	3.5089	1.9091	0.1	4990.6
23097	3.6012	1.8182	0.1	4985.4
23098	3.5089	2.0909	0.1	4964.4
23099	3.6012	2.	0.1	4957.6
23100	3.5089	2.2727	0.1	4942.9
23101	3.6012	2.1818	0.1	4934.3
23102	3.5089	2.4545	0.1	4926.1
23103	3.6012	2.3636	0.1	4915.5
23104	3.5089	2.6364	0.1	4914.
23105	3.6012	2.5455	0.1	4901.4
23106	3.5089	2.8182	0.1	4906.8
23107	3.6012	2.7273	0.1	4892.
23108	3.5089	3.	0.1	4904.4
23109	3.6012	2.9091	0.1	4887.3
23110	3.5089	3.1818	0.1	4906.8
23111	3.6012	3.0909	0.1	4887.3
23112	3.5089	3.3636	0.1	4914.
23113	3.6012	3.2727	0.1	4892.
23114	3.5089	3.5455	0.1	4926.1
23115	3.6012	3.4545	0.1	4901.4
23116	3.5089	3.7273	0.1	4942.9
23117	3.6012	3.6364	0.1	4915.5
23118	3.5089	3.9091	0.1	4964.4
23119	3.6012	3.8182	0.1	4934.3
23120	3.5089	4.0909	0.1	4990.6
23121	3.6012	4.	0.1	4957.6
23122	3.5089	4.2727	0.1	5021.3
23123	3.6012	4.1818	0.1	4985.4
23124	3.5089	4.4545	0.1	5056.4
23125	3.6012	4.3636	0.1	5017.5
23126	3.5089	4.6364	0.1	5095.6
23127	3.6012	4.5455	0.1	5053.6
23128	3.5089	4.8182	0.1	5138.6
23129	3.6012	4.7273	0.1	5093.5
23130	3.5089	5.	0.1	5185.
23131	3.6012	4.9091	0.1	5136.9
23132	3.5089	5.1818	0.1	5234.4
23133	3.6012	5.0909	0.1	5183.3
23134	3.5089	5.3636	0.1	5286.3
23135	3.6012	5.2727	0.1	5232.4
23136	3.5089	5.5455	0.1	5340.3
23137	3.6012	5.4545	0.1	5283.6
23138	3.5089	5.7273	0.1	5397.2
23139	3.6012	5.6364	0.1	5336.7
23140	3.6012	5.8182	0.1	5393.1
23141	3.5089	5.9091	0.1	5441.9
23142	3.6935	0.27273	0.1	5332.6
23143	3.7859	0.18182	0.1	5326.5
23144	3.6935	9.0909e-002	0.1	5375.2
23145	3.6935	0.45455	0.1	5279.9
23146	3.7859	0.36364	0.1	5274.4
23147	3.6935	0.63636	0.1	5229.7
23148	3.7859	0.54545	0.1	5225.1
23149	3.6935	0.81818	0.1	5181.3
23150	3.7859	0.72727	0.1	5177.4
23151	3.6935	1.	0.1	5135.2
23152	3.7859	0.90909	0.1	5131.7
23153	3.6935	1.1818	0.1	5091.8
23154	3.7859	1.0909	0.1	5088.4
23155	3.6935	1.3636	0.1	5051.5
23156	3.7859	1.2727	0.1	5047.8
23157	3.6935	1.5455	0.1	5014.6
23158	3.7859	1.4545	0.1	5010.3
23159	3.6935	1.7273	0.1	4981.5
23160	3.7859	1.6364	0.1	4976.4
23161	3.6935	1.9091	0.1	4952.4
23162	3.7859	1.8182	0.1	4946.1
23163	3.6935	2.0909	0.1	4927.5
23164	3.7859	2.	0.1	4919.8
23165	3.6935	2.2727	0.1	4906.9
23166	3.7859	2.1818	0.1	4897.7
23167	3.6935	2.4545	0.1	4890.9
23168	3.7859	2.3636	0.1	4879.8
23169	3.6935	2.6364	0.1	4879.4
23170	3.7859	2.5455	0.1	4866.4
23171	3.6935	2.8182	0.1	4872.4
23172	3.7859	2.7273	0.1	4857.4
23173	3.6935	3.	0.1	4870.1
23174	3.7859	2.9091	0.1	4852.9
23175	3.6935	3.1818	0.1	4872.4
23176	3.7859	3.0909	0.1	4852.9
23177	3.6935	3.3636	0.1	4879.4
23178	3.7859	3.2727	0.1	4857.4
23179	3.6935	3.5455	0.1	4890.9
23180	3.7859	3.4545	0.1	4866.4
23181	3.6935	3.7273	0.1	4906.9
23182	3.7859	3.6364	0.1	4879.8
23183	3.6935	3.9091	0.1	4927.5
23184	3.7859	3.8182	0.1	4897.7
23185	3.6935	4.0909	0.1	4952.4
23186	3.7859	4.	0.1	4919.8
23187	3.6935	4.2727	0.1	4981.5
23188	3.7859	4.1818	0.1	4946.1
23189	3.6935	4.4545	0.1	5014.6
23190	3.7859	4.3636	0.1	4976.4
23191	3.6935	4.6364	0.1	5051.5
23192	3.7859	4.5455	0.1	5010.3
23193	3.6935	4.8182	0.1	5091.8
23194	3.7859	4.7273	0.1	5047.8
23195	3.6935	5.	0.1	5135.2
23196	3.7859	4.9091	0.1	5088.4
23197	3.6935	5.1818	0.1	5181.3
23198	3.7859	5.0909	0.1	5131.7
23199	3.6935	5.3636	0.1	5229.7
23200	3.7859	5.2727	0.1	5177.4
23201	3.6935	5.5455	0.1	5279.9
23202	3.7859	5.4545	0.1	5225.1
23203	3.6935	5.7273	0.1	5332.6
23204	3.7859	5.6364	0.1	5274.4
23205	3.7859	5.8182	0.1	5326.5
23206	3.6935	5.9091	0.1	5375.2
23207	3.8782	0.27273	0.1	5268.2
23208	3.9706	0.18182	0.1	5260.4
23209	3.8782	9.0909e-002	0.1	5308.7
23210	3.8782	0.45455	0.1	5219.5
23211	3.9706	0.36364	0.1	5212.3
23212	3.8782	0.63636	0.1	5172.8
23213	3.9706	0.54545	0.1	5166.5
23214	3.8782	0.81818	0.1	5127.8
23215	3.9706	0.72727	0.1	5122.3
23216	3.8782	1.	0.1	5084.9
23217	3.9706	0.90909	0.1	5079.7
23218	3.8782	1.1818	0.1	5044.4
23219	3.9706	1.0909	0.1	5039.3
23220	3.8782	1.3636	0.1	5006.7
23221	3.9706	1.2727	0.1	5001.5
23222	3.8782	1.5455	0.1	4972.1
23223	3.9706	1.4545	0.1	4966.4
23224	3.8782	1.7273	0.1	4941.
23225	3.9706	1.6364	0.1	4934.6
23226	3.8782	1.9091	0.1	4913.5
23227	3.9706	1.8182	0.1	4906.1
23228	3.8782	2.0909	0.1	4890.
23229	3.9706	2.	0.1	4881.4
23230	3.8782	2.2727	0.1	4870.6
23231	3.9706	2.1818	0.1	4860.5
23232	3.8782	2.4545	0.1	4855.3
23233	3.9706	2.3636	0.1	4843.7
23234	3.8782	2.6364	0.1	4844.4
23235	3.9706	2.5455	0.1	4830.9
23236	3.8782	2.8182	0.1	4837.8
23237	3.9706	2.7273	0.1	4822.4
23238	3.8782	3.	0.1	4835.6
23239	3.9706	2.9091	0.1	4818.1
23240	3.8782	3.1818	0.1	4837.8
23241	3.9706	3.0909	0.1	4818.1
23242	3.8782	3.3636	0.1	4844.4
23243	3.9706	3.2727	0.1	4822.4
23244	3.8782	3.5455	0.1	4855.3
23245	3.9706	3.4545	0.1	4830.9
23246	3.8782	3.7273	0.1	4870.6
23247	3.9706	3.6364	0.1	4843.7
23248	3.8782	3.9091	0.1	4890.
23249	3.9706	3.8182	0.1	4860.5
23250	3.8782	4.0909	0.1	4913.5
23251	3.9706	4.	0.1	4881.4
23252	3.8782	4.2727	0.1	4941.
23253	3.9706	4.1818	0.1	4906.1
23254	3.8782	4.4545	0.1	4972.1
23255	3.9706	4.3636	0.1	4934.6
23256	3.8782	4.6364	0.1	5006.7
23257	3.9706	4.5455	0.1	4966.4
23258	3.8782	4.8182	0.1	5044.4
23259	3.9706	4.7273	0.1	5001.5
23260	3.8782	5.	0.1	5084.9
23261	3.9706	4.9091	0.1	5039.3
23262	3.8782	5.1818	0.1	5127.8
23263	3.9706	5.0909	0.1	5079.7
23264	3.8782	5.3636	0.1	5172.8
23265	3.9706	5.2727	0.1	5122.3
23266	3.8782	5.5455	0.1	5219.5
23267	3.9706	5.4545	0.1	5166.5
23268	3.8782	5.7273	0.1	5268.2
23269	3.9706	5.6364	0.1	5212.3
23270	3.9706	5.8182	0.1	5260.4
23271	3.8782	5.9091	0.1	5308.7
23272	4.0629	0.27273	0.1	5204.4
23273	4.1552	0.18182	0.1	5194.9
23274	4.0629	9.0909e-002	0.1	5242.6
23275	4.0629	0.45455	0.1	5159.3
23276	4.1552	0.36364	0.1	5150.5
23277	4.0629	0.63636	0.1	5115.9
23278	4.1552	0.54545	0.1	5108.1
23279	4.0629	0.81818	0.1	5074.1
23280	4.1552	0.72727	0.1	5067.
23281	4.0629	1.	0.1	5034.2
23282	4.1552	0.90909	0.1	5027.4
23283	4.0629	1.1818	0.1	4996.4
23284	4.1552	1.0909	0.1	4989.8
23285	4.0629	1.3636	0.1	4961.2
23286	4.1552	1.2727	0.1	4954.5
23287	4.0629	1.5455	0.1	4928.9
23288	4.1552	1.4545	0.1	4921.9
23289	4.0629	1.7273	0.1	4899.7
23290	4.1552	1.6364	0.1	4892.1
23291	4.0629	1.9091	0.1	4874.
23292	4.1552	1.8182	0.1	4865.5
23293	4.0629	2.0909	0.1	4851.9
23294	4.1552	2.	0.1	4842.3
23295	4.0629	2.2727	0.1	4833.6
23296	4.1552	2.1818	0.1	4822.7
23297	4.0629	2.4545	0.1	4819.2
23298	4.1552	2.3636	0.1	4806.8
23299	4.0629	2.6364	0.1	4808.9
23300	4.1552	2.5455	0.1	4794.8
23301	4.0629	2.8182	0.1	4802.7
23302	4.1552	2.7273	0.1	4786.8
23303	4.0629	3.	0.1	4800.6
23304	4.1552	2.9091	0.1	4782.8
23305	4.0629	3.1818	0.1	4802.7
23306	4.1552	3.0909	0.1	4782.8
23307	4.0629	3.3636	0.1	4808.9
23308	4.1552	3.2727	0.1	4786.8
23309	4.0629	3.5455	0.1	4819.2
23310	4.1552	3.4545	0.1	4794.8
23311	4.0629	3.7273	0.1	4833.6
23312	4.1552	3.6364	0.1	4806.8
23313	4.0629	3.9091	0.1	4851.9
23314	4.1552	3.8182	0.1	4822.7
23315	4.0629	4.0909	0.1	4874.
23316	4.1552	4.	0.1	4842.3
23317	4.0629	4.2727	0.1	4899.7
23318	4.1552	4.1818	0.1	4865.5
23319	4.0629	4.4545	0.1	4928.9
23320	4.1552	4.3636	0.1	4892.1
23321	4.0629	4.6364	0.1	4961.2
23322	4.1552	4.5455	0.1	4921.9
23323	4.0629	4.8182	0.1	4996.4
23324	4.1552	4.7273	0.1	4954.5
23325	4.0629	5.	0.1	5034.2
23326	4.1552	4.9091	0.1	4989.8
23327	4.0629	5.1818	0.1	5074.1
23328	4.1552	5.0909	0.1	5027.4
23329	4.0629	5.3636	0.1	5115.9
23330	4.1552	5.2727	0.1	5067.
23331	4.0629	5.5455	0.1	5159.3
23332	4.1552	5.4545	0.1	5108.1
23333	4.0629	5.7273	0.1	5204.4
23334	4.1552	5.6364	0.1	5150.5
23335	4.1552	5.8182	0.1	5194.9
23336	4.0629	5.9091	0.1	5242.6
23337	4.2476	0.27273	0.1	5141.
23338	4.3399	0.18182	0.1	5130.1
23339	4.2476	9.0909e-002	0.1	5177.1
23340	4.2476	0.45455	0.1	5099.3
23341	4.3399	0.36364	0.1	5089.2
23342	4.2476	0.63636	0.1	5059.1
23343	4.3399	0.54545	0.1	5049.8
23344	4.2476	0.81818	0.1	5020.2
23345	4.3399	0.72727	0.1	5011.6
23346	4.2476	1.	0.1	4983.1
23347	4.3399	0.90909	0.1	4974.9
23348	4.2476	1.1818	0.1	4948.
23349	4.3399	1.0909	0.1	4940.
23350	4.2476	1.3636	0.1	4915.2
23351	4.3399	1.2727	0.1	4907.2
23352	4.2476	1.5455	0.1	4885.1
23353	4.3399	1.4545	0.1	4876.7
23354	4.2476	1.7273	0.1	4857.9
23355	4.3399	1.6364	0.1	4849.
23356	4.2476	1.9091	0.1	4833.8
23357	4.3399	1.8182	0.1	4824.2
23358	4.2476	2.0909	0.1	4813.1
23359	4.3399	2.	0.1	4802.5
23360	4.2476	2.2727	0.1	4795.9
23361	4.3399	2.1818	0.1	4784.2
23362	4.2476	2.4545	0.1	4782.5
23363	4.3399	2.3636	0.1	4769.3
23364	4.2476	2.6364	0.1	4772.8
23365	4.3399	2.5455	0.1	4758.1
23366	4.2476	2.8182	0.1	4766.9
23367	4.3399	2.7273	0.1	4750.5
23368	4.2476	3.	0.1	4764.9
23369	4.3399	2.9091	0.1	4746.7
23370	4.2476	3.1818	0.1	4766.9
23371	4.3399	3.0909	0.1	4746.7
23372	4.2476	3.3636	0.1	4772.8
23373	4.3399	3.2727	0.1	4750.5
23374	4.2476	3.5455	0.1	4782.5
23375	4.3399	3.4545	0.1	4758.1
23376	4.2476	3.7273	0.1	4795.9
23377	4.3399	3.6364	0.1	4769.3
23378	4.2476	3.9091	0.1	4813.1
23379	4.3399	3.8182	0.1	4784.2
23380	4.2476	4.0909	0.1	4833.8
23381	4.3399	4.	0.1	4802.5
23382	4.2476	4.2727	0.1	4857.9
23383	4.3399	4.1818	0.1	4824.2
23384	4.2476	4.4545	0.1	4885.1
23385	4.3399	4.3636	0.1	4849.
23386	4.2476	4.6364	0.1	4915.2
23387	4.3399	4.5455	0.1	4876.7
23388	4.2476	4.8182	0.1	4948.
23389	4.3399	4.7273	0.1	4907.2
23390	4.2476	5.	0.1	4983.1
23391	4.3399	4.9091	0.1	4940.
23392	4.2476	5.1818	0.1	5020.2
23393	4.3399	5.0909	0.1	4974.9
23394	4.2476	5.3636	0.1	5059.1
23395	4.3399	5.2727	0.1	5011.6
23396	4.2476	5.5455	0.1	5099.3
23397	4.3399	5.4545	0.1	5049.8
23398	4.2476	5.7273	0.1	5141.
23399	4.3399	5.6364	0.1	5089.2
23400	4.3399	5.8182	0.1	5130.1
23401	4.2476	5.9091	0.1	5177.1
23402	4.4323	0.27273	0.1	5078.3
23403	4.5246	0.18182	0.1	5066.1
23404	4.4323	9.0909e-002	0.1	5112.1
23405	4.4323	0.45455	0.1	5039.6
23406	4.5246	0.36364	0.1	5028.2
23407	4.4323	0.63636	0.1	5002.3
23408	4.5246	0.54545	0.1	4991.7
23409	4.4323	0.81818	0.1	4966.3
23410	4.5246	0.72727	0.1	4956.3
23411	4.4323	1.	0.1	4931.8
23412	4.5246	0.90909	0.1	4922.2
23413	4.4323	1.1818	0.1	4899.2
23414	4.5246	1.0909	0.1	4889.8
23415	4.4323	1.3636	0.1	4868.7
23416	4.5246	1.2727	0.1	4859.3
23417	4.4323	1.5455	0.1	4840.6
23418	4.5246	1.4545	0.1	4831.
23419	4.4323	1.7273	0.1	4815.3
23420	4.5246	1.6364	0.1	4805.2
23421	4.4323	1.9091	0.1	4792.9
23422	4.5246	1.8182	0.1	4782.1
23423	4.4323	2.0909	0.1	4773.5
23424	4.5246	2.	0.1	4761.9
23425	4.4323	2.2727	0.1	4757.5
23426	4.5246	2.1818	0.1	4744.8
23427	4.4323	2.4545	0.1	4744.9
23428	4.5246	2.3636	0.1	4731.
23429	4.4323	2.6364	0.1	4735.8
23430	4.5246	2.5455	0.1	4720.5
23431	4.4323	2.8182	0.1	4730.4
23432	4.5246	2.7273	0.1	4713.4
23433	4.4323	3.	0.1	4728.5
23434	4.5246	2.9091	0.1	4709.9
23435	4.4323	3.1818	0.1	4730.4
23436	4.5246	3.0909	0.1	4709.9
23437	4.4323	3.3636	0.1	4735.8
23438	4.5246	3.2727	0.1	4713.4
23439	4.4323	3.5455	0.1	4744.9
23440	4.5246	3.4545	0.1	4720.5
23441	4.4323	3.7273	0.1	4757.5
23442	4.5246	3.6364	0.1	4731.
23443	4.4323	3.9091	0.1	4773.5
23444	4.5246	3.8182	0.1	4744.8
23445	4.4323	4.0909	0.1	4792.9
23446	4.5246	4.	0.1	4761.9
23447	4.4323	4.2727	0.1	4815.3
23448	4.5246	4.1818	0.1	4782.1
23449	4.4323	4.4545	0.1	4840.6
23450	4.5246	4.3636	0.1	4805.2
23451	4.4323	4.6364	0.1	4868.7
23452	4.5246	4.5455	0.1	4831.
23453	4.4323	4.8182	0.1	4899.2
23454	4.5246	4.7273	0.1	4859.3
23455	4.4323	5.	0.1	4931.8
23456	4.5246	4.9091	0.1	4889.8
23457	4.4323	5.1818	0.1	4966.3
23458	4.5246	5.0909	0.1	4922.2
23459	4.4323	5.3636	0.1	5002.3
23460	4.5246	5.2727	0.1	4956.3
23461	4.4323	5.5455	0.1	5039.6
23462	4.5246	5.4545	0.1	4991.7
23463	4.4323	5.7273	0.1	5078.3
23464	4.5246	5.6364	0.1	5028.2
23465	4.5246	5.8182	0.1	5066.1
23466	4.4323	5.9091	0.1	5112.1
23467	4.6169	0.27273	0.1	5016.
23468	4.7093	0.18182	0.1	5002.7
23469	4.6169	9.0909e-002	0.1	5047.8
23470	4.6169	0.45455	0.1	4980.3
23471	4.7093	0.36364	0.1	4967.7
23472	4.6169	0.63636	0.1	4945.7
23473	4.7093	0.54545	0.1	4933.8
23474	4.6169	0.81818	0.1	4912.2
23475	4.7093	0.72727	0.1	4901.
23476	4.6169	1.	0.1	4880.3
23477	4.7093	0.90909	0.1	4869.4
23478	4.6169	1.1818	0.1	4850.
23479	4.7093	1.0909	0.1	4839.4
23480	4.6169	1.3636	0.1	4821.7
23481	4.7093	1.2727	0.1	4811.1
23482	4.6169	1.5455	0.1	4795.6
23483	4.7093	1.4545	0.1	4784.8
23484	4.6169	1.7273	0.1	4772.1
23485	4.7093	1.6364	0.1	4760.9
23486	4.6169	1.9091	0.1	4751.2
23487	4.7093	1.8182	0.1	4739.4
23488	4.6169	2.0909	0.1	4733.2
23489	4.7093	2.	0.1	4720.6
23490	4.6169	2.2727	0.1	4718.3
23491	4.7093	2.1818	0.1	4704.7
23492	4.6169	2.4545	0.1	4706.5
23493	4.7093	2.3636	0.1	4691.8
23494	4.6169	2.6364	0.1	4698.1
23495	4.7093	2.5455	0.1	4682.
23496	4.6169	2.8182	0.1	4693.
23497	4.7093	2.7273	0.1	4675.5
23498	4.6169	3.	0.1	4691.2
23499	4.7093	2.9091	0.1	4672.2
23500	4.6169	3.1818	0.1	4693.
23501	4.7093	3.0909	0.1	4672.2
23502	4.6169	3.3636	0.1	4698.1
23503	4.7093	3.2727	0.1	4675.5
23504	4.6169	3.5455	0.1	4706.5
23505	4.7093	3.4545	0.1	4682.
23506	4.6169	3.7273	0.1	4718.3
23507	4.7093	3.6364	0.1	4691.8
23508	4.6169	3.9091	0.1	4733.2
23509	4.7093	3.8182	0.1	4704.7
23510	4.6169	4.0909	0.1	4751.2
23511	4.7093	4.	0.1	4720.6
23512	4.6169	4.2727	0.1	4772.1
23513	4.7093	4.1818	0.1	4739.4
23514	4.6169	4.4545	0.1	4795.6
23515	4.7093	4.3636	0.1	4760.9
23516	4.6169	4.6364	0.1	4821.7
23517	4.7093	4.5455	0.1	4784.8
23518	4.6169	4.8182	0.1	4850.
23519	4.7093	4.7273	0.1	4811.1
23520	4.6169	5.	0.1	4880.3
23521	4.7093	4.9091	0.1	4839.4
23522	4.6169	5.1818	0.1	4912.2
23523	4.7093	5.0909	0.1	4869.4
23524	4.6169	5.3636	0.1	4945.7
23525	4.7093	5.2727	0.1	4901.
23526	4.6169	5.5455	0.1	4980.3
23527	4.7093	5.4545	0.1	4933.8
23528	4.6169	5.7273	0.1	5016.
23529	4.7093	5.6364	0.1	4967.7
23530	4.7093	5.8182	0.1	5002.7
23531	4.6169	5.9091	0.1	5047.8
23532	4.8016	0.27273	0.1	4954.4
23533	4.894	0.18182	0.1	4940.
23534	4.8016	9.0909e-002	0.1	4984.
23535	4.8016	0.45455	0.1	4921.3
23536	4.894	0.36364	0.1	4907.6
23537	4.8016	0.63636	0.1	4889.2
23538	4.894	0.54545	0.1	4876.3
23539	4.8016	0.81818	0.1	4858.2
23540	4.894	0.72727	0.1	4845.8
23541	4.8016	1.	0.1	4828.6
23542	4.894	0.90909	0.1	4816.6
23543	4.8016	1.1818	0.1	4800.5
23544	4.894	1.0909	0.1	4788.7
23545	4.8016	1.3636	0.1	4774.2
23546	4.894	1.2727	0.1	4762.5
23547	4.8016	1.5455	0.1	4750.1
23548	4.894	1.4545	0.1	4738.1
23549	4.8016	1.7273	0.1	4728.2
23550	4.894	1.6364	0.1	4715.9
23551	4.8016	1.9091	0.1	4708.8
23552	4.894	1.8182	0.1	4696.
23553	4.8016	2.0909	0.1	4692.1
23554	4.894	2.	0.1	4678.6
23555	4.8016	2.2727	0.1	4678.2
23556	4.894	2.1818	0.1	4663.8
23557	4.8016	2.4545	0.1	4667.3
23558	4.894	2.3636	0.1	4651.8
23559	4.8016	2.6364	0.1	4659.4
23560	4.894	2.5455	0.1	4642.7
23561	4.8016	2.8182	0.1	4654.7
23562	4.894	2.7273	0.1	4636.6
23563	4.8016	3.	0.1	4653.1
23564	4.894	2.9091	0.1	4633.6
23565	4.8016	3.1818	0.1	4654.7
23566	4.894	3.0909	0.1	4633.6
23567	4.8016	3.3636	0.1	4659.4
23568	4.894	3.2727	0.1	4636.6
23569	4.8016	3.5455	0.1	4667.3
23570	4.894	3.4545	0.1	4642.7
23571	4.8016	3.7273	0.1	4678.2
23572	4.894	3.6364	0.1	4651.8
23573	4.8016	3.9091	0.1	4692.1
23574	4.894	3.8182	0.1	4663.8
23575	4.8016	4.0909	0.1	4708.8
23576	4.894	4.	0.1	4678.6
23577	4.8016	4.2727	0.1	4728.2
23578	4.894	4.1818	0.1	4696.
23579	4.8016	4.4545	0.1	4750.1
23580	4.894	4.3636	0.1	4715.9
23581	4.8016	4.6364	0.1	4774.2
23582	4.894	4.5455	0.1	4738.1
23583	4.8016	4.8182	0.1	4800.5
23584	4.894	4.7273	0.1	4762.5
23585	4.8016	5.	0.1	4828.6
23586	4.894	4.9091	0.1	4788.7
23587	4.8016	5.1818	0.1	4858.2
23588	4.894	5.0909	0.1	4816.6
23589	4.8016	5.3636	0.1	4889.2
23590	4.894	5.2727	0.1	4845.8
23591	4.8016	5.5455	0.1	4921.3
23592	4.894	5.4545	0.1	4876.3
23593	4.8016	5.7273	0.1	4954.4
23594	4.894	5.6364	0.1	4907.6
23595	4.894	5.8182	0.1	4940.
23596	4.8016	5.9091	0.1	4984.
23597	4.9863	0.27273	0.1	4893.3
23598	5.0786	0.18182	0.1	4878.
23599	4.9863	9.0909e-002	0.1	4920.9
23600	4.9863	0.45455	0.1	4862.6
23601	5.0786	0.36364	0.1	4848.
23602	4.9863	0.63636	0.1	4832.9
23603	5.0786	0.54545	0.1	4818.9
23604	4.9863	0.81818	0.1	4804.2
23605	5.0786	0.72727	0.1	4790.8
23606	4.9863	1.	0.1	4776.7
23607	5.0786	0.90909	0.1	4763.7
23608	4.9863	1.1818	0.1	4750.7
23609	5.0786	1.0909	0.1	4737.8
23610	4.9863	1.3636	0.1	4726.4
23611	5.0786	1.2727	0.1	4713.6
23612	4.9863	1.5455	0.1	4704.
23613	5.0786	1.4545	0.1	4691.
23614	4.9863	1.7273	0.1	4683.7
23615	5.0786	1.6364	0.1	4670.4
23616	4.9863	1.9091	0.1	4665.7
23617	5.0786	1.8182	0.1	4651.9
23618	4.9863	2.0909	0.1	4650.3
23619	5.0786	2.	0.1	4635.8
23620	4.9863	2.2727	0.1	4637.4
23621	5.0786	2.1818	0.1	4622.1
23622	4.9863	2.4545	0.1	4627.2
23623	5.0786	2.3636	0.1	4611.
23624	4.9863	2.6364	0.1	4619.9
23625	5.0786	2.5455	0.1	4602.6
23626	4.9863	2.8182	0.1	4615.5
23627	5.0786	2.7273	0.1	4596.9
23628	4.9863	3.	0.1	4614.
23629	5.0786	2.9091	0.1	4594.
23630	4.9863	3.1818	0.1	4615.5
23631	5.0786	3.0909	0.1	4594.
23632	4.9863	3.3636	0.1	4619.9
23633	5.0786	3.2727	0.1	4596.9
23634	4.9863	3.5455	0.1	4627.2
23635	5.0786	3.4545	0.1	4602.6
23636	4.9863	3.7273	0.1	4637.4
23637	5.0786	3.6364	0.1	4611.
23638	4.9863	3.9091	0.1	4650.3
23639	5.0786	3.8182	0.1	4622.1
23640	4.9863	4.0909	0.1	4665.7
23641	5.0786	4.	0.1	4635.8
23642	4.9863	4.2727	0.1	4683.7
23643	5.0786	4.1818	0.1	4651.9
23644	4.9863	4.4545	0.1	4704.
23645	5.0786	4.3636	0.1	4670.4
23646	4.9863	4.6364	0.1	4726.4
23647	5.0786	4.5455	0.1	4691.
23648	4.9863	4.8182	0.1	4750.7
23649	5.0786	4.7273	0.1	4713.6
23650	4.9863	5.	0.1	4776.7
23651	5.0786	4.9091	0.1	4737.8
23652	4.9863	5.1818	0.1	4804.2
23653	5.0786	5.0909	0.1	4763.7
23654	4.9863	5.3636	0.1	4832.9
23655	5.0786	5.2727	0.1	4790.8
23656	4.9863	5.5455	0.1	4862.6
23657	5.0786	5.4545	0.1	4818.9
23658	4.9863	5.7273	0.1	4893.3
23659	5.0786	5.6364	0.1	4848.
23660	5.0786	5.8182	0.1	4878.
23661	4.9863	5.9091	0.1	4920.9
23662	5.171	0.27273	0.1	4832.7
23663	5.2633	0.18182	0.1	4816.6
23664	5.171	9.0909e-002	0.1	4858.4
23665	5.171	0.45455	0.1	4804.3
23666	5.2633	0.36364	0.1	4788.8
23667	5.171	0.63636	0.1	4776.8
23668	5.2633	0.54545	0.1	4761.9
23669	5.171	0.81818	0.1	4750.2
23670	5.2633	0.72727	0.1	4735.8
23671	5.171	1.	0.1	4724.8
23672	5.2633	0.90909	0.1	4710.7
23673	5.171	1.1818	0.1	4700.7
23674	5.2633	1.0909	0.1	4686.8
23675	5.171	1.3636	0.1	4678.2
23676	5.2633	1.2727	0.1	4664.3
23677	5.171	1.5455	0.1	4657.4
23678	5.2633	1.4545	0.1	4643.4
23679	5.171	1.7273	0.1	4638.6
23680	5.2633	1.6364	0.1	4624.4
23681	5.171	1.9091	0.1	4622.
23682	5.2633	1.8182	0.1	4607.3
23683	5.171	2.0909	0.1	4607.6
23684	5.2633	2.	0.1	4592.3
23685	5.171	2.2727	0.1	4595.7
23686	5.2633	2.1818	0.1	4579.6
23687	5.171	2.4545	0.1	4586.3
23688	5.2633	2.3636	0.1	4569.3
23689	5.171	2.6364	0.1	4579.5
23690	5.2633	2.5455	0.1	4561.5
23691	5.171	2.8182	0.1	4575.4
23692	5.2633	2.7273	0.1	4556.3
23693	5.171	3.	0.1	4574.1
23694	5.2633	2.9091	0.1	4553.7
23695	5.171	3.1818	0.1	4575.4
23696	5.2633	3.0909	0.1	4553.7
23697	5.171	3.3636	0.1	4579.5
23698	5.2633	3.2727	0.1	4556.3
23699	5.171	3.5455	0.1	4586.3
23700	5.2633	3.4545	0.1	4561.5
23701	5.171	3.7273	0.1	4595.7
23702	5.2633	3.6364	0.1	4569.3
23703	5.171	3.9091	0.1	4607.6
23704	5.2633	3.8182	0.1	4579.6
23705	5.171	4.0909	0.1	4622.
23706	5.2633	4.	0.1	4592.3
23707	5.171	4.2727	0.1	4638.6
23708	5.2633	4.1818	0.1	4607.3
23709	5.171	4.4545	0.1	4657.4
23710	5.2633	4.3636	0.1	4624.4
23711	5.171	4.6364	0.1	4678.2
23712	5.2633	4.5455	0.1	4643.4
23713	5.171	4.8182	0.1	4700.7
23714	5.2633	4.7273	0.1	4664.3
23715	5.171	5.	0.1	4724.8
23716	5.2633	4.9091	0.1	4686.8
23717	5.171	5.1818	0.1	4750.2
23718	5.2633	5.0909	0.1	4710.7
23719	5.171	5.3636	0.1	4776.8
23720	5.2633	5.2727	0.1	4735.8
23721	5.171	5.5455	0.1	4804.3
23722	5.2633	5.4545	0.1	4761.9
23723	5.171	5.7273	0.1	4832.7
23724	5.2633	5.6364	0.1	4788.8
23725	5.2633	5.8182	0.1	4816.6
23726	5.171	5.9091	0.1	4858.4
23727	5.3556	0.27273	0.1	4772.7
23728	5.448	0.18182	0.1	4755.8
23729	5.3556	9.0909e-002	0.1	4796.5
23730	5.3556	0.45455	0.1	4746.4
23731	5.448	0.36364	0.1	4730.1
23732	5.3556	0.63636	0.1	4720.9
23733	5.448	0.54545	0.1	4705.1
23734	5.3556	0.81818	0.1	4696.3
23735	5.448	0.72727	0.1	4681.
23736	5.3556	1.	0.1	4672.7
23737	5.448	0.90909	0.1	4657.7
23738	5.3556	1.1818	0.1	4650.4
23739	5.448	1.0909	0.1	4635.6
23740	5.3556	1.3636	0.1	4629.6
23741	5.448	1.2727	0.1	4614.8
23742	5.3556	1.5455	0.1	4610.4
23743	5.448	1.4545	0.1	4595.5
23744	5.3556	1.7273	0.1	4593.
23745	5.448	1.6364	0.1	4577.8
23746	5.3556	1.9091	0.1	4577.6
23747	5.448	1.8182	0.1	4562.
23748	5.3556	2.0909	0.1	4564.3
23749	5.448	2.	0.1	4548.2
23750	5.3556	2.2727	0.1	4553.3
23751	5.448	2.1818	0.1	4536.5
23752	5.3556	2.4545	0.1	4544.6
23753	5.448	2.3636	0.1	4526.9
23754	5.3556	2.6364	0.1	4538.3
23755	5.448	2.5455	0.1	4519.7
23756	5.3556	2.8182	0.1	4534.5
23757	5.448	2.7273	0.1	4514.9
23758	5.3556	3.	0.1	4533.3
23759	5.448	2.9091	0.1	4512.4
23760	5.3556	3.1818	0.1	4534.5
23761	5.448	3.0909	0.1	4512.4
23762	5.3556	3.3636	0.1	4538.3
23763	5.448	3.2727	0.1	4514.9
23764	5.3556	3.5455	0.1	4544.6
23765	5.448	3.4545	0.1	4519.7
23766	5.3556	3.7273	0.1	4553.3
23767	5.448	3.6364	0.1	4526.9
23768	5.3556	3.9091	0.1	4564.3
23769	5.448	3.8182	0.1	4536.5
23770	5.3556	4.0909	0.1	4577.6
23771	5.448	4.	0.1	4548.2
23772	5.3556	4.2727	0.1	4593.
23773	5.448	4.1818	0.1	4562.
23774	5.3556	4.4545	0.1	4610.4
23775	5.448	4.3636	0.1	4577.8
23776	5.3556	4.6364	0.1	4629.6
23777	5.448	4.5455	0.1	4595.5
23778	5.3556	4.8182	0.1	4650.4
23779	5.448	4.7273	0.1	4614.8
23780	5.3556	5.	0.1	4672.7
23781	5.448	4.9091	0.1	4635.6
23782	5.3556	5.1818	0.1	4696.3
23783	5.448	5.0909	0.1	4657.7
23784	5.3556	5.3636	0.1	4720.9
23785	5.448	5.2727	0.1	4681.
23786	5.3556	5.5455	0.1	4746.4
23787	5.448	5.4545	0.1	4705.1
23788	5.3556	5.7273	0.1	4772.7
23789	5.448	5.6364	0.1	4730.1
23790	5.448	5.8182	0.1	4755.8
23791	5.3556	5.9091	0.1	4796.5
23792	5.5403	0.27273	0.1	4713.2
23793	5.6327	0.18182	0.1	4695.6
23794	5.5403	9.0909e-002	0.1	4735.2
23795	5.5403	0.45455	0.1	4688.8
23796	5.6327	0.36364	0.1	4671.7
23797	5.5403	0.63636	0.1	4665.2
23798	5.6327	0.54545	0.1	4648.6
23799	5.5403	0.81818	0.1	4642.4
23800	5.6327	0.72727	0.1	4626.3
23801	5.5403	1.	0.1	4620.6
23802	5.6327	0.90909	0.1	4604.7
23803	5.5403	1.1818	0.1	4600.
23804	5.6327	1.0909	0.1	4584.3
23805	5.5403	1.3636	0.1	4580.7
23806	5.6327	1.2727	0.1	4565.
23807	5.5403	1.5455	0.1	4562.9
23808	5.6327	1.4545	0.1	4547.2
23809	5.5403	1.7273	0.1	4546.9
23810	5.6327	1.6364	0.1	4530.9
23811	5.5403	1.9091	0.1	4532.6
23812	5.6327	1.8182	0.1	4516.2
23813	5.5403	2.0909	0.1	4520.3
23814	5.6327	2.	0.1	4503.4
23815	5.5403	2.2727	0.1	4510.1
23816	5.6327	2.1818	0.1	4492.6
23817	5.5403	2.4545	0.1	4502.1
23818	5.6327	2.3636	0.1	4483.8
23819	5.5403	2.6364	0.1	4496.3
23820	5.6327	2.5455	0.1	4477.1
23821	5.5403	2.8182	0.1	4492.8
23822	5.6327	2.7273	0.1	4472.6
23823	5.5403	3.	0.1	4491.6
23824	5.6327	2.9091	0.1	4470.4
23825	5.5403	3.1818	0.1	4492.8
23826	5.6327	3.0909	0.1	4470.4
23827	5.5403	3.3636	0.1	4496.3
23828	5.6327	3.2727	0.1	4472.6
23829	5.5403	3.5455	0.1	4502.1
23830	5.6327	3.4545	0.1	4477.1
23831	5.5403	3.7273	0.1	4510.1
23832	5.6327	3.6364	0.1	4483.8
23833	5.5403	3.9091	0.1	4520.3
23834	5.6327	3.8182	0.1	4492.6
23835	5.5403	4.0909	0.1	4532.6
23836	5.6327	4.	0.1	4503.4
23837	5.5403	4.2727	0.1	4546.9
23838	5.6327	4.1818	0.1	4516.2
23839	5.5403	4.4545	0.1	4562.9
23840	5.6327	4.3636	0.1	4530.9
23841	5.5403	4.6364	0.1	4580.7
23842	5.6327	4.5455	0.1	4547.2
23843	5.5403	4.8182	0.1	4600.
23844	5.6327	4.7273	0.1	4565.
23845	5.5403	5.	0.1	4620.6
23846	5.6327	4.9091	0.1	4584.3
23847	5.5403	5.1818	0.1	4642.4
23848	5.6327	5.0909	0.1	4604.7
23849	5.5403	5.3636	0.1	4665.2
23850	5.6327	5.2727	0.1	4626.3
23851	5.5403	5.5455	0.1	4688.8
23852	5.6327	5.4545	0.1	4648.6
23853	5.5403	5.7273	0.1	4713.2
23854	5.6327	5.6364	0.1	4671.7
23855	5.6327	5.8182	0.1	4695.6
23856	5.5403	5.9091	0.1	4735.2
23857	5.725	0.27273	0.1	4654.1
23858	5.8173	0.18182	0.1	4635.9
23859	5.725	9.0909e-002	0.1	4674.5
23860	5.725	0.45455	0.1	4631.5
23861	5.8173	0.36364	0.1	4613.8
23862	5.725	0.63636	0.1	4609.7
23863	5.8173	0.54545	0.1	4592.4
23864	5.725	0.81818	0.1	4588.6
23865	5.8173	0.72727	0.1	4571.7
23866	5.725	1.	0.1	4568.4
23867	5.8173	0.90909	0.1	4551.8
23868	5.725	1.1818	0.1	4549.3
23869	5.8173	1.0909	0.1	4532.8
23870	5.725	1.3636	0.1	4531.5
23871	5.8173	1.2727	0.1	4515.
23872	5.725	1.5455	0.1	4515.1
23873	5.8173	1.4545	0.1	4498.5
23874	5.725	1.7273	0.1	4500.2
23875	5.8173	1.6364	0.1	4483.4
23876	5.725	1.9091	0.1	4487.1
23877	5.8173	1.8182	0.1	4469.9
23878	5.725	2.0909	0.1	4475.7
23879	5.8173	2.	0.1	4458.1
23880	5.725	2.2727	0.1	4466.3
23881	5.8173	2.1818	0.1	4448.1
23882	5.725	2.4545	0.1	4458.8
23883	5.8173	2.3636	0.1	4439.9
23884	5.725	2.6364	0.1	4453.5
23885	5.8173	2.5455	0.1	4433.7
23886	5.725	2.8182	0.1	4450.2
23887	5.8173	2.7273	0.1	4429.6
23888	5.725	3.	0.1	4449.1
23889	5.8173	2.9091	0.1	4427.5
23890	5.725	3.1818	0.1	4450.2
23891	5.8173	3.0909	0.1	4427.5
23892	5.725	3.3636	0.1	4453.5
23893	5.8173	3.2727	0.1	4429.6
23894	5.725	3.5455	0.1	4458.8
23895	5.8173	3.4545	0.1	4433.7
23896	5.725	3.7273	0.1	4466.3
23897	5.8173	3.6364	0.1	4439.9
23898	5.725	3.9091	0.1	4475.7
23899	5.8173	3.8182	0.1	4448.1
23900	5.725	4.0909	0.1	4487.1
23901	5.8173	4.	0.1	4458.1
23902	5.725	4.2727	0.1	4500.2
23903	5.8173	4.1818	0.1	4469.9
23904	5.725	4.4545	0.1	4515.1
23905	5.8173	4.3636	0.1	4483.4
23906	5.725	4.6364	0.1	4531.5
23907	5.8173	4.5455	0.1	4498.5
23908	5.725	4.8182	0.1	4549.3
23909	5.8173	4.7273	0.1	4515.
23910	5.725	5.	0.1	4568.4
23911	5.8173	4.9091	0.1	4532.8
23912	5.725	5.1818	0.1	4588.6
23913	5.8173	5.0909	0.1	4551.8
23914	5.725	5.3636	0.1	4609.7
23915	5.8173	5.2727	0.1	4571.7
23916	5.725	5.5455	0.1	4631.5
23917	5.8173	5.4545	0.1	4592.4
23918	5.725	5.7273	0.1	4654.1
23919	5.8173	5.6364	0.1	4613.8
23920	5.8173	5.8182	0.1	4635.9
23921	5.725	5.9091	0.1	4674.5
23922	5.9097	0.27273	0.1	4595.5
23923	6.002	0.18182	0.1	4576.8
23924	5.9097	9.0909e-002	0.1	4614.3
23925	5.9097	0.45455	0.1	4574.6
23926	6.002	0.36364	0.1	4556.2
23927	5.9097	0.63636	0.1	4554.4
23928	6.002	0.54545	0.1	4536.4
23929	5.9097	0.81818	0.1	4534.8
23930	6.002	0.72727	0.1	4517.2
23931	5.9097	1.	0.1	4516.2
23932	6.002	0.90909	0.1	4498.8
23933	5.9097	1.1818	0.1	4498.5
23934	6.002	1.0909	0.1	4481.3
23935	5.9097	1.3636	0.1	4482.
23936	6.002	1.2727	0.1	4464.8
23937	5.9097	1.5455	0.1	4466.9
23938	6.002	1.4545	0.1	4449.5
23939	5.9097	1.7273	0.1	4453.1
23940	6.002	1.6364	0.1	4435.6
23941	5.9097	1.9091	0.1	4440.9
23942	6.002	1.8182	0.1	4423.1
23943	5.9097	2.0909	0.1	4430.5
23944	6.002	2.	0.1	4412.2
23945	5.9097	2.2727	0.1	4421.7
23946	6.002	2.1818	0.1	4402.9
23947	5.9097	2.4545	0.1	4414.9
23948	6.002	2.3636	0.1	4395.4
23949	5.9097	2.6364	0.1	4409.9
23950	6.002	2.5455	0.1	4389.7
23951	5.9097	2.8182	0.1	4406.9
23952	6.002	2.7273	0.1	4385.9
23953	5.9097	3.	0.1	4405.9
23954	6.002	2.9091	0.1	4383.9
23955	5.9097	3.1818	0.1	4406.9
23956	6.002	3.0909	0.1	4383.9
23957	5.9097	3.3636	0.1	4409.9
23958	6.002	3.2727	0.1	4385.9
23959	5.9097	3.5455	0.1	4414.9
23960	6.002	3.4545	0.1	4389.7
23961	5.9097	3.7273	0.1	4421.7
23962	6.002	3.6364	0.1	4395.4
23963	5.9097	3.9091	0.1	4430.5
23964	6.002	3.8182	0.1	4402.9
23965	5.9097	4.0909	0.1	4440.9
23966	6.002	4.	0.1	4412.2
23967	5.9097	4.2727	0.1	4453.1
23968	6.002	4.1818	0.1	4423.1
23969	5.9097	4.4545	0.1	4466.9
23970	6.002	4.3636	0.1	4435.6
23971	5.9097	4.6364	0.1	4482.
23972	6.002	4.5455	0.1	4449.5
23973	5.9097	4.8182	0.1	4498.5
23974	6.002	4.7273	0.1	4464.8
23975	5.9097	5.	0.1	4516.2
23976	6.002	4.9091	0.1	4481.3
23977	5.9097	5.1818	0.1	4534.8
23978	6.002	5.0909	0.1	4498.8
23979	5.9097	5.3636	0.1	4554.4
23980	6.002	5.2727	0.1	4517.2
23981	5.9097	5.5455	0.1	4574.6
23982	6.002	5.4545	0.1	4536.4
23983	5.9097	5.7273	0.1	4595.5
23984	6.002	5.6364	0.1	4556.2
23985	6.002	5.8182	0.1	4576.8
23986	5.9097	5.9091	0.1	4614.3
23987	6.0944	0.27273	0.1	4537.4
23988	6.1867	0.18182	0.1	4518.1
23989	6.0944	9.0909e-002	0.1	4554.6
23990	6.0944	0.45455	0.1	4517.9
23991	6.1867	0.36364	0.1	4499.
23992	6.0944	0.63636	0.1	4499.2
23993	6.1867	0.54545	0.1	4480.6
23994	6.0944	0.81818	0.1	4481.1
23995	6.1867	0.72727	0.1	4462.9
23996	6.0944	1.	0.1	4463.9
23997	6.1867	0.90909	0.1	4445.8
23998	6.0944	1.1818	0.1	4447.6
23999	6.1867	1.0909	0.1	4429.6
24000	6.0944	1.3636	0.1	4432.3
24001	6.1867	1.2727	0.1	4414.4
24002	6.0944	1.5455	0.1	4418.3
24003	6.1867	1.4545	0.1	4400.3
24004	6.0944	1.7273	0.1	4405.6
24005	6.1867	1.6364	0.1	4387.4
24006	6.0944	1.9091	0.1	4394.3
24007	6.1867	1.8182	0.1	4375.9
24008	6.0944	2.0909	0.1	4384.7
24009	6.1867	2.	0.1	4365.8
24010	6.0944	2.2727	0.1	4376.6
24011	6.1867	2.1818	0.1	4357.2
24012	6.0944	2.4545	0.1	4370.3
24013	6.1867	2.3636	0.1	4350.3
24014	6.0944	2.6364	0.1	4365.7
24015	6.1867	2.5455	0.1	4345.
24016	6.0944	2.8182	0.1	4362.9
24017	6.1867	2.7273	0.1	4341.5
24018	6.0944	3.	0.1	4362.
24019	6.1867	2.9091	0.1	4339.7
24020	6.0944	3.1818	0.1	4362.9
24021	6.1867	3.0909	0.1	4339.7
24022	6.0944	3.3636	0.1	4365.7
24023	6.1867	3.2727	0.1	4341.5
24024	6.0944	3.5455	0.1	4370.3
24025	6.1867	3.4545	0.1	4345.
24026	6.0944	3.7273	0.1	4376.6
24027	6.1867	3.6364	0.1	4350.3
24028	6.0944	3.9091	0.1	4384.7
24029	6.1867	3.8182	0.1	4357.2
24030	6.0944	4.0909	0.1	4394.3
24031	6.1867	4.	0.1	4365.8
24032	6.0944	4.2727	0.1	4405.6
24033	6.1867	4.1818	0.1	4375.9
24034	6.0944	4.4545	0.1	4418.3
24035	6.1867	4.3636	0.1	4387.4
24036	6.0944	4.6364	0.1	4432.3
24037	6.1867	4.5455	0.1	4400.3
24038	6.0944	4.8182	0.1	4447.6
24039	6.1867	4.7273	0.1	4414.4
24040	6.0944	5.	0.1	4463.9
24041	6.1867	4.9091	0.1	4429.6
24042	6.0944	5.1818	0.1	4481.1
24043	6.1867	5.0909	0.1	4445.8
24044	6.0944	5.3636	0.1	4499.2
24045	6.1867	5.2727	0.1	4462.9
24046	6.0944	5.5455	0.1	4517.9
24047	6.1867	5.4545	0.1	4480.6
24048	6.0944	5.7273	0.1	4537.4
24049	6.1867	5.6364	0.1	4499.
24050	6.1867	5.8182	0.1	4518.1
24051	6.0944	5.9091	0.1	4554.6
24052	6.279	0.27273	0.1	4479.6
24053	6.3714	0.18182	0.1	4459.9
24054	6.279	9.0909e-002	0.1	4495.4
24055	6.279	0.45455	0.1	4461.6
24056	6.3714	0.36364	0.1	4442.1
24057	6.279	0.63636	0.1	4444.3
24058	6.3714	0.54545	0.1	4425.1
24059	6.279	0.81818	0.1	4427.5
24060	6.3714	0.72727	0.1	4408.7
24061	6.279	1.	0.1	4411.6
24062	6.3714	0.90909	0.1	4392.9
24063	6.279	1.1818	0.1	4396.5
24064	6.3714	1.0909	0.1	4377.9
24065	6.279	1.3636	0.1	4382.4
24066	6.3714	1.2727	0.1	4363.8
24067	6.279	1.5455	0.1	4369.4
24068	6.3714	1.4545	0.1	4350.8
24069	6.279	1.7273	0.1	4357.7
24070	6.3714	1.6364	0.1	4338.9
24071	6.279	1.9091	0.1	4347.3
24072	6.3714	1.8182	0.1	4328.2
24073	6.279	2.0909	0.1	4338.3
24074	6.3714	2.	0.1	4318.9
24075	6.279	2.2727	0.1	4330.9
24076	6.3714	2.1818	0.1	4311.
24077	6.279	2.4545	0.1	4325.
24078	6.3714	2.3636	0.1	4304.6
24079	6.279	2.6364	0.1	4320.8
24080	6.3714	2.5455	0.1	4299.7
24081	6.279	2.8182	0.1	4318.3
24082	6.3714	2.7273	0.1	4296.4
24083	6.279	3.	0.1	4317.4
24084	6.3714	2.9091	0.1	4294.8
24085	6.279	3.1818	0.1	4318.3
24086	6.3714	3.0909	0.1	4294.8
24087	6.279	3.3636	0.1	4320.8
24088	6.3714	3.2727	0.1	4296.4
24089	6.279	3.5455	0.1	4325.
24090	6.3714	3.4545	0.1	4299.7
24091	6.279	3.7273	0.1	4330.9
24092	6.3714	3.6364	0.1	4304.6
24093	6.279	3.9091	0.1	4338.3
24094	6.3714	3.8182	0.1	4311.
24095	6.279	4.0909	0.1	4347.3
24096	6.3714	4.	0.1	4318.9
24097	6.279	4.2727	0.1	4357.7
24098	6.3714	4.1818	0.1	4328.2
24099	6.279	4.4545	0.1	4369.4
24100	6.3714	4.3636	0.1	4338.9
24101	6.279	4.6364	0.1	4382.4
24102	6.3714	4.5455	0.1	4350.8
24103	6.279	4.8182	0.1	4396.5
24104	6.3714	4.7273	0.1	4363.8
24105	6.279	5.	0.1	4411.6
24106	6.3714	4.9091	0.1	4377.9
24107	6.279	5.1818	0.1	4427.5
24108	6.3714	5.0909	0.1	4392.9
24109	6.279	5.3636	0.1	4444.3
24110	6.3714	5.2727	0.1	4408.7
24111	6.279	5.5455	0.1	4461.6
24112	6.3714	5.4545	0.1	4425.1
24113	6.279	5.7273	0.1	4479.6
24114	6.3714	5.6364	0.1	4442.1
24115	6.3714	5.8182	0.1	4459.9
24116	6.279	5.9091	0.1	4495.4
24117	6.4637	0.27273	0.1	4422.3
24118	6.556	0.18182	0.1	4402.1
24119	6.4637	9.0909e-002	0.1	4436.6
24120	6.4637	0.45455	0.1	4405.5
24121	6.556	0.36364	0.1	4385.5
24122	6.4637	0.63636	0.1	4389.5
24123	6.556	0.54545	0.1	4369.8
24124	6.4637	0.81818	0.1	4374.
24125	6.556	0.72727	0.1	4354.6
24126	6.4637	1.	0.1	4359.2
24127	6.556	0.90909	0.1	4340.
24128	6.4637	1.1818	0.1	4345.3
24129	6.556	1.0909	0.1	4326.1
24130	6.4637	1.3636	0.1	4332.2
24131	6.556	1.2727	0.1	4313.1
24132	6.4637	1.5455	0.1	4320.2
24133	6.556	1.4545	0.1	4301.
24134	6.4637	1.7273	0.1	4309.4
24135	6.556	1.6364	0.1	4290.
24136	6.4637	1.9091	0.1	4299.8
24137	6.556	1.8182	0.1	4280.2
24138	6.4637	2.0909	0.1	4291.5
24139	6.556	2.	0.1	4271.6
24140	6.4637	2.2727	0.1	4284.7
24141	6.556	2.1818	0.1	4264.3
24142	6.4637	2.4545	0.1	4279.3
24143	6.556	2.3636	0.1	4258.3
24144	6.4637	2.6364	0.1	4275.4
24145	6.556	2.5455	0.1	4253.9
24146	6.4637	2.8182	0.1	4273.
24147	6.556	2.7273	0.1	4250.8
24148	6.4637	3.	0.1	4272.2
24149	6.556	2.9091	0.1	4249.3
24150	6.4637	3.1818	0.1	4273.
24151	6.556	3.0909	0.1	4249.3
24152	6.4637	3.3636	0.1	4275.4
24153	6.556	3.2727	0.1	4250.8
24154	6.4637	3.5455	0.1	4279.3
24155	6.556	3.4545	0.1	4253.9
24156	6.4637	3.7273	0.1	4284.7
24157	6.556	3.6364	0.1	4258.3
24158	6.4637	3.9091	0.1	4291.5
24159	6.556	3.8182	0.1	4264.3
24160	6.4637	4.0909	0.1	4299.8
24161	6.556	4.	0.1	4271.6
24162	6.4637	4.2727	0.1	4309.4
24163	6.556	4.1818	0.1	4280.2
24164	6.4637	4.4545	0.1	4320.2
24165	6.556	4.3636	0.1	4290.
24166	6.4637	4.6364	0.1	4332.2
24167	6.556	4.5455	0.1	4301.
24168	6.4637	4.8182	0.1	4345.3
24169	6.556	4.7273	0.1	4313.1
24170	6.4637	5.	0.1	4359.2
24171	6.556	4.9091	0.1	4326.1
24172	6.4637	5.1818	0.1	4374.
24173	6.556	5.0909	0.1	4340.
24174	6.4637	5.3636	0.1	4389.5
24175	6.556	5.2727	0.1	4354.6
24176	6.4637	5.5455	0.1	4405.5
24177	6.556	5.4545	0.1	4369.8
24178	6.4637	5.7273	0.1	4422.3
24179	6.556	5.6364	0.1	4385.5
24180	6.556	5.8182	0.1	4402.1
24181	6.4637	5.9091	0.1	4436.6
24182	6.6484	0.27273	0.1	4365.3
24183	6.7407	0.18182	0.1	4344.8
24184	6.6484	9.0909e-002	0.1	4378.3
24185	6.6484	0.45455	0.1	4349.7
24186	6.7407	0.36364	0.1	4329.3
24187	6.6484	0.63636	0.1	4334.9
24188	6.7407	0.54545	0.1	4314.7
24189	6.6484	0.81818	0.1	4320.5
24190	6.7407	0.72727	0.1	4300.6
24191	6.6484	1.	0.1	4306.9
24192	6.7407	0.90909	0.1	4287.1
24193	6.6484	1.1818	0.1	4293.9
24194	6.7407	1.0909	0.1	4274.3
24195	6.6484	1.3636	0.1	4281.9
24196	6.7407	1.2727	0.1	4262.2
24197	6.6484	1.5455	0.1	4270.8
24198	6.7407	1.4545	0.1	4251.1
24199	6.6484	1.7273	0.1	4260.8
24200	6.7407	1.6364	0.1	4240.9
24201	6.6484	1.9091	0.1	4251.9
24202	6.7407	1.8182	0.1	4231.8
24203	6.6484	2.0909	0.1	4244.3
24204	6.7407	2.	0.1	4223.9
24205	6.6484	2.2727	0.1	4238.
24206	6.7407	2.1818	0.1	4217.1
24207	6.6484	2.4545	0.1	4233.
24208	6.7407	2.3636	0.1	4211.6
24209	6.6484	2.6364	0.1	4229.4
24210	6.7407	2.5455	0.1	4207.5
24211	6.6484	2.8182	0.1	4227.2
24212	6.7407	2.7273	0.1	4204.7
24213	6.6484	3.	0.1	4226.5
24214	6.7407	2.9091	0.1	4203.3
24215	6.6484	3.1818	0.1	4227.2
24216	6.7407	3.0909	0.1	4203.3
24217	6.6484	3.3636	0.1	4229.4
24218	6.7407	3.2727	0.1	4204.7
24219	6.6484	3.5455	0.1	4233.
24220	6.7407	3.4545	0.1	4207.5
24221	6.6484	3.7273	0.1	4238.
24222	6.7407	3.6364	0.1	4211.6
24223	6.6484	3.9091	0.1	4244.3
24224	6.7407	3.8182	0.1	4217.1
24225	6.6484	4.0909	0.1	4251.9
24226	6.7407	4.	0.1	4223.9
24227	6.6484	4.2727	0.1	4260.8
24228	6.7407	4.1818	0.1	4231.8
24229	6.6484	4.4545	0.1	4270.8
24230	6.7407	4.3636	0.1	4240.9
24231	6.6484	4.6364	0.1	4281.9
24232	6.7407	4.5455	0.1	4251.1
24233	6.6484	4.8182	0.1	4293.9
24234	6.7407	4.7273	0.1	4262.2
24235	6.6484	5.	0.1	4306.9
24236	6.7407	4.9091	0.1	4274.3
24237	6.6484	5.1818	0.1	4320.5
24238	6.7407	5.0909	0.1	4287.1
24239	6.6484	5.3636	0.1	4334.9
24240	6.7407	5.2727	0.1	4300.6
24241	6.6484	5.5455	0.1	4349.7
24242	6.7407	5.4545	0.1	4314.7
24243	6.6484	5.7273	0.1	4365.3
24244	6.7407	5.6364	0.1	4329.3
24245	6.7407	5.8182	0.1	4344.8
24246	6.6484	5.9091	0.1	4378.3
24247	6.8331	0.27273	0.1	4308.7
24248	6.9254	0.18182	0.1	4287.8
24249	6.8331	9.0909e-002	0.1	4320.5
24250	6.8331	0.45455	0.1	4294.2
24251	6.9254	0.36364	0.1	4273.3
24252	6.8331	0.63636	0.1	4280.4
24253	6.9254	0.54545	0.1	4259.8
24254	6.8331	0.81818	0.1	4267.2
24255	6.9254	0.72727	0.1	4246.8
24256	6.8331	1.	0.1	4254.5
24257	6.9254	0.90909	0.1	4234.3
24258	6.8331	1.1818	0.1	4242.6
24259	6.9254	1.0909	0.1	4222.4
24260	6.8331	1.3636	0.1	4231.4
24261	6.9254	1.2727	0.1	4211.3
24262	6.8331	1.5455	0.1	4221.2
24263	6.9254	1.4545	0.1	4200.9
24264	6.8331	1.7273	0.1	4211.9
24265	6.9254	1.6364	0.1	4191.5
24266	6.8331	1.9091	0.1	4203.7
24267	6.9254	1.8182	0.1	4183.1
24268	6.8331	2.0909	0.1	4196.7
24269	6.9254	2.	0.1	4175.8
24270	6.8331	2.2727	0.1	4190.8
24271	6.9254	2.1818	0.1	4169.6
24272	6.8331	2.4545	0.1	4186.2
24273	6.9254	2.3636	0.1	4164.5
24274	6.8331	2.6364	0.1	4182.9
24275	6.9254	2.5455	0.1	4160.7
24276	6.8331	2.8182	0.1	4180.9
24277	6.9254	2.7273	0.1	4158.1
24278	6.8331	3.	0.1	4180.2
24279	6.9254	2.9091	0.1	4156.8
24280	6.8331	3.1818	0.1	4180.9
24281	6.9254	3.0909	0.1	4156.8
24282	6.8331	3.3636	0.1	4182.9
24283	6.9254	3.2727	0.1	4158.1
24284	6.8331	3.5455	0.1	4186.2
24285	6.9254	3.4545	0.1	4160.7
24286	6.8331	3.7273	0.1	4190.8
24287	6.9254	3.6364	0.1	4164.5
24288	6.8331	3.9091	0.1	4196.7
24289	6.9254	3.8182	0.1	4169.6
24290	6.8331	4.0909	0.1	4203.7
24291	6.9254	4.	0.1	4175.8
24292	6.8331	4.2727	0.1	4211.9
24293	6.9254	4.1818	0.1	4183.1
24294	6.8331	4.4545	0.1	4221.2
24295	6.9254	4.3636	0.1	4191.5
24296	6.8331	4.6364	0.1	4231.4
24297	6.9254	4.5455	0.1	4200.9
24298	6.8331	4.8182	0.1	4242.6
24299	6.9254	4.7273	0.1	4211.3
24300	6.8331	5.	0.1	4254.5
24301	6.9254	4.9091	0.1	4222.4
24302	6.8331	5.1818	0.1	4267.2
24303	6.9254	5.0909	0.1	4234.3
24304	6.8331	5.3636	0.1	4280.4
24305	6.9254	5.2727	0.1	4246.8
24306	6.8331	5.5455	0.1	4294.2
24307	6.9254	5.4545	0.1	4259.8
24308	6.8331	5.7273	0.1	4308.7
24309	6.9254	5.6364	0.1	4273.3
24310	6.9254	5.8182	0.1	4287.8
24311	6.8331	5.9091	0.1	4320.5
24312	7.0177	0.27273	0.1	4252.4
24313	7.1101	0.18182	0.1	4231.2
24314	7.0177	9.0909e-002	0.1	4263.
24315	7.0177	0.45455	0.1	4238.9
24316	7.1101	0.36364	0.1	4217.7
24317	7.0177	0.63636	0.1	4226.1
24318	7.1101	0.54545	0.1	4205.1
24319	7.0177	0.81818	0.1	4213.9
24320	7.1101	0.72727	0.1	4193.1
24321	7.0177	1.	0.1	4202.1
24322	7.1101	0.90909	0.1	4181.5
24323	7.0177	1.1818	0.1	4191.1
24324	7.1101	1.0909	0.1	4170.5
24325	7.0177	1.3636	0.1	4180.8
24326	7.1101	1.2727	0.1	4160.2
24327	7.0177	1.5455	0.1	4171.3
24328	7.1101	1.4545	0.1	4150.7
24329	7.0177	1.7273	0.1	4162.8
24330	7.1101	1.6364	0.1	4142.
24331	7.0177	1.9091	0.1	4155.2
24332	7.1101	1.8182	0.1	4134.2
24333	7.0177	2.0909	0.1	4148.7
24334	7.1101	2.	0.1	4127.4
24335	7.0177	2.2727	0.1	4143.3
24336	7.1101	2.1818	0.1	4121.6
24337	7.0177	2.4545	0.1	4139.
24338	7.1101	2.3636	0.1	4117.
24339	7.0177	2.6364	0.1	4135.9
24340	7.1101	2.5455	0.1	4113.4
24341	7.0177	2.8182	0.1	4134.1
24342	7.1101	2.7273	0.1	4111.1
24343	7.0177	3.	0.1	4133.5
24344	7.1101	2.9091	0.1	4109.9
24345	7.0177	3.1818	0.1	4134.1
24346	7.1101	3.0909	0.1	4109.9
24347	7.0177	3.3636	0.1	4135.9
24348	7.1101	3.2727	0.1	4111.1
24349	7.0177	3.5455	0.1	4139.
24350	7.1101	3.4545	0.1	4113.4
24351	7.0177	3.7273	0.1	4143.3
24352	7.1101	3.6364	0.1	4117.
24353	7.0177	3.9091	0.1	4148.7
24354	7.1101	3.8182	0.1	4121.6
24355	7.0177	4.0909	0.1	4155.2
24356	7.1101	4.	0.1	4127.4
24357	7.0177	4.2727	0.1	4162.8
24358	7.1101	4.1818	0.1	4134.2
24359	7.0177	4.4545	0.1	4171.3
24360	7.1101	4.3636	0.1	4142.
24361	7.0177	4.6364	0.1	4180.8
24362	7.1101	4.5455	0.1	4150.7
24363	7.0177	4.8182	0.1	4191.1
24364	7.1101	4.7273	0.1	4160.2
24365	7.0177	5.	0.1	4202.1
24366	7.1101	4.9091	0.1	4170.5
24367	7.0177	5.1818	0.1	4213.9
24368	7.1101	5.0909	0.1	4181.5
24369	7.0177	5.3636	0.1	4226.1
24370	7.1101	5.2727	0.1	4193.1
24371	7.0177	5.5455	0.1	4238.9
24372	7.1101	5.4545	0.1	4205.1
24373	7.0177	5.7273	0.1	4252.4
24374	7.1101	5.6364	0.1	4217.7
24375	7.1101	5.8182	0.1	4231.2
24376	7.0177	5.9091	0.1	4263.
24377	7.2024	0.27273	0.1	4196.4
24378	7.2948	0.18182	0.1	4175.
24379	7.2024	9.0909e-002	0.1	4206.
24380	7.2024	0.45455	0.1	4183.9
24381	7.2948	0.36364	0.1	4162.3
24382	7.2024	0.63636	0.1	4172.
24383	7.2948	0.54545	0.1	4150.7
24384	7.2024	0.81818	0.1	4160.7
24385	7.2948	0.72727	0.1	4139.5
24386	7.2024	1.	0.1	4149.8
24387	7.2948	0.90909	0.1	4128.8
24388	7.2024	1.1818	0.1	4139.6
24389	7.2948	1.0909	0.1	4118.6
24390	7.2024	1.3636	0.1	4130.1
24391	7.2948	1.2727	0.1	4109.
24392	7.2024	1.5455	0.1	4121.3
24393	7.2948	1.4545	0.1	4100.2
24394	7.2024	1.7273	0.1	4113.4
24395	7.2948	1.6364	0.1	4092.2
24396	7.2024	1.9091	0.1	4106.4
24397	7.2948	1.8182	0.1	4085.
24398	7.2024	2.0909	0.1	4100.4
24399	7.2948	2.	0.1	4078.7
24400	7.2024	2.2727	0.1	4095.4
24401	7.2948	2.1818	0.1	4073.4
24402	7.2024	2.4545	0.1	4091.4
24403	7.2948	2.3636	0.1	4069.1
24404	7.2024	2.6364	0.1	4088.6
24405	7.2948	2.5455	0.1	4065.8
24406	7.2024	2.8182	0.1	4086.9
24407	7.2948	2.7273	0.1	4063.6
24408	7.2024	3.	0.1	4086.3
24409	7.2948	2.9091	0.1	4062.5
24410	7.2024	3.1818	0.1	4086.9
24411	7.2948	3.0909	0.1	4062.5
24412	7.2024	3.3636	0.1	4088.6
24413	7.2948	3.2727	0.1	4063.6
24414	7.2024	3.5455	0.1	4091.4
24415	7.2948	3.4545	0.1	4065.8
24416	7.2024	3.7273	0.1	4095.4
24417	7.2948	3.6364	0.1	4069.1
24418	7.2024	3.9091	0.1	4100.4
24419	7.2948	3.8182	0.1	4073.4
24420	7.2024	4.0909	0.1	4106.4
24421	7.2948	4.	0.1	4078.7
24422	7.2024	4.2727	0.1	4113.4
24423	7.2948	4.1818	0.1	4085.
24424	7.2024	4.4545	0.1	4121.3
24425	7.2948	4.3636	0.1	4092.2
24426	7.2024	4.6364	0.1	4130.1
24427	7.2948	4.5455	0.1	4100.2
24428	7.2024	4.8182	0.1	4139.6
24429	7.2948	4.7273	0.1	4109.
24430	7.2024	5.	0.1	4149.8
24431	7.2948	4.9091	0.1	4118.6
24432	7.2024	5.1818	0.1	4160.7
24433	7.2948	5.0909	0.1	4128.8
24434	7.2024	5.3636	0.1	4172.
24435	7.2948	5.2727	0.1	4139.5
24436	7.2024	5.5455	0.1	4183.9
24437	7.2948	5.4545	0.1	4150.7
24438	7.2024	5.7273	0.1	4196.4
24439	7.2948	5.6364	0.1	4162.3
24440	7.2948	5.8182	0.1	4175.
24441	7.2024	5.9091	0.1	4206.
24442	7.3871	0.27273	0.1	4140.8
24443	7.4794	0.18182	0.1	4119.1
24444	7.3871	9.0909e-002	0.1	4149.3
24445	7.3871	0.45455	0.1	4129.1
24446	7.4794	0.36364	0.1	4107.2
24447	7.3871	0.63636	0.1	4118.1
24448	7.4794	0.54545	0.1	4096.4
24449	7.3871	0.81818	0.1	4107.6
24450	7.4794	0.72727	0.1	4086.
24451	7.3871	1.	0.1	4097.5
24452	7.4794	0.90909	0.1	4076.1
24453	7.3871	1.1818	0.1	4088.
24454	7.4794	1.0909	0.1	4066.7
24455	7.3871	1.3636	0.1	4079.2
24456	7.4794	1.2727	0.1	4057.8
24457	7.3871	1.5455	0.1	4071.1
24458	7.4794	1.4545	0.1	4049.7
24459	7.3871	1.7273	0.1	4063.8
24460	7.4794	1.6364	0.1	4042.2
24461	7.3871	1.9091	0.1	4057.3
24462	7.4794	1.8182	0.1	4035.6
24463	7.3871	2.0909	0.1	4051.8
24464	7.4794	2.	0.1	4029.8
24465	7.3871	2.2727	0.1	4047.1
24466	7.4794	2.1818	0.1	4024.9
24467	7.3871	2.4545	0.1	4043.5
24468	7.4794	2.3636	0.1	4020.9
24469	7.3871	2.6364	0.1	4040.9
24470	7.4794	2.5455	0.1	4017.9
24471	7.3871	2.8182	0.1	4039.3
24472	7.4794	2.7273	0.1	4015.9
24473	7.3871	3.	0.1	4038.8
24474	7.4794	2.9091	0.1	4014.8
24475	7.3871	3.1818	0.1	4039.3
24476	7.4794	3.0909	0.1	4014.8
24477	7.3871	3.3636	0.1	4040.9
24478	7.4794	3.2727	0.1	4015.9
24479	7.3871	3.5455	0.1	4043.5
24480	7.4794	3.4545	0.1	4017.9
24481	7.3871	3.7273	0.1	4047.1
24482	7.4794	3.6364	0.1	4020.9
24483	7.3871	3.9091	0.1	4051.8
24484	7.4794	3.8182	0.1	4024.9
24485	7.3871	4.0909	0.1	4057.3
24486	7.4794	4.	0.1	4029.8
24487	7.3871	4.2727	0.1	4063.8
24488	7.4794	4.1818	0.1	4035.6
24489	7.3871	4.4545	0.1	4071.1
24490	7.4794	4.3636	0.1	4042.2
24491	7.3871	4.6364	0.1	4079.2
24492	7.4794	4.5455	0.1	4049.7
24493	7.3871	4.8182	0.1	4088.
24494	7.4794	4.7273	0.1	4057.8
24495	7.3871	5.	0.1	4097.5
24496	7.4794	4.9091	0.1	4066.7
24497	7.3871	5.1818	0.1	4107.6
24498	7.4794	5.0909	0.1	4076.1
24499	7.3871	5.3636	0.1	4118.1
24500	7.4794	5.2727	0.1	4086.
24501	7.3871	5.5455	0.1	4129.1
24502	7.4794	5.4545	0.1	4096.4
24503	7.3871	5.7273	0.1	4140.8
24504	7.4794	5.6364	0.1	4107.2
24505	7.4794	5.8182	0.1	4119.1
24506	7.3871	5.9091	0.1	4149.3
24507	7.5718	0.27273	0.1	4085.4
24508	7.6641	0.18182	0.1	4063.5
24509	7.5718	9.0909e-002	0.1	4093.
24510	7.5718	0.45455	0.1	4074.5
24511	7.6641	0.36364	0.1	4052.4
24512	7.5718	0.63636	0.1	4064.3
24513	7.6641	0.54545	0.1	4042.3
24514	7.5718	0.81818	0.1	4054.5
24515	7.6641	0.72727	0.1	4032.7
24516	7.5718	1.	0.1	4045.2
24517	7.6641	0.90909	0.1	4023.5
24518	7.5718	1.1818	0.1	4036.5
24519	7.6641	1.0909	0.1	4014.8
24520	7.5718	1.3636	0.1	4028.3
24521	7.6641	1.2727	0.1	4006.6
24522	7.5718	1.5455	0.1	4020.8
24523	7.6641	1.4545	0.1	3999.
24524	7.5718	1.7273	0.1	4014.
24525	7.6641	1.6364	0.1	3992.2
24526	7.5718	1.9091	0.1	4008.1
24527	7.6641	1.8182	0.1	3986.
24528	7.5718	2.0909	0.1	4002.9
24529	7.6641	2.	0.1	3980.6
24530	7.5718	2.2727	0.1	3998.6
24531	7.6641	2.1818	0.1	3976.1
24532	7.5718	2.4545	0.1	3995.3
24533	7.6641	2.3636	0.1	3972.4
24534	7.5718	2.6364	0.1	3992.8
24535	7.6641	2.5455	0.1	3969.6
24536	7.5718	2.8182	0.1	3991.4
24537	7.6641	2.7273	0.1	3967.7
24538	7.5718	3.	0.1	3990.9
24539	7.6641	2.9091	0.1	3966.8
24540	7.5718	3.1818	0.1	3991.4
24541	7.6641	3.0909	0.1	3966.8
24542	7.5718	3.3636	0.1	3992.8
24543	7.6641	3.2727	0.1	3967.7
24544	7.5718	3.5455	0.1	3995.3
24545	7.6641	3.4545	0.1	3969.6
24546	7.5718	3.7273	0.1	3998.6
24547	7.6641	3.6364	0.1	3972.4
24548	7.5718	3.9091	0.1	4002.9
24549	7.6641	3.8182	0.1	3976.1
24550	7.5718	4.0909	0.1	4008.1
24551	7.6641	4.	0.1	3980.6
24552	7.5718	4.2727	0.1	4014.
24553	7.6641	4.1818	0.1	3986.
24554	7.5718	4.4545	0.1	4020.8
24555	7.6641	4.3636	0.1	3992.2
24556	7.5718	4.6364	0.1	4028.3
24557	7.6641	4.5455	0.1	3999.
24558	7.5718	4.8182	0.1	4036.5
24559	7.6641	4.7273	0.1	4006.6
24560	7.5718	5.	0.1	4045.2
24561	7.6641	4.9091	0.1	4014.8
24562	7.5718	5.1818	0.1	4054.5
24563	7.6641	5.0909	0.1	4023.5
24564	7.5718	5.3636	0.1	4064.3
24565	7.6641	5.2727	0.1	4032.7
24566	7.5718	5.5455	0.1	4074.5
24567	7.6641	5.4545	0.1	4042.3
24568	7.5718	5.7273	0.1	4085.4
24569	7.6641	5.6364	0.1	4052.4
24570	7.6641	5.8182	0.1	4063.5
24571	7.5718	5.9091	0.1	4093.
24572	7.7565	0.27273	0.1	4030.4
24573	7.8488	0.18182	0.1	4008.3
24574	7.7565	9.0909e-002	0.1	4037.
24575	7.7565	0.45455	0.1	4020.2
24576	7.8488	0.36364	0.1	3997.8
24577	7.7565	0.63636	0.1	4010.7
24578	7.8488	0.54545	0.1	3988.5
24579	7.7565	0.81818	0.1	4001.6
24580	7.8488	0.72727	0.1	3979.5
24581	7.7565	1.	0.1	3993.
24582	7.8488	0.90909	0.1	3971.
24583	7.7565	1.1818	0.1	3984.9
24584	7.8488	1.0909	0.1	3962.9
24585	7.7565	1.3636	0.1	3977.3
24586	7.8488	1.2727	0.1	3955.3
24587	7.7565	1.5455	0.1	3970.4
24588	7.8488	1.4545	0.1	3948.3
24589	7.7565	1.7273	0.1	3964.1
24590	7.8488	1.6364	0.1	3941.9
24591	7.7565	1.9091	0.1	3958.6
24592	7.8488	1.8182	0.1	3936.3
24593	7.7565	2.0909	0.1	3953.8
24594	7.8488	2.	0.1	3931.3
24595	7.7565	2.2727	0.1	3949.9
24596	7.8488	2.1818	0.1	3927.1
24597	7.7565	2.4545	0.1	3946.8
24598	7.8488	2.3636	0.1	3923.7
24599	7.7565	2.6364	0.1	3944.5
24600	7.8488	2.5455	0.1	3921.1
24601	7.7565	2.8182	0.1	3943.2
24602	7.8488	2.7273	0.1	3919.4
24603	7.7565	3.	0.1	3942.7
24604	7.8488	2.9091	0.1	3918.5
24605	7.7565	3.1818	0.1	3943.2
24606	7.8488	3.0909	0.1	3918.5
24607	7.7565	3.3636	0.1	3944.5
24608	7.8488	3.2727	0.1	3919.4
24609	7.7565	3.5455	0.1	3946.8
24610	7.8488	3.4545	0.1	3921.1
24611	7.7565	3.7273	0.1	3949.9
24612	7.8488	3.6364	0.1	3923.7
24613	7.7565	3.9091	0.1	3953.8
24614	7.8488	3.8182	0.1	3927.1
24615	7.7565	4.0909	0.1	3958.6
24616	7.8488	4.	0.1	3931.3
24617	7.7565	4.2727	0.1	3964.1
24618	7.8488	4.1818	0.1	3936.3
24619	7.7565	4.4545	0.1	3970.4
24620	7.8488	4.3636	0.1	3941.9
24621	7.7565	4.6364	0.1	3977.3
24622	7.8488	4.5455	0.1	3948.3
24623	7.7565	4.8182	0.1	3984.9
24624	7.8488	4.7273	0.1	3955.3
24625	7.7565	5.	0.1	3993.
24626	7.8488	4.9091	0.1	3962.9
24627	7.7565	5.1818	0.1	4001.6
24628	7.8488	5.0909	0.1	3971.
24629	7.7565	5.3636	0.1	4010.7
24630	7.8488	5.2727	0.1	3979.5
24631	7.7565	5.5455	0.1	4020.2
24632	7.8488	5.4545	0.1	3988.5
24633	7.7565	5.7273	0.1	4030.4
24634	7.8488	5.6364	0.1	3997.8
24635	7.8488	5.8182	0.1	4008.3
24636	7.7565	5.9091	0.1	4037.
24637	7.9411	0.27273	0.1	3975.6
24638	8.0335	0.18182	0.1	3953.3
24639	7.9411	9.0909e-002	0.1	3981.4
24640	7.9411	0.45455	0.1	3966.
24641	8.0335	0.36364	0.1	3943.4
24642	7.9411	0.63636	0.1	3957.3
24643	8.0335	0.54545	0.1	3934.8
24644	7.9411	0.81818	0.1	3948.8
24645	8.0335	0.72727	0.1	3926.5
24646	7.9411	1.	0.1	3940.8
24647	8.0335	0.90909	0.1	3918.6
24648	7.9411	1.1818	0.1	3933.3
24649	8.0335	1.0909	0.1	3911.1
24650	7.9411	1.3636	0.1	3926.3
24651	8.0335	1.2727	0.1	3904.
24652	7.9411	1.5455	0.1	3919.9
24653	8.0335	1.4545	0.1	3897.5
24654	7.9411	1.7273	0.1	3914.1
24655	8.0335	1.6364	0.1	3891.6
24656	7.9411	1.9091	0.1	3909.
24657	8.0335	1.8182	0.1	3886.4
24658	7.9411	2.0909	0.1	3904.5
24659	8.0335	2.	0.1	3881.8
24660	7.9411	2.2727	0.1	3900.9
24661	8.0335	2.1818	0.1	3877.9
24662	7.9411	2.4545	0.1	3898.
24663	8.0335	2.3636	0.1	3874.7
24664	7.9411	2.6364	0.1	3895.9
24665	8.0335	2.5455	0.1	3872.3
24666	7.9411	2.8182	0.1	3894.7
24667	8.0335	2.7273	0.1	3870.7
24668	7.9411	3.	0.1	3894.3
24669	8.0335	2.9091	0.1	3869.9
24670	7.9411	3.1818	0.1	3894.7
24671	8.0335	3.0909	0.1	3869.9
24672	7.9411	3.3636	0.1	3895.9
24673	8.0335	3.2727	0.1	3870.7
24674	7.9411	3.5455	0.1	3898.
24675	8.0335	3.4545	0.1	3872.3
24676	7.9411	3.7273	0.1	3900.9
24677	8.0335	3.6364	0.1	3874.7
24678	7.9411	3.9091	0.1	3904.5
24679	8.0335	3.8182	0.1	3877.9
24680	7.9411	4.0909	0.1	3909.
24681	8.0335	4.	0.1	3881.8
24682	7.9411	4.2727	0.1	3914.1
24683	8.0335	4.1818	0.1	3886.4
24684	7.9411	4.4545	0.1	3919.9
24685	8.0335	4.3636	0.1	3891.6
24686	7.9411	4.6364	0.1	3926.3
24687	8.0335	4.5455	0.1	3897.5
24688	7.9411	4.8182	0.1	3933.3
24689	8.0335	4.7273	0.1	3904.
24690	7.9411	5.	0.1	3940.8
24691	8.0335	4.9091	0.1	3911.1
24692	7.9411	5.1818	0.1	3948.8
24693	8.0335	5.0909	0.1	3918.6
24694	7.9411	5.3636	0.1	3957.3
24695	8.0335	5.2727	0.1	3926.5
24696	7.9411	5.5455	0.1	3966.
24697	8.0335	5.4545	0.1	3934.8
24698	7.9411	5.7273	0.1	3975.6
24699	8.0335	5.6364	0.1	3943.4
24700	8.0335	5.8182	0.1	3953.3
24701	7.9411	5.9091	0.1	3981.4
24702	8.1258	0.27273	0.1	3921.1
24703	8.2181	0.18182	0.1	3898.7
24704	8.1258	9.0909e-002	0.1	3926.1
24705	8.1258	0.45455	0.1	3912.1
24706	8.2181	0.36364	0.1	3889.3
24707	8.1258	0.63636	0.1	3904.
24708	8.2181	0.54545	0.1	3881.3
24709	8.1258	0.81818	0.1	3896.2
24710	8.2181	0.72727	0.1	3873.6
24711	8.1258	1.	0.1	3888.7
24712	8.2181	0.90909	0.1	3866.2
24713	8.1258	1.1818	0.1	3881.8
24714	8.2181	1.0909	0.1	3859.3
24715	8.1258	1.3636	0.1	3875.3
24716	8.2181	1.2727	0.1	3852.7
24717	8.1258	1.5455	0.1	3869.3
24718	8.2181	1.4545	0.1	3846.7
24719	8.1258	1.7273	0.1	3863.9
24720	8.2181	1.6364	0.1	3841.3
24721	8.1258	1.9091	0.1	3859.2
24722	8.2181	1.8182	0.1	3836.4
24723	8.1258	2.0909	0.1	3855.1
24724	8.2181	2.	0.1	3832.1
24725	8.1258	2.2727	0.1	3851.7
24726	8.2181	2.1818	0.1	3828.5
24727	8.1258	2.4545	0.1	3849.1
24728	8.2181	2.3636	0.1	3825.6
24729	8.1258	2.6364	0.1	3847.1
24730	8.2181	2.5455	0.1	3823.4
24731	8.1258	2.8182	0.1	3846.
24732	8.2181	2.7273	0.1	3821.9
24733	8.1258	3.	0.1	3845.6
24734	8.2181	2.9091	0.1	3821.2
24735	8.1258	3.1818	0.1	3846.
24736	8.2181	3.0909	0.1	3821.2
24737	8.1258	3.3636	0.1	3847.1
24738	8.2181	3.2727	0.1	3821.9
24739	8.1258	3.5455	0.1	3849.1
24740	8.2181	3.4545	0.1	3823.4
24741	8.1258	3.7273	0.1	3851.7
24742	8.2181	3.6364	0.1	3825.6
24743	8.1258	3.9091	0.1	3855.1
24744	8.2181	3.8182	0.1	3828.5
24745	8.1258	4.0909	0.1	3859.2
24746	8.2181	4.	0.1	3832.1
24747	8.1258	4.2727	0.1	3863.9
24748	8.2181	4.1818	0.1	3836.4
24749	8.1258	4.4545	0.1	3869.3
24750	8.2181	4.3636	0.1	3841.3
24751	8.1258	4.6364	0.1	3875.3
24752	8.2181	4.5455	0.1	3846.7
24753	8.1258	4.8182	0.1	3881.8
24754	8.2181	4.7273	0.1	3852.7
24755	8.1258	5.	0.1	3888.7
24756	8.2181	4.9091	0.1	3859.3
24757	8.1258	5.1818	0.1	3896.2
24758	8.2181	5.0909	0.1	3866.2
24759	8.1258	5.3636	0.1	3904.
24760	8.2181	5.2727	0.1	3873.6
24761	8.1258	5.5455	0.1	3912.1
24762	8.2181	5.4545	0.1	3881.3
24763	8.1258	5.7273	0.1	3921.1
24764	8.2181	5.6364	0.1	3889.3
24765	8.2181	5.8182	0.1	3898.7
24766	8.1258	5.9091	0.1	3926.1
24767	8.3105	0.27273	0.1	3866.8
24768	8.4028	0.18182	0.1	3844.3
24769	8.3105	9.0909e-002	0.1	3871.1
24770	8.3105	0.45455	0.1	3858.4
24771	8.4028	0.36364	0.1	3835.5
24772	8.3105	0.63636	0.1	3850.8
24773	8.4028	0.54545	0.1	3828.
24774	8.3105	0.81818	0.1	3843.6
24775	8.4028	0.72727	0.1	3820.8
24776	8.3105	1.	0.1	3836.7
24777	8.4028	0.90909	0.1	3814.
24778	8.3105	1.1818	0.1	3830.2
24779	8.4028	1.0909	0.1	3807.5
24780	8.3105	1.3636	0.1	3824.2
24781	8.4028	1.2727	0.1	3801.5
24782	8.3105	1.5455	0.1	3818.7
24783	8.4028	1.4545	0.1	3795.9
24784	8.3105	1.7273	0.1	3813.7
24785	8.4028	1.6364	0.1	3790.8
24786	8.3105	1.9091	0.1	3809.3
24787	8.4028	1.8182	0.1	3786.3
24788	8.3105	2.0909	0.1	3805.5
24789	8.4028	2.	0.1	3782.3
24790	8.3105	2.2727	0.1	3802.4
24791	8.4028	2.1818	0.1	3779.
24792	8.3105	2.4545	0.1	3799.9
24793	8.4028	2.3636	0.1	3776.3
24794	8.3105	2.6364	0.1	3798.1
24795	8.4028	2.5455	0.1	3774.3
24796	8.3105	2.8182	0.1	3797.1
24797	8.4028	2.7273	0.1	3772.9
24798	8.3105	3.	0.1	3796.7
24799	8.4028	2.9091	0.1	3772.2
24800	8.3105	3.1818	0.1	3797.1
24801	8.4028	3.0909	0.1	3772.2
24802	8.3105	3.3636	0.1	3798.1
24803	8.4028	3.2727	0.1	3772.9
24804	8.3105	3.5455	0.1	3799.9
24805	8.4028	3.4545	0.1	3774.3
24806	8.3105	3.7273	0.1	3802.4
24807	8.4028	3.6364	0.1	3776.3
24808	8.3105	3.9091	0.1	3805.5
24809	8.4028	3.8182	0.1	3779.
24810	8.3105	4.0909	0.1	3809.3
24811	8.4028	4.	0.1	3782.3
24812	8.3105	4.2727	0.1	3813.7
24813	8.4028	4.1818	0.1	3786.3
24814	8.3105	4.4545	0.1	3818.7
24815	8.4028	4.3636	0.1	3790.8
24816	8.3105	4.6364	0.1	3824.2
24817	8.4028	4.5455	0.1	3795.9
24818	8.3105	4.8182	0.1	3830.2
24819	8.4028	4.7273	0.1	3801.5
24820	8.3105	5.	0.1	3836.7
24821	8.4028	4.9091	0.1	3807.5
24822	8.3105	5.1818	0.1	3843.6
24823	8.4028	5.0909	0.1	3814.
24824	8.3105	5.3636	0.1	3850.8
24825	8.4028	5.2727	0.1	3820.8
24826	8.3105	5.5455	0.1	3858.4
24827	8.4028	5.4545	0.1	3828.
24828	8.3105	5.7273	0.1	3866.8
24829	8.4028	5.6364	0.1	3835.5
24830	8.4028	5.8182	0.1	3844.3
24831	8.3105	5.9091	0.1	3871.1
24832	8.4952	0.27273	0.1	3812.8
24833	8.5875	0.18182	0.1	3790.2
24834	8.4952	9.0909e-002	0.1	3816.5
24835	8.4952	0.45455	0.1	3805.
24836	8.5875	0.36364	0.1	3781.8
24837	8.4952	0.63636	0.1	3797.9
24838	8.5875	0.54545	0.1	3774.8
24839	8.4952	0.81818	0.1	3791.2
24840	8.5875	0.72727	0.1	3768.2
24841	8.4952	1.	0.1	3784.8
24842	8.5875	0.90909	0.1	3761.8
24843	8.4952	1.1818	0.1	3778.7
24844	8.5875	1.0909	0.1	3755.8
24845	8.4952	1.3636	0.1	3773.1
24846	8.5875	1.2727	0.1	3750.2
24847	8.4952	1.5455	0.1	3768.
24848	8.5875	1.4545	0.1	3745.
24849	8.4952	1.7273	0.1	3763.4
24850	8.5875	1.6364	0.1	3740.3
24851	8.4952	1.9091	0.1	3759.3
24852	8.5875	1.8182	0.1	3736.1
24853	8.4952	2.0909	0.1	3755.8
24854	8.5875	2.	0.1	3732.5
24855	8.4952	2.2727	0.1	3752.9
24856	8.5875	2.1818	0.1	3729.4
24857	8.4952	2.4545	0.1	3750.6
24858	8.5875	2.3636	0.1	3726.9
24859	8.4952	2.6364	0.1	3749.
24860	8.5875	2.5455	0.1	3725.
24861	8.4952	2.8182	0.1	3748.
24862	8.5875	2.7273	0.1	3723.7
24863	8.4952	3.	0.1	3747.7
24864	8.5875	2.9091	0.1	3723.1
24865	8.4952	3.1818	0.1	3748.
24866	8.5875	3.0909	0.1	3723.1
24867	8.4952	3.3636	0.1	3749.
24868	8.5875	3.2727	0.1	3723.7
24869	8.4952	3.5455	0.1	3750.6
24870	8.5875	3.4545	0.1	3725.
24871	8.4952	3.7273	0.1	3752.9
24872	8.5875	3.6364	0.1	3726.9
24873	8.4952	3.9091	0.1	3755.8
24874	8.5875	3.8182	0.1	3729.4
24875	8.4952	4.0909	0.1	3759.3
24876	8.5875	4.	0.1	3732.5
24877	8.4952	4.2727	0.1	3763.4
24878	8.5875	4.1818	0.1	3736.1
24879	8.4952	4.4545	0.1	3768.
24880	8.5875	4.3636	0.1	3740.3
24881	8.4952	4.6364	0.1	3773.1
24882	8.5875	4.5455	0.1	3745.
24883	8.4952	4.8182	0.1	3778.7
24884	8.5875	4.7273	0.1	3750.2
24885	8.4952	5.	0.1	3784.8
24886	8.5875	4.9091	0.1	3755.8
24887	8.4952	5.1818	0.1	3791.2
24888	8.5875	5.0909	0.1	3761.8
24889	8.4952	5.3636	0.1	3797.9
24890	8.5875	5.2727	0.1	3768.2
24891	8.4952	5.5455	0.1	3805.
24892	8.5875	5.4545	0.1	3774.8
24893	8.4952	5.7273	0.1	3812.8
24894	8.5875	5.6364	0.1	3781.8
24895	8.5875	5.8182	0.1	3790.2
24896	8.4952	5.9091	0.1	3816.5
24897	8.6798	0.27273	0.1	3759.1
24898	8.7722	0.18182	0.1	3736.4
24899	8.6798	9.0909e-002	0.1	3762.1
24900	8.6798	0.45455	0.1	3751.7
24901	8.7722	0.36364	0.1	3728.4
24902	8.6798	0.63636	0.1	3745.1
24903	8.7722	0.54545	0.1	3721.9
24904	8.6798	0.81818	0.1	3738.8
24905	8.7722	0.72727	0.1	3715.7
24906	8.6798	1.	0.1	3732.9
24907	8.7722	0.90909	0.1	3709.8
24908	8.6798	1.1818	0.1	3727.3
24909	8.7722	1.0909	0.1	3704.2
24910	8.6798	1.3636	0.1	3722.1
24911	8.7722	1.2727	0.1	3699.
24912	8.6798	1.5455	0.1	3717.3
24913	8.7722	1.4545	0.1	3694.2
24914	8.6798	1.7273	0.1	3713.1
24915	8.7722	1.6364	0.1	3689.8
24916	8.6798	1.9091	0.1	3709.3
24917	8.7722	1.8182	0.1	3685.9
24918	8.6798	2.0909	0.1	3706.
24919	8.7722	2.	0.1	3682.5
24920	8.6798	2.2727	0.1	3703.3
24921	8.7722	2.1818	0.1	3679.7
24922	8.6798	2.4545	0.1	3701.2
24923	8.7722	2.3636	0.1	3677.3
24924	8.6798	2.6364	0.1	3699.7
24925	8.7722	2.5455	0.1	3675.6
24926	8.6798	2.8182	0.1	3698.8
24927	8.7722	2.7273	0.1	3674.4
24928	8.6798	3.	0.1	3698.5
24929	8.7722	2.9091	0.1	3673.8
24930	8.6798	3.1818	0.1	3698.8
24931	8.7722	3.0909	0.1	3673.8
24932	8.6798	3.3636	0.1	3699.7
24933	8.7722	3.2727	0.1	3674.4
24934	8.6798	3.5455	0.1	3701.2
24935	8.7722	3.4545	0.1	3675.6
24936	8.6798	3.7273	0.1	3703.3
24937	8.7722	3.6364	0.1	3677.3
24938	8.6798	3.9091	0.1	3706.
24939	8.7722	3.8182	0.1	3679.7
24940	8.6798	4.0909	0.1	3709.3
24941	8.7722	4.	0.1	3682.5
24942	8.6798	4.2727	0.1	3713.1
24943	8.7722	4.1818	0.1	3685.9
24944	8.6798	4.4545	0.1	3717.3
24945	8.7722	4.3636	0.1	3689.8
24946	8.6798	4.6364	0.1	3722.1
24947	8.7722	4.5455	0.1	3694.2
24948	8.6798	4.8182	0.1	3727.3
24949	8.7722	4.7273	0.1	3699.
24950	8.6798	5.	0.1	3732.9
24951	8.7722	4.9091	0.1	3704.2
24952	8.6798	5.1818	0.1	3738.8
24953	8.7722	5.0909	0.1	3709.8
24954	8.6798	5.3636	0.1	3745.1
24955	8.7722	5.2727	0.1	3715.7
24956	8.6798	5.5455	0.1	3751.7
24957	8.7722	5.4545	0.1	3721.9
24958	8.6798	5.7273	0.1	3759.1
24959	8.7722	5.6364	0.1	3728.4
24960	8.7722	5.8182	0.1	3736.4
24961	8.6798	5.9091	0.1	3762.1
24962	8.8645	0.27273	0.1	3705.6
24963	8.9569	0.18182	0.1	3682.8
24964	8.8645	9.0909e-002	0.1	3708.
24965	8.8645	0.45455	0.1	3698.6
24966	8.9569	0.36364	0.1	3675.2
24967	8.8645	0.63636	0.1	3692.5
24968	8.9569	0.54545	0.1	3669.2
24969	8.8645	0.81818	0.1	3686.7
24970	8.9569	0.72727	0.1	3663.4
24971	8.8645	1.	0.1	3681.1
24972	8.9569	0.90909	0.1	3657.9
24973	8.8645	1.1818	0.1	3675.9
24974	8.9569	1.0909	0.1	3652.7
24975	8.8645	1.3636	0.1	3671.1
24976	8.9569	1.2727	0.1	3647.8
24977	8.8645	1.5455	0.1	3666.7
24978	8.9569	1.4545	0.1	3643.4
24979	8.8645	1.7273	0.1	3662.7
24980	8.9569	1.6364	0.1	3639.3
24981	8.8645	1.9091	0.1	3659.2
24982	8.9569	1.8182	0.1	3635.7
24983	8.8645	2.0909	0.1	3656.2
24984	8.9569	2.	0.1	3632.5
24985	8.8645	2.2727	0.1	3653.7
24986	8.9569	2.1818	0.1	3629.9
24987	8.8645	2.4545	0.1	3651.7
24988	8.9569	2.3636	0.1	3627.7
24989	8.8645	2.6364	0.1	3650.3
24990	8.9569	2.5455	0.1	3626.1
24991	8.8645	2.8182	0.1	3649.4
24992	8.9569	2.7273	0.1	3625.
24993	8.8645	3.	0.1	3649.1
24994	8.9569	2.9091	0.1	3624.4
24995	8.8645	3.1818	0.1	3649.4
24996	8.9569	3.0909	0.1	3624.4
24997	8.8645	3.3636	0.1	3650.3
24998	8.9569	3.2727	0.1	3625.
24999	8.8645	3.5455	0.1	3651.7
25000	8.9569	3.4545	0.1	3626.1
25001	8.8645	3.7273	0.1	3653.7
25002	8.9569	3.6364	0.1	3627.7
25003	8.8645	3.9091	0.1	3656.2
25004	8.9569	3.8182	0.1	3629.9
25005	8.8645	4.0909	0.1	3659.2
25006	8.9569	4.	0.1	3632.5
25007	8.8645	4.2727	0.1	3662.7
25008	8.9569	4.1818	0.1	3635.7
25009	8.8645	4.4545	0.1	3666.7
25010	8.9569	4.3636	0.1	3639.3
25011	8.8645	4.6364	0.1	3671.1
25012	8.9569	4.5455	0.1	3643.4
25013	8.8645	4.8182	0.1	3675.9
25014	8.9569	4.7273	0.1	3647.8
25015	8.8645	5.	0.1	3681.1
25016	8.9569	4.9091	0.1	3652.7
25017	8.8645	5.1818	0.1	3686.7
25018	8.9569	5.0909	0.1	3657.9
25019	8.8645	5.3636	0.1	3692.5
25020	8.9569	5.2727	0.1	3663.4
25021	8.8645	5.5455	0.1	3698.6
25022	8.9569	5.4545	0.1	3669.2
25023	8.8645	5.7273	0.1	3705.6
25024	8.9569	5.6364	0.1	3675.2
25025	8.9569	5.8182	0.1	3682.8
25026	8.8645	5.9091	0.1	3708.
25027	9.0492	0.27273	0.1	3652.3
25028	9.1415	0.18182	0.1	3629.5
25029	9.0492	9.0909e-002	0.1	3654.1
25030	9.0492	0.45455	0.1	3645.7
25031	9.1415	0.36364	0.1	3622.3
25032	9.0492	0.63636	0.1	3640.
25033	9.1415	0.54545	0.1	3616.6
25034	9.0492	0.81818	0.1	3634.6
25035	9.1415	0.72727	0.1	3611.2
25036	9.0492	1.	0.1	3629.4
25037	9.1415	0.90909	0.1	3606.1
25038	9.0492	1.1818	0.1	3624.6
25039	9.1415	1.0909	0.1	3601.3
25040	9.0492	1.3636	0.1	3620.1
25041	9.1415	1.2727	0.1	3596.7
25042	9.0492	1.5455	0.1	3616.
25043	9.1415	1.4545	0.1	3592.6
25044	9.0492	1.7273	0.1	3612.3
25045	9.1415	1.6364	0.1	3588.8
25046	9.0492	1.9091	0.1	3609.
25047	9.1415	1.8182	0.1	3585.4
25048	9.0492	2.0909	0.1	3606.2
25049	9.1415	2.	0.1	3582.5
25050	9.0492	2.2727	0.1	3603.9
25051	9.1415	2.1818	0.1	3580.
25052	9.0492	2.4545	0.1	3602.1
25053	9.1415	2.3636	0.1	3578.
25054	9.0492	2.6364	0.1	3600.8
25055	9.1415	2.5455	0.1	3576.5
25056	9.0492	2.8182	0.1	3600.
25057	9.1415	2.7273	0.1	3575.5
25058	9.0492	3.	0.1	3599.7
25059	9.1415	2.9091	0.1	3575.
25060	9.0492	3.1818	0.1	3600.
25061	9.1415	3.0909	0.1	3575.
25062	9.0492	3.3636	0.1	3600.8
25063	9.1415	3.2727	0.1	3575.5
25064	9.0492	3.5455	0.1	3602.1
25065	9.1415	3.4545	0.1	3576.5
25066	9.0492	3.7273	0.1	3603.9
25067	9.1415	3.6364	0.1	3578.
25068	9.0492	3.9091	0.1	3606.2
25069	9.1415	3.8182	0.1	3580.
25070	9.0492	4.0909	0.1	3609.
25071	9.1415	4.	0.1	3582.5
25072	9.0492	4.2727	0.1	3612.3
25073	9.1415	4.1818	0.1	3585.4
25074	9.0492	4.4545	0.1	3616.
25075	9.1415	4.3636	0.1	3588.8
25076	9.0492	4.6364	0.1	3620.1
25077	9.1415	4.5455	0.1	3592.6
25078	9.0492	4.8182	0.1	3624.6
25079	9.1415	4.7273	0.1	3596.7
25080	9.0492	5.	0.1	3629.4
25081	9.1415	4.9091	0.1	3601.3
25082	9.0492	5.1818	0.1	3634.6
25083	9.1415	5.0909	0.1	3606.1
25084	9.0492	5.3636	0.1	3640.
25085	9.1415	5.2727	0.1	3611.2
25086	9.0492	5.5455	0.1	3645.7
25087	9.1415	5.4545	0.1	3616.6
25088	9.0492	5.7273	0.1	3652.3
25089	9.1415	5.6364	0.1	3622.3
25090	9.1415	5.8182	0.1	3629.5
25091	9.0492	5.9091	0.1	3654.1
25092	9.2339	0.27273	0.1	3599.3
25093	9.3262	0.18182	0.1	3576.4
25094	9.2339	9.0909e-002	0.1	3600.6
25095	9.2339	0.45455	0.1	3593.1
25096	9.3262	0.36364	0.1	3569.5
25097	9.2339	0.63636	0.1	3587.7
25098	9.3262	0.54545	0.1	3564.2
25099	9.2339	0.81818	0.1	3582.7
25100	9.3262	0.72727	0.1	3559.2
25101	9.2339	1.	0.1	3577.9
25102	9.3262	0.90909	0.1	3554.4
25103	9.2339	1.1818	0.1	3573.4
25104	9.3262	1.0909	0.1	3549.9
25105	9.2339	1.3636	0.1	3569.2
25106	9.3262	1.2727	0.1	3545.7
25107	9.2339	1.5455	0.1	3565.4
25108	9.3262	1.4545	0.1	3541.8
25109	9.2339	1.7273	0.1	3561.9
25110	9.3262	1.6364	0.1	3538.3
25111	9.2339	1.9091	0.1	3558.9
25112	9.3262	1.8182	0.1	3535.2
25113	9.2339	2.0909	0.1	3556.3
25114	9.3262	2.	0.1	3532.5
25115	9.2339	2.2727	0.1	3554.1
25116	9.3262	2.1818	0.1	3530.2
25117	9.2339	2.4545	0.1	3552.4
25118	9.3262	2.3636	0.1	3528.3
25119	9.2339	2.6364	0.1	3551.2
25120	9.3262	2.5455	0.1	3526.9
25121	9.2339	2.8182	0.1	3550.5
25122	9.3262	2.7273	0.1	3526.
25123	9.2339	3.	0.1	3550.2
25124	9.3262	2.9091	0.1	3525.5
25125	9.2339	3.1818	0.1	3550.5
25126	9.3262	3.0909	0.1	3525.5
25127	9.2339	3.3636	0.1	3551.2
25128	9.3262	3.2727	0.1	3526.
25129	9.2339	3.5455	0.1	3552.4
25130	9.3262	3.4545	0.1	3526.9
25131	9.2339	3.7273	0.1	3554.1
25132	9.3262	3.6364	0.1	3528.3
25133	9.2339	3.9091	0.1	3556.3
25134	9.3262	3.8182	0.1	3530.2
25135	9.2339	4.0909	0.1	3558.9
25136	9.3262	4.	0.1	3532.5
25137	9.2339	4.2727	0.1	3561.9
25138	9.3262	4.1818	0.1	3535.2
25139	9.2339	4.4545	0.1	3565.4
25140	9.3262	4.3636	0.1	3538.3
25141	9.2339	4.6364	0.1	3569.2
25142	9.3262	4.5455	0.1	3541.8
25143	9.2339	4.8182	0.1	3573.4
25144	9.3262	4.7273	0.1	3545.7
25145	9.2339	5.	0.1	3577.9
25146	9.3262	4.9091	0.1	3549.9
25147	9.2339	5.1818	0.1	3582.7
25148	9.3262	5.0909	0.1	3554.4
25149	9.2339	5.3636	0.1	3587.7
25150	9.3262	5.2727	0.1	3559.2
25151	9.2339	5.5455	0.1	3593.1
25152	9.3262	5.4545	0.1	3564.2
25153	9.2339	5.7273	0.1	3599.3
25154	9.3262	5.6364	0.1	3569.5
25155	9.3262	5.8182	0.1	3576.4
25156	9.2339	5.9091	0.1	3600.6
25157	9.4185	0.27273	0.1	3546.5
25158	9.5109	0.18182	0.1	3523.6
25159	9.4185	9.0909e-002	0.1	3547.3
25160	9.4185	0.45455	0.1	3540.6
25161	9.5109	0.36364	0.1	3517.
25162	9.4185	0.63636	0.1	3535.6
25163	9.5109	0.54545	0.1	3512.
25164	9.4185	0.81818	0.1	3530.9
25165	9.5109	0.72727	0.1	3507.3
25166	9.4185	1.	0.1	3526.4
25167	9.5109	0.90909	0.1	3502.9
25168	9.4185	1.1818	0.1	3522.2
25169	9.5109	1.0909	0.1	3498.7
25170	9.4185	1.3636	0.1	3518.3
25171	9.5109	1.2727	0.1	3494.8
25172	9.4185	1.5455	0.1	3514.8
25173	9.5109	1.4545	0.1	3491.2
25174	9.4185	1.7273	0.1	3511.6
25175	9.5109	1.6364	0.1	3487.9
25176	9.4185	1.9091	0.1	3508.8
25177	9.5109	1.8182	0.1	3485.
25178	9.4185	2.0909	0.1	3506.3
25179	9.5109	2.	0.1	3482.4
25180	9.4185	2.2727	0.1	3504.3
25181	9.5109	2.1818	0.1	3480.3
25182	9.4185	2.4545	0.1	3502.8
25183	9.5109	2.3636	0.1	3478.6
25184	9.4185	2.6364	0.1	3501.6
25185	9.5109	2.5455	0.1	3477.3
25186	9.4185	2.8182	0.1	3500.9
25187	9.5109	2.7273	0.1	3476.4
25188	9.4185	3.	0.1	3500.7
25189	9.5109	2.9091	0.1	3475.9
25190	9.4185	3.1818	0.1	3500.9
25191	9.5109	3.0909	0.1	3475.9
25192	9.4185	3.3636	0.1	3501.6
25193	9.5109	3.2727	0.1	3476.4
25194	9.4185	3.5455	0.1	3502.8
25195	9.5109	3.4545	0.1	3477.3
25196	9.4185	3.7273	0.1	3504.3
25197	9.5109	3.6364	0.1	3478.6
25198	9.4185	3.9091	0.1	3506.3
25199	9.5109	3.8182	0.1	3480.3
25200	9.4185	4.0909	0.1	3508.8
25201	9.5109	4.	0.1	3482.4
25202	9.4185	4.2727	0.1	3511.6
25203	9.5109	4.1818	0.1	3485.
25204	9.4185	4.4545	0.1	3514.8
25205	9.5109	4.3636	0.1	3487.9
25206	9.4185	4.6364	0.1	3518.3
25207	9.5109	4.5455	0.1	3491.2
25208	9.4185	4.8182	0.1	3522.2
25209	9.5109	4.7273	0.1	3494.8
25210	9.4185	5.	0.1	3526.4
25211	9.5109	4.9091	0.1	3498.7
25212	9.4185	5.1818	0.1	3530.9
25213	9.5109	5.0909	0.1	3502.9
25214	9.4185	5.3636	0.1	3535.6
25215	9.5109	5.2727	0.1	3507.3
25216	9.4185	5.5455	0.1	3540.6
25217	9.5109	5.4545	0.1	3512.
25218	9.4185	5.7273	0.1	3546.5
25219	9.5109	5.6364	0.1	3517.
25220	9.5109	5.8182	0.1	3523.6
25221	9.4185	5.9091	0.1	3547.3
25222	9.6032	0.27273	0.1	3494.
25223	9.6956	0.18182	0.1	3471.
25224	9.6032	9.0909e-002	0.1	3494.3
25225	9.6032	0.45455	0.1	3488.4
25226	9.6956	0.36364	0.1	3464.7
25227	9.6032	0.63636	0.1	3483.7
25228	9.6956	0.54545	0.1	3460.
25229	9.6032	0.81818	0.1	3479.3
25230	9.6956	0.72727	0.1	3455.6
25231	9.6032	1.	0.1	3475.1
25232	9.6956	0.90909	0.1	3451.5
25233	9.6032	1.1818	0.1	3471.2
25234	9.6956	1.0909	0.1	3447.5
25235	9.6032	1.3636	0.1	3467.6
25236	9.6956	1.2727	0.1	3443.9
25237	9.6032	1.5455	0.1	3464.2
25238	9.6956	1.4545	0.1	3440.5
25239	9.6032	1.7273	0.1	3461.3
25240	9.6956	1.6364	0.1	3437.5
25241	9.6032	1.9091	0.1	3458.6
25242	9.6956	1.8182	0.1	3434.8
25243	9.6032	2.0909	0.1	3456.4
25244	9.6956	2.	0.1	3432.4
25245	9.6032	2.2727	0.1	3454.5
25246	9.6956	2.1818	0.1	3430.4
25247	9.6032	2.4545	0.1	3453.
25248	9.6956	2.3636	0.1	3428.8
25249	9.6032	2.6364	0.1	3452.
25250	9.6956	2.5455	0.1	3427.6
25251	9.6032	2.8182	0.1	3451.4
25252	9.6956	2.7273	0.1	3426.8
25253	9.6032	3.	0.1	3451.1
25254	9.6956	2.9091	0.1	3426.4
25255	9.6032	3.1818	0.1	3451.4
25256	9.6956	3.0909	0.1	3426.4
25257	9.6032	3.3636	0.1	3452.
25258	9.6956	3.2727	0.1	3426.8
25259	9.6032	3.5455	0.1	3453.
25260	9.6956	3.4545	0.1	3427.6
25261	9.6032	3.7273	0.1	3454.5
25262	9.6956	3.6364	0.1	3428.8
25263	9.6032	3.9091	0.1	3456.4
25264	9.6956	3.8182	0.1	3430.4
25265	9.6032	4.0909	0.1	3458.6
25266	9.6956	4.	0.1	3432.4
25267	9.6032	4.2727	0.1	3461.3
25268	9.6956	4.1818	0.1	3434.8
25269	9.6032	4.4545	0.1	3464.2
25270	9.6956	4.3636	0.1	3437.5
25271	9.6032	4.6364	0.1	3467.6
25272	9.6956	4.5455	0.1	3440.5
25273	9.6032	4.8182	0.1	3471.2
25274	9.6956	4.7273	0.1	3443.9
25275	9.6032	5.	0.1	3475.1
25276	9.6956	4.9091	0.1	3447.5
25277	9.6032	5.1818	0.1	3479.3
25278	9.6956	5.0909	0.1	3451.5
25279	9.6032	5.3636	0.1	3483.7
25280	9.6956	5.2727	0.1	3455.6
25281	9.6032	5.5455	0.1	3488.4
25282	9.6956	5.4545	0.1	3460.
25283	9.6032	5.7273	0.1	3494.
25284	9.6956	5.6364	0.1	3464.7
25285	9.6956	5.8182	0.1	3471.
25286	9.6032	5.9091	0.1	3494.3
25287	9.7879	0.27273	0.1	3441.6
25288	9.8802	0.18182	0.1	3418.7
25289	9.7879	9.0909e-002	0.1	3441.5
25290	9.7879	0.45455	0.1	3436.3
25291	9.8802	0.36364	0.1	3412.6
25292	9.7879	0.63636	0.1	3431.9
25293	9.8802	0.54545	0.1	3408.2
25294	9.7879	0.81818	0.1	3427.8
25295	9.8802	0.72727	0.1	3404.1
25296	9.7879	1.	0.1	3423.9
25297	9.8802	0.90909	0.1	3400.2
25298	9.7879	1.1818	0.1	3420.2
25299	9.8802	1.0909	0.1	3396.5
25300	9.7879	1.3636	0.1	3416.8
25301	9.8802	1.2727	0.1	3393.1
25302	9.7879	1.5455	0.1	3413.8
25303	9.8802	1.4545	0.1	3390.
25304	9.7879	1.7273	0.1	3411.
25305	9.8802	1.6364	0.1	3387.1
25306	9.7879	1.9091	0.1	3408.5
25307	9.8802	1.8182	0.1	3384.6
25308	9.7879	2.0909	0.1	3406.4
25309	9.8802	2.	0.1	3382.4
25310	9.7879	2.2727	0.1	3404.7
25311	9.8802	2.1818	0.1	3380.5
25312	9.7879	2.4545	0.1	3403.3
25313	9.8802	2.3636	0.1	3379.
25314	9.7879	2.6364	0.1	3402.3
25315	9.8802	2.5455	0.1	3377.9
25316	9.7879	2.8182	0.1	3401.7
25317	9.8802	2.7273	0.1	3377.2
25318	9.7879	3.	0.1	3401.6
25319	9.8802	2.9091	0.1	3376.8
25320	9.7879	3.1818	0.1	3401.7
25321	9.8802	3.0909	0.1	3376.8
25322	9.7879	3.3636	0.1	3402.3
25323	9.8802	3.2727	0.1	3377.2
25324	9.7879	3.5455	0.1	3403.3
25325	9.8802	3.4545	0.1	3377.9
25326	9.7879	3.7273	0.1	3404.7
25327	9.8802	3.6364	0.1	3379.
25328	9.7879	3.9091	0.1	3406.4
25329	9.8802	3.8182	0.1	3380.5
25330	9.7879	4.0909	0.1	3408.5
25331	9.8802	4.	0.1	3382.4
25332	9.7879	4.2727	0.1	3411.
25333	9.8802	4.1818	0.1	3384.6
25334	9.7879	4.4545	0.1	3413.8
25335	9.8802	4.3636	0.1	3387.1
25336	9.7879	4.6364	0.1	3416.8
25337	9.8802	4.5455	0.1	3390.
25338	9.7879	4.8182	0.1	3420.2
25339	9.8802	4.7273	0.1	3393.1
25340	9.7879	5.	0.1	3423.9
25341	9.8802	4.9091	0.1	3396.5
25342	9.7879	5.1818	0.1	3427.8
25343	9.8802	5.0909	0.1	3400.2
25344	9.7879	5.3636	0.1	3431.9
25345	9.8802	5.2727	0.1	3404.1
25346	9.7879	5.5455	0.1	3436.3
25347	9.8802	5.4545	0.1	3408.2
25348	9.7879	5.7273	0.1	3441.6
25349	9.8802	5.6364	0.1	3412.6
25350	9.8802	5.8182	0.1	3418.7
25351	9.7879	5.9091	0.1	3441.5
25352	9.9726	0.27273	0.1	3389.5
25353	10.065	0.18182	0.1	3366.6
25354	9.9726	9.0909e-002	0.1	3389.
25355	9.9726	0.45455	0.1	3384.4
25356	10.065	0.36364	0.1	3360.7
25357	9.9726	0.63636	0.1	3380.3
25358	10.065	0.54545	0.1	3356.6
25359	9.9726	0.81818	0.1	3376.5
25360	10.065	0.72727	0.1	3352.7
25361	9.9726	1.	0.1	3372.8
25362	10.065	0.90909	0.1	3349.1
25363	9.9726	1.1818	0.1	3369.4
25364	10.065	1.0909	0.1	3345.6
25365	9.9726	1.3636	0.1	3366.2
25366	10.065	1.2727	0.1	3342.5
25367	9.9726	1.5455	0.1	3363.3
25368	10.065	1.4545	0.1	3339.5
25369	9.9726	1.7273	0.1	3360.8
25370	10.065	1.6364	0.1	3336.9
25371	9.9726	1.9091	0.1	3358.5
25372	10.065	1.8182	0.1	3334.5
25373	9.9726	2.0909	0.1	3356.5
25374	10.065	2.	0.1	3332.5
25375	9.9726	2.2727	0.1	3354.9
25376	10.065	2.1818	0.1	3330.7
25377	9.9726	2.4545	0.1	3353.6
25378	10.065	2.3636	0.1	3329.3
25379	9.9726	2.6364	0.1	3352.7
25380	10.065	2.5455	0.1	3328.3
25381	9.9726	2.8182	0.1	3352.2
25382	10.065	2.7273	0.1	3327.6
25383	9.9726	3.	0.1	3352.
25384	10.065	2.9091	0.1	3327.2
25385	9.9726	3.1818	0.1	3352.2
25386	10.065	3.0909	0.1	3327.2
25387	9.9726	3.3636	0.1	3352.7
25388	10.065	3.2727	0.1	3327.6
25389	9.9726	3.5455	0.1	3353.6
25390	10.065	3.4545	0.1	3328.3
25391	9.9726	3.7273	0.1	3354.9
25392	10.065	3.6364	0.1	3329.3
25393	9.9726	3.9091	0.1	3356.5
25394	10.065	3.8182	0.1	3330.7
25395	9.9726	4.0909	0.1	3358.5
25396	10.065	4.	0.1	3332.5
25397	9.9726	4.2727	0.1	3360.8
25398	10.065	4.1818	0.1	3334.5
25399	9.9726	4.4545	0.1	3363.3
25400	10.065	4.3636	0.1	3336.9
25401	9.9726	4.6364	0.1	3366.2
25402	10.065	4.5455	0.1	3339.5
25403	9.9726	4.8182	0.1	3369.4
25404	10.065	4.7273	0.1	3342.5
25405	9.9726	5.	0.1	3372.8
25406	10.065	4.9091	0.1	3345.6
25407	9.9726	5.1818	0.1	3376.5
25408	10.065	5.0909	0.1	3349.1
25409	9.9726	5.3636	0.1	3380.3
25410	10.065	5.2727	0.1	3352.7
25411	9.9726	5.5455	0.1	3384.4
25412	10.065	5.4545	0.1	3356.6
25413	9.9726	5.7273	0.1	3389.5
25414	10.065	5.6364	0.1	3360.7
25415	10.065	5.8182	0.1	3366.6
25416	9.9726	5.9091	0.1	3389.
25417	10.157	0.27273	0.1	3337.6
25418	10.25	0.18182	0.1	3314.7
25419	10.157	9.0909e-002	0.1	3336.7
25420	10.157	0.45455	0.1	3332.8
25421	10.25	0.36364	0.1	3309.
25422	10.157	0.63636	0.1	3328.9
25423	10.25	0.54545	0.1	3305.1
25424	10.157	0.81818	0.1	3325.3
25425	10.25	0.72727	0.1	3301.5
25426	10.157	1.	0.1	3321.9
25427	10.25	0.90909	0.1	3298.1
25428	10.157	1.1818	0.1	3318.7
25429	10.25	1.0909	0.1	3294.9
25430	10.157	1.3636	0.1	3315.7
25431	10.25	1.2727	0.1	3291.9
25432	10.157	1.5455	0.1	3313.
25433	10.25	1.4545	0.1	3289.2
25434	10.157	1.7273	0.1	3310.6
25435	10.25	1.6364	0.1	3286.7
25436	10.157	1.9091	0.1	3308.5
25437	10.25	1.8182	0.1	3284.5
25438	10.157	2.0909	0.1	3306.6
25439	10.25	2.	0.1	3282.6
25440	10.157	2.2727	0.1	3305.1
25441	10.25	2.1818	0.1	3280.9
25442	10.157	2.4545	0.1	3303.9
25443	10.25	2.3636	0.1	3279.6
25444	10.157	2.6364	0.1	3303.1
25445	10.25	2.5455	0.1	3278.6
25446	10.157	2.8182	0.1	3302.6
25447	10.25	2.7273	0.1	3278.
25448	10.157	3.	0.1	3302.4
25449	10.25	2.9091	0.1	3277.6
25450	10.157	3.1818	0.1	3302.6
25451	10.25	3.0909	0.1	3277.6
25452	10.157	3.3636	0.1	3303.1
25453	10.25	3.2727	0.1	3278.
25454	10.157	3.5455	0.1	3303.9
25455	10.25	3.4545	0.1	3278.6
25456	10.157	3.7273	0.1	3305.1
25457	10.25	3.6364	0.1	3279.6
25458	10.157	3.9091	0.1	3306.6
25459	10.25	3.8182	0.1	3280.9
25460	10.157	4.0909	0.1	3308.5
25461	10.25	4.	0.1	3282.5
25462	10.157	4.2727	0.1	3310.6
25463	10.25	4.1818	0.1	3284.5
25464	10.157	4.4545	0.1	3313.
25465	10.25	4.3636	0.1	3286.7
25466	10.157	4.6364	0.1	3315.7
25467	10.25	4.5455	0.1	3289.2
25468	10.157	4.8182	0.1	3318.7
25469	10.25	4.7273	0.1	3291.9
25470	10.157	5.	0.1	3321.9
25471	10.25	4.9091	0.1	3294.9
25472	10.157	5.1818	0.1	3325.3
25473	10.25	5.0909	0.1	3298.1
25474	10.157	5.3636	0.1	3328.9
25475	10.25	5.2727	0.1	3301.5
25476	10.157	5.5455	0.1	3332.8
25477	10.25	5.4545	0.1	3305.1
25478	10.157	5.7273	0.1	3337.6
25479	10.25	5.6364	0.1	3309.
25480	10.25	5.8182	0.1	3314.7
25481	10.157	5.9091	0.1	3336.7
25482	10.342	0.27273	0.1	3285.9
25483	10.434	0.18182	0.1	3263.
25484	10.342	9.0909e-002	0.1	3284.7
25485	10.342	0.45455	0.1	3281.3
25486	10.434	0.36364	0.1	3257.5
25487	10.342	0.63636	0.1	3277.7
25488	10.434	0.54545	0.1	3253.9
25489	10.342	0.81818	0.1	3274.3
25490	10.434	0.72727	0.1	3250.5
25491	10.342	1.	0.1	3271.1
25492	10.434	0.90909	0.1	3247.3
25493	10.342	1.1818	0.1	3268.1
25494	10.434	1.0909	0.1	3244.3
25495	10.342	1.3636	0.1	3265.3
25496	10.434	1.2727	0.1	3241.5
25497	10.342	1.5455	0.1	3262.8
25498	10.434	1.4545	0.1	3238.9
25499	10.342	1.7273	0.1	3260.5
25500	10.434	1.6364	0.1	3236.6
25501	10.342	1.9091	0.1	3258.5
25502	10.434	1.8182	0.1	3234.5
25503	10.342	2.0909	0.1	3256.8
25504	10.434	2.	0.1	3232.7
25505	10.342	2.2727	0.1	3255.4
25506	10.434	2.1818	0.1	3231.2
25507	10.342	2.4545	0.1	3254.3
25508	10.434	2.3636	0.1	3230.
25509	10.342	2.6364	0.1	3253.5
25510	10.434	2.5455	0.1	3229.1
25511	10.342	2.8182	0.1	3253.
25512	10.434	2.7273	0.1	3228.4
25513	10.342	3.	0.1	3252.9
25514	10.434	2.9091	0.1	3228.1
25515	10.342	3.1818	0.1	3253.
25516	10.434	3.0909	0.1	3228.1
25517	10.342	3.3636	0.1	3253.5
25518	10.434	3.2727	0.1	3228.4
25519	10.342	3.5455	0.1	3254.3
25520	10.434	3.4545	0.1	3229.1
25521	10.342	3.7273	0.1	3255.4
25522	10.434	3.6364	0.1	3230.
25523	10.342	3.9091	0.1	3256.8
25524	10.434	3.8182	0.1	3231.2
25525	10.342	4.0909	0.1	3258.5
25526	10.434	4.	0.1	3232.7
25527	10.342	4.2727	0.1	3260.5
25528	10.434	4.1818	0.1	3234.5
25529	10.342	4.4545	0.1	3262.8
25530	10.434	4.3636	0.1	3236.6
25531	10.342	4.6364	0.1	3265.3
25532	10.434	4.5455	0.1	3238.9
25533	10.342	4.8182	0.1	3268.1
25534	10.434	4.7273	0.1	3241.5
25535	10.342	5.	0.1	3271.1
25536	10.434	4.9091	0.1	3244.3
25537	10.342	5.1818	0.1	3274.3
25538	10.434	5.0909	0.1	3247.3
25539	10.342	5.3636	0.1	3277.7
25540	10.434	5.2727	0.1	3250.5
25541	10.342	5.5455	0.1	3281.3
25542	10.434	5.4545	0.1	3253.9
25543	10.342	5.7273	0.1	3285.9
25544	10.434	5.6364	0.1	3257.5
25545	10.434	5.8182	0.1	3263.
25546	10.342	5.9091	0.1	3284.7
25547	10.527	0.27273	0.1	3234.5
25548	10.619	0.18182	0.1	3211.6
25549	10.527	9.0909e-002	0.1	3232.9
25550	10.527	0.45455	0.1	3230.
25551	10.619	0.36364	0.1	3206.2
25552	10.527	0.63636	0.1	3226.6
25553	10.619	0.54545	0.1	3202.8
25554	10.527	0.81818	0.1	3223.4
25555	10.619	0.72727	0.1	3199.6
25556	10.527	1.	0.1	3220.4
25557	10.619	0.90909	0.1	3196.6
25558	10.527	1.1818	0.1	3217.6
25559	10.619	1.0909	0.1	3193.8
25560	10.527	1.3636	0.1	3215.
25561	10.619	1.2727	0.1	3191.2
25562	10.527	1.5455	0.1	3212.7
25563	10.619	1.4545	0.1	3188.7
25564	10.527	1.7273	0.1	3210.5
25565	10.619	1.6364	0.1	3186.6
25566	10.527	1.9091	0.1	3208.7
25567	10.619	1.8182	0.1	3184.6
25568	10.527	2.0909	0.1	3207.1
25569	10.619	2.	0.1	3183.
25570	10.527	2.2727	0.1	3205.8
25571	10.619	2.1818	0.1	3181.5
25572	10.527	2.4545	0.1	3204.7
25573	10.619	2.3636	0.1	3180.4
25574	10.527	2.6364	0.1	3204.
25575	10.619	2.5455	0.1	3179.5
25576	10.527	2.8182	0.1	3203.5
25577	10.619	2.7273	0.1	3179.
25578	10.527	3.	0.1	3203.4
25579	10.619	2.9091	0.1	3178.7
25580	10.527	3.1818	0.1	3203.5
25581	10.619	3.0909	0.1	3178.7
25582	10.527	3.3636	0.1	3204.
25583	10.619	3.2727	0.1	3179.
25584	10.527	3.5455	0.1	3204.7
25585	10.619	3.4545	0.1	3179.5
25586	10.527	3.7273	0.1	3205.8
25587	10.619	3.6364	0.1	3180.4
25588	10.527	3.9091	0.1	3207.1
25589	10.619	3.8182	0.1	3181.5
25590	10.527	4.0909	0.1	3208.7
25591	10.619	4.	0.1	3183.
25592	10.527	4.2727	0.1	3210.5
25593	10.619	4.1818	0.1	3184.6
25594	10.527	4.4545	0.1	3212.7
25595	10.619	4.3636	0.1	3186.6
25596	10.527	4.6364	0.1	3215.
25597	10.619	4.5455	0.1	3188.7
25598	10.527	4.8182	0.1	3217.6
25599	10.619	4.7273	0.1	3191.2
25600	10.527	5.	0.1	3220.4
25601	10.619	4.9091	0.1	3193.8
25602	10.527	5.1818	0.1	3223.4
25603	10.619	5.0909	0.1	3196.6
25604	10.527	5.3636	0.1	3226.6
25605	10.619	5.2727	0.1	3199.6
25606	10.527	5.5455	0.1	3230.
25607	10.619	5.4545	0.1	3202.8
25608	10.527	5.7273	0.1	3234.5
25609	10.619	5.6364	0.1	3206.2
25610	10.619	5.8182	0.1	3211.6
25611	10.527	5.9091	0.1	3232.9
25612	10.711	0.27273	0.1	3183.2
25613	10.804	0.18182	0.1	3160.4
25614	10.711	9.0909e-002	0.1	3181.3
25615	10.711	0.45455	0.1	3179.
25616	10.804	0.36364	0.1	3155.2
25617	10.711	0.63636	0.1	3175.8
25618	10.804	0.54545	0.1	3151.9
25619	10.711	0.81818	0.1	3172.7
25620	10.804	0.72727	0.1	3148.9
25621	10.711	1.	0.1	3169.9
25622	10.804	0.90909	0.1	3146.1
25623	10.711	1.1818	0.1	3167.3
25624	10.804	1.0909	0.1	3143.4
25625	10.711	1.3636	0.1	3164.8
25626	10.804	1.2727	0.1	3141.
25627	10.711	1.5455	0.1	3162.6
25628	10.804	1.4545	0.1	3138.7
25629	10.711	1.7273	0.1	3160.6
25630	10.804	1.6364	0.1	3136.7
25631	10.711	1.9091	0.1	3158.9
25632	10.804	1.8182	0.1	3134.9
25633	10.711	2.0909	0.1	3157.4
25634	10.804	2.	0.1	3133.3
25635	10.711	2.2727	0.1	3156.2
25636	10.804	2.1818	0.1	3132.
25637	10.711	2.4545	0.1	3155.2
25638	10.804	2.3636	0.1	3130.9
25639	10.711	2.6364	0.1	3154.5
25640	10.804	2.5455	0.1	3130.1
25641	10.711	2.8182	0.1	3154.1
25642	10.804	2.7273	0.1	3129.5
25643	10.711	3.	0.1	3153.9
25644	10.804	2.9091	0.1	3129.3
25645	10.711	3.1818	0.1	3154.1
25646	10.804	3.0909	0.1	3129.3
25647	10.711	3.3636	0.1	3154.5
25648	10.804	3.2727	0.1	3129.5
25649	10.711	3.5455	0.1	3155.2
25650	10.804	3.4545	0.1	3130.1
25651	10.711	3.7273	0.1	3156.2
25652	10.804	3.6364	0.1	3130.9
25653	10.711	3.9091	0.1	3157.4
25654	10.804	3.8182	0.1	3132.
25655	10.711	4.0909	0.1	3158.9
25656	10.804	4.	0.1	3133.3
25657	10.711	4.2727	0.1	3160.6
25658	10.804	4.1818	0.1	3134.9
25659	10.711	4.4545	0.1	3162.6
25660	10.804	4.3636	0.1	3136.7
25661	10.711	4.6364	0.1	3164.8
25662	10.804	4.5455	0.1	3138.7
25663	10.711	4.8182	0.1	3167.3
25664	10.804	4.7273	0.1	3141.
25665	10.711	5.	0.1	3169.9
25666	10.804	4.9091	0.1	3143.4
25667	10.711	5.1818	0.1	3172.7
25668	10.804	5.0909	0.1	3146.1
25669	10.711	5.3636	0.1	3175.8
25670	10.804	5.2727	0.1	3148.9
25671	10.711	5.5455	0.1	3179.
25672	10.804	5.4545	0.1	3151.9
25673	10.711	5.7273	0.1	3183.2
25674	10.804	5.6364	0.1	3155.2
25675	10.804	5.8182	0.1	3160.4
25676	10.711	5.9091	0.1	3181.3
25677	10.896	0.27273	0.1	3132.2
25678	10.988	0.18182	0.1	3109.4
25679	10.896	9.0909e-002	0.1	3130.
25680	10.896	0.45455	0.1	3128.1
25681	10.988	0.36364	0.1	3104.3
25682	10.896	0.63636	0.1	3125.1
25683	10.988	0.54545	0.1	3101.2
25684	10.896	0.81818	0.1	3122.2
25685	10.988	0.72727	0.1	3098.4
25686	10.896	1.	0.1	3119.6
25687	10.988	0.90909	0.1	3095.7
25688	10.896	1.1818	0.1	3117.1
25689	10.988	1.0909	0.1	3093.2
25690	10.896	1.3636	0.1	3114.8
25691	10.988	1.2727	0.1	3090.9
25692	10.896	1.5455	0.1	3112.7
25693	10.988	1.4545	0.1	3088.8
25694	10.896	1.7273	0.1	3110.9
25695	10.988	1.6364	0.1	3086.9
25696	10.896	1.9091	0.1	3109.2
25697	10.988	1.8182	0.1	3085.2
25698	10.896	2.0909	0.1	3107.8
25699	10.988	2.	0.1	3083.7
25700	10.896	2.2727	0.1	3106.7
25701	10.988	2.1818	0.1	3082.5
25702	10.896	2.4545	0.1	3105.8
25703	10.988	2.3636	0.1	3081.5
25704	10.896	2.6364	0.1	3105.1
25705	10.988	2.5455	0.1	3080.7
25706	10.896	2.8182	0.1	3104.7
25707	10.988	2.7273	0.1	3080.2
25708	10.896	3.	0.1	3104.6
25709	10.988	2.9091	0.1	3079.9
25710	10.896	3.1818	0.1	3104.7
25711	10.988	3.0909	0.1	3079.9
25712	10.896	3.3636	0.1	3105.1
25713	10.988	3.2727	0.1	3080.2
25714	10.896	3.5455	0.1	3105.8
25715	10.988	3.4545	0.1	3080.7
25716	10.896	3.7273	0.1	3106.7
25717	10.988	3.6364	0.1	3081.5
25718	10.896	3.9091	0.1	3107.8
25719	10.988	3.8182	0.1	3082.5
25720	10.896	4.0909	0.1	3109.2
25721	10.988	4.	0.1	3083.7
25722	10.896	4.2727	0.1	3110.9
25723	10.988	4.1818	0.1	3085.2
25724	10.896	4.4545	0.1	3112.7
25725	10.988	4.3636	0.1	3086.9
25726	10.896	4.6364	0.1	3114.8
25727	10.988	4.5455	0.1	3088.8
25728	10.896	4.8182	0.1	3117.1
25729	10.988	4.7273	0.1	3090.9
25730	10.896	5.	0.1	3119.6
25731	10.988	4.9091	0.1	3093.2
25732	10.896	5.1818	0.1	3122.2
25733	10.988	5.0909	0.1	3095.7
25734	10.896	5.3636	0.1	3125.1
25735	10.988	5.2727	0.1	3098.4
25736	10.896	5.5455	0.1	3128.1
25737	10.988	5.4545	0.1	3101.2
25738	10.896	5.7273	0.1	3132.2
25739	10.988	5.6364	0.1	3104.3
25740	10.988	5.8182	0.1	3109.4
25741	10.896	5.9091	0.1	3130.
25742	11.081	0.27273	0.1	3081.4
25743	11.173	0.18182	0.1	3058.6
25744	11.081	9.0909e-002	0.1	3078.9
25745	11.081	0.45455	0.1	3077.4
25746	11.173	0.36364	0.1	3053.7
25747	11.081	0.63636	0.1	3074.5
25748	11.173	0.54545	0.1	3050.7
25749	11.081	0.81818	0.1	3071.9
25750	11.173	0.72727	0.1	3048.1
25751	11.081	1.	0.1	3069.4
25752	11.173	0.90909	0.1	3045.5
25753	11.081	1.1818	0.1	3067.
25754	11.173	1.0909	0.1	3043.2
25755	11.081	1.3636	0.1	3064.9
25756	11.173	1.2727	0.1	3041.
25757	11.081	1.5455	0.1	3062.9
25758	11.173	1.4545	0.1	3039.
25759	11.081	1.7273	0.1	3061.2
25760	11.173	1.6364	0.1	3037.2
25761	11.081	1.9091	0.1	3059.6
25762	11.173	1.8182	0.1	3035.6
25763	11.081	2.0909	0.1	3058.3
25764	11.173	2.	0.1	3034.2
25765	11.081	2.2727	0.1	3057.2
25766	11.173	2.1818	0.1	3033.1
25767	11.081	2.4545	0.1	3056.4
25768	11.173	2.3636	0.1	3032.1
25769	11.081	2.6364	0.1	3055.8
25770	11.173	2.5455	0.1	3031.4
25771	11.081	2.8182	0.1	3055.4
25772	11.173	2.7273	0.1	3030.9
25773	11.081	3.	0.1	3055.3
25774	11.173	2.9091	0.1	3030.7
25775	11.081	3.1818	0.1	3055.4
25776	11.173	3.0909	0.1	3030.7
25777	11.081	3.3636	0.1	3055.8
25778	11.173	3.2727	0.1	3030.9
25779	11.081	3.5455	0.1	3056.4
25780	11.173	3.4545	0.1	3031.4
25781	11.081	3.7273	0.1	3057.2
25782	11.173	3.6364	0.1	3032.1
25783	11.081	3.9091	0.1	3058.3
25784	11.173	3.8182	0.1	3033.1
25785	11.081	4.0909	0.1	3059.6
25786	11.173	4.	0.1	3034.2
25787	11.081	4.2727	0.1	3061.2
25788	11.173	4.1818	0.1	3035.6
25789	11.081	4.4545	0.1	3062.9
25790	11.173	4.3636	0.1	3037.2
25791	11.081	4.6364	0.1	3064.9
25792	11.173	4.5455	0.1	3039.
25793	11.081	4.8182	0.1	3067.
25794	11.173	4.7273	0.1	3041.
25795	11.081	5.	0.1	3069.4
25796	11.173	4.9091	0.1	3043.2
25797	11.081	5.1818	0.1	3071.9
25798	11.173	5.0909	0.1	3045.5
25799	11.081	5.3636	0.1	3074.5
25800	11.173	5.2727	0.1	3048.1
25801	11.081	5.5455	0.1	3077.4
25802	11.173	5.4545	0.1	3050.7
25803	11.081	5.7273	0.1	3081.4
25804	11.173	5.6364	0.1	3053.7
25805	11.173	5.8182	0.1	3058.6
25806	11.081	5.9091	0.1	3078.9
25807	11.265	0.27273	0.1	3030.8
25808	11.358	0.18182	0.1	3008.
25809	11.265	9.0909e-002	0.1	3028.
25810	11.265	0.45455	0.1	3026.9
25811	11.358	0.36364	0.1	3003.2
25812	11.265	0.63636	0.1	3024.2
25813	11.358	0.54545	0.1	3000.4
25814	11.265	0.81818	0.1	3021.7
25815	11.358	0.72727	0.1	2997.9
25816	11.265	1.	0.1	3019.3
25817	11.358	0.90909	0.1	2995.5
25818	11.265	1.1818	0.1	3017.1
25819	11.358	1.0909	0.1	2993.3
25820	11.265	1.3636	0.1	3015.1
25821	11.358	1.2727	0.1	2991.3
25822	11.265	1.5455	0.1	3013.3
25823	11.358	1.4545	0.1	2989.4
25824	11.265	1.7273	0.1	3011.6
25825	11.358	1.6364	0.1	2987.7
25826	11.265	1.9091	0.1	3010.2
25827	11.358	1.8182	0.1	2986.2
25828	11.265	2.0909	0.1	3008.9
25829	11.358	2.	0.1	2984.9
25830	11.265	2.2727	0.1	3007.9
25831	11.358	2.1818	0.1	2983.8
25832	11.265	2.4545	0.1	3007.1
25833	11.358	2.3636	0.1	2982.9
25834	11.265	2.6364	0.1	3006.6
25835	11.358	2.5455	0.1	2982.2
25836	11.265	2.8182	0.1	3006.2
25837	11.358	2.7273	0.1	2981.8
25838	11.265	3.	0.1	3006.1
25839	11.358	2.9091	0.1	2981.6
25840	11.265	3.1818	0.1	3006.2
25841	11.358	3.0909	0.1	2981.6
25842	11.265	3.3636	0.1	3006.6
25843	11.358	3.2727	0.1	2981.8
25844	11.265	3.5455	0.1	3007.1
25845	11.358	3.4545	0.1	2982.2
25846	11.265	3.7273	0.1	3007.9
25847	11.358	3.6364	0.1	2982.9
25848	11.265	3.9091	0.1	3008.9
25849	11.358	3.8182	0.1	2983.8
25850	11.265	4.0909	0.1	3010.2
25851	11.358	4.	0.1	2984.9
25852	11.265	4.2727	0.1	3011.6
25853	11.358	4.1818	0.1	2986.2
25854	11.265	4.4545	0.1	3013.3
25855	11.358	4.3636	0.1	2987.7
25856	11.265	4.6364	0.1	3015.1
25857	11.358	4.5455	0.1	2989.4
25858	11.265	4.8182	0.1	3017.1
25859	11.358	4.7273	0.1	2991.3
25860	11.265	5.	0.1	3019.3
25861	11.358	4.9091	0.1	2993.3
25862	11.265	5.1818	0.1	3021.7
25863	11.358	5.0909	0.1	2995.5
25864	11.265	5.3636	0.1	3024.2
25865	11.358	5.2727	0.1	2997.9
25866	11.265	5.5455	0.1	3026.9
25867	11.358	5.4545	0.1	3000.4
25868	11.265	5.7273	0.1	3030.8
25869	11.358	5.6364	0.1	3003.2
25870	11.358	5.8182	0.1	3008.
25871	11.265	5.9091	0.1	3028.
25872	11.45	0.27273	0.1	2980.4
25873	11.542	0.18182	0.1	2957.7
25874	11.45	9.0909e-002	0.1	2977.4
25875	11.45	0.45455	0.1	2976.7
25876	11.542	0.36364	0.1	2953.
25877	11.45	0.63636	0.1	2974.1
25878	11.542	0.54545	0.1	2950.3
25879	11.45	0.81818	0.1	2971.7
25880	11.542	0.72727	0.1	2947.9
25881	11.45	1.	0.1	2969.5
25882	11.542	0.90909	0.1	2945.7
25883	11.45	1.1818	0.1	2967.4
25884	11.542	1.0909	0.1	2943.6
25885	11.45	1.3636	0.1	2965.5
25886	11.542	1.2727	0.1	2941.6
25887	11.45	1.5455	0.1	2963.7
25888	11.542	1.4545	0.1	2939.9
25889	11.45	1.7273	0.1	2962.2
25890	11.542	1.6364	0.1	2938.3
25891	11.45	1.9091	0.1	2960.8
25892	11.542	1.8182	0.1	2936.9
25893	11.45	2.0909	0.1	2959.7
25894	11.542	2.	0.1	2935.6
25895	11.45	2.2727	0.1	2958.7
25896	11.542	2.1818	0.1	2934.6
25897	11.45	2.4545	0.1	2958.
25898	11.542	2.3636	0.1	2933.8
25899	11.45	2.6364	0.1	2957.4
25900	11.542	2.5455	0.1	2933.2
25901	11.45	2.8182	0.1	2957.1
25902	11.542	2.7273	0.1	2932.7
25903	11.45	3.	0.1	2957.
25904	11.542	2.9091	0.1	2932.5
25905	11.45	3.1818	0.1	2957.1
25906	11.542	3.0909	0.1	2932.5
25907	11.45	3.3636	0.1	2957.4
25908	11.542	3.2727	0.1	2932.7
25909	11.45	3.5455	0.1	2958.
25910	11.542	3.4545	0.1	2933.2
25911	11.45	3.7273	0.1	2958.7
25912	11.542	3.6364	0.1	2933.8
25913	11.45	3.9091	0.1	2959.7
25914	11.542	3.8182	0.1	2934.6
25915	11.45	4.0909	0.1	2960.8
25916	11.542	4.	0.1	2935.6
25917	11.45	4.2727	0.1	2962.2
25918	11.542	4.1818	0.1	2936.9
25919	11.45	4.4545	0.1	2963.7
25920	11.542	4.3636	0.1	2938.3
25921	11.45	4.6364	0.1	2965.5
25922	11.542	4.5455	0.1	2939.9
25923	11.45	4.8182	0.1	2967.4
25924	11.542	4.7273	0.1	2941.6
25925	11.45	5.	0.1	2969.5
25926	11.542	4.9091	0.1	2943.6
25927	11.45	5.1818	0.1	2971.7
25928	11.542	5.0909	0.1	2945.7
25929	11.45	5.3636	0.1	2974.1
25930	11.542	5.2727	0.1	2947.9
25931	11.45	5.5455	0.1	2976.7
25932	11.542	5.4545	0.1	2950.3
25933	11.45	5.7273	0.1	2980.4
25934	11.542	5.6364	0.1	2953.
25935	11.542	5.8182	0.1	2957.7
25936	11.45	5.9091	0.1	2977.4
25937	11.635	0.27273	0.1	2930.2
25938	11.727	0.18182	0.1	2907.6
25939	11.635	9.0909e-002	0.1	2926.9
25940	11.635	0.45455	0.1	2926.6
25941	11.727	0.36364	0.1	2902.9
25942	11.635	0.63636	0.1	2924.1
25943	11.727	0.54545	0.1	2900.4
25944	11.635	0.81818	0.1	2921.9
25945	11.727	0.72727	0.1	2898.1
25946	11.635	1.	0.1	2919.8
25947	11.727	0.90909	0.1	2896.
25948	11.635	1.1818	0.1	2917.8
25949	11.727	1.0909	0.1	2894.
25950	11.635	1.3636	0.1	2916.
25951	11.727	1.2727	0.1	2892.2
25952	11.635	1.5455	0.1	2914.4
25953	11.727	1.4545	0.1	2890.5
25954	11.635	1.7273	0.1	2912.9
25955	11.727	1.6364	0.1	2889.
25956	11.635	1.9091	0.1	2911.6
25957	11.727	1.8182	0.1	2887.7
25958	11.635	2.0909	0.1	2910.5
25959	11.727	2.	0.1	2886.5
25960	11.635	2.2727	0.1	2909.6
25961	11.727	2.1818	0.1	2885.6
25962	11.635	2.4545	0.1	2908.9
25963	11.727	2.3636	0.1	2884.8
25964	11.635	2.6364	0.1	2908.4
25965	11.727	2.5455	0.1	2884.2
25966	11.635	2.8182	0.1	2908.1
25967	11.727	2.7273	0.1	2883.8
25968	11.635	3.	0.1	2908.
25969	11.727	2.9091	0.1	2883.6
25970	11.635	3.1818	0.1	2908.1
25971	11.727	3.0909	0.1	2883.6
25972	11.635	3.3636	0.1	2908.4
25973	11.727	3.2727	0.1	2883.8
25974	11.635	3.5455	0.1	2908.9
25975	11.727	3.4545	0.1	2884.2
25976	11.635	3.7273	0.1	2909.6
25977	11.727	3.6364	0.1	2884.8
25978	11.635	3.9091	0.1	2910.5
25979	11.727	3.8182	0.1	2885.6
25980	11.635	4.0909	0.1	2911.6
25981	11.727	4.	0.1	2886.5
25982	11.635	4.2727	0.1	2912.9
25983	11.727	4.1818	0.1	2887.7
25984	11.635	4.4545	0.1	2914.4
25985	11.727	4.3636	0.1	2889.
25986	11.635	4.6364	0.1	2916.
25987	11.727	4.5455	0.1	2890.5
25988	11.635	4.8182	0.1	2917.8
25989	11.727	4.7273	0.1	2892.2
25990	11.635	5.	0.1	2919.8
25991	11.727	4.9091	0.1	2894.
25992	11.635	5.1818	0.1	2921.9
25993	11.727	5.0909	0.1	2896.
25994	11.635	5.3636	0.1	2924.1
25995	11.727	5.2727	0.1	2898.1
25996	11.635	5.5455	0.1	2926.6
25997	11.727	5.4545	0.1	2900.4
25998	11.635	5.7273	0.1	2930.2
25999	11.727	5.6364	0.1	2902.9
26000	11.727	5.8182	0.1	2907.6
26001	11.635	5.9091	0.1	2926.9
26002	11.819	0.27273	0.1	2880.2
26003	11.912	0.18182	0.1	2857.6
26004	11.819	9.0909e-002	0.1	2876.7
26005	11.819	0.45455	0.1	2876.7
26006	11.912	0.36364	0.1	2853.1
26007	11.819	0.63636	0.1	2874.4
26008	11.912	0.54545	0.1	2850.7
26009	11.819	0.81818	0.1	2872.2
26010	11.912	0.72727	0.1	2848.5
26011	11.819	1.	0.1	2870.2
26012	11.912	0.90909	0.1	2846.5
26013	11.819	1.1818	0.1	2868.4
26014	11.912	1.0909	0.1	2844.6
26015	11.819	1.3636	0.1	2866.7
26016	11.912	1.2727	0.1	2842.9
26017	11.819	1.5455	0.1	2865.1
26018	11.912	1.4545	0.1	2841.3
26019	11.819	1.7273	0.1	2863.7
26020	11.912	1.6364	0.1	2839.9
26021	11.819	1.9091	0.1	2862.5
26022	11.912	1.8182	0.1	2838.6
26023	11.819	2.0909	0.1	2861.5
26024	11.912	2.	0.1	2837.5
26025	11.819	2.2727	0.1	2860.7
26026	11.912	2.1818	0.1	2836.6
26027	11.819	2.4545	0.1	2860.
26028	11.912	2.3636	0.1	2835.9
26029	11.819	2.6364	0.1	2859.5
26030	11.912	2.5455	0.1	2835.3
26031	11.819	2.8182	0.1	2859.2
26032	11.912	2.7273	0.1	2835.
26033	11.819	3.	0.1	2859.2
26034	11.912	2.9091	0.1	2834.8
26035	11.819	3.1818	0.1	2859.2
26036	11.912	3.0909	0.1	2834.8
26037	11.819	3.3636	0.1	2859.5
26038	11.912	3.2727	0.1	2835.
26039	11.819	3.5455	0.1	2860.
26040	11.912	3.4545	0.1	2835.3
26041	11.819	3.7273	0.1	2860.7
26042	11.912	3.6364	0.1	2835.9
26043	11.819	3.9091	0.1	2861.5
26044	11.912	3.8182	0.1	2836.6
26045	11.819	4.0909	0.1	2862.5
26046	11.912	4.	0.1	2837.5
26047	11.819	4.2727	0.1	2863.7
26048	11.912	4.1818	0.1	2838.6
26049	11.819	4.4545	0.1	2865.1
26050	11.912	4.3636	0.1	2839.9
26051	11.819	4.6364	0.1	2866.7
26052	11.912	4.5455	0.1	2841.3
26053	11.819	4.8182	0.1	2868.4
26054	11.912	4.7273	0.1	2842.9
26055	11.819	5.	0.1	2870.2
26056	11.912	4.9091	0.1	2844.6
26057	11.819	5.1818	0.1	2872.2
26058	11.912	5.0909	0.1	2846.5
26059	11.819	5.3636	0.1	2874.4
26060	11.912	5.2727	0.1	2848.5
26061	11.819	5.5455	0.1	2876.7
26062	11.912	5.4545	0.1	2850.7
26063	11.819	5.7273	0.1	2880.2
26064	11.912	5.6364	0.1	2853.1
26065	11.912	5.8182	0.1	2857.6
26066	11.819	5.9091	0.1	2876.7
26067	12.004	0.27273	0.1	2830.4
26068	12.096	0.18182	0.1	2807.9
26069	12.004	9.0909e-002	0.1	2826.7
26070	12.004	0.45455	0.1	2827.
26071	12.096	0.36364	0.1	2803.4
26072	12.004	0.63636	0.1	2824.8
26073	12.096	0.54545	0.1	2801.1
26074	12.004	0.81818	0.1	2822.7
26075	12.096	0.72727	0.1	2799.1
26076	12.004	1.	0.1	2820.9
26077	12.096	0.90909	0.1	2797.2
26078	12.004	1.1818	0.1	2819.1
26079	12.096	1.0909	0.1	2795.4
26080	12.004	1.3636	0.1	2817.5
26081	12.096	1.2727	0.1	2793.7
26082	12.004	1.5455	0.1	2816.
26083	12.096	1.4545	0.1	2792.3
26084	12.004	1.7273	0.1	2814.7
26085	12.096	1.6364	0.1	2790.9
26086	12.004	1.9091	0.1	2813.6
26087	12.096	1.8182	0.1	2789.7
26088	12.004	2.0909	0.1	2812.6
26089	12.096	2.	0.1	2788.7
26090	12.004	2.2727	0.1	2811.8
26091	12.096	2.1818	0.1	2787.8
26092	12.004	2.4545	0.1	2811.2
26093	12.096	2.3636	0.1	2787.2
26094	12.004	2.6364	0.1	2810.8
26095	12.096	2.5455	0.1	2786.6
26096	12.004	2.8182	0.1	2810.5
26097	12.096	2.7273	0.1	2786.3
26098	12.004	3.	0.1	2810.4
26099	12.096	2.9091	0.1	2786.1
26100	12.004	3.1818	0.1	2810.5
26101	12.096	3.0909	0.1	2786.1
26102	12.004	3.3636	0.1	2810.8
26103	12.096	3.2727	0.1	2786.3
26104	12.004	3.5455	0.1	2811.2
26105	12.096	3.4545	0.1	2786.6
26106	12.004	3.7273	0.1	2811.8
26107	12.096	3.6364	0.1	2787.2
26108	12.004	3.9091	0.1	2812.6
26109	12.096	3.8182	0.1	2787.8
26110	12.004	4.0909	0.1	2813.6
26111	12.096	4.	0.1	2788.7
26112	12.004	4.2727	0.1	2814.7
26113	12.096	4.1818	0.1	2789.7
26114	12.004	4.4545	0.1	2816.
26115	12.096	4.3636	0.1	2790.9
26116	12.004	4.6364	0.1	2817.5
26117	12.096	4.5455	0.1	2792.3
26118	12.004	4.8182	0.1	2819.1
26119	12.096	4.7273	0.1	2793.7
26120	12.004	5.	0.1	2820.9
26121	12.096	4.9091	0.1	2795.4
26122	12.004	5.1818	0.1	2822.7
26123	12.096	5.0909	0.1	2797.2
26124	12.004	5.3636	0.1	2824.8
26125	12.096	5.2727	0.1	2799.1
26126	12.004	5.5455	0.1	2827.
26127	12.096	5.4545	0.1	2801.1
26128	12.004	5.7273	0.1	2830.4
26129	12.096	5.6364	0.1	2803.4
26130	12.096	5.8182	0.1	2807.9
26131	12.004	5.9091	0.1	2826.7
26132	12.189	0.27273	0.1	2780.8
26133	12.281	0.18182	0.1	2758.4
26134	12.189	9.0909e-002	0.1	2777.
26135	12.189	0.45455	0.1	2777.5
26136	12.281	0.36364	0.1	2754.
26137	12.189	0.63636	0.1	2775.4
26138	12.281	0.54545	0.1	2751.8
26139	12.189	0.81818	0.1	2773.5
26140	12.281	0.72727	0.1	2749.8
26141	12.189	1.	0.1	2771.7
26142	12.281	0.90909	0.1	2748.
26143	12.189	1.1818	0.1	2770.
26144	12.281	1.0909	0.1	2746.3
26145	12.189	1.3636	0.1	2768.5
26146	12.281	1.2727	0.1	2744.8
26147	12.189	1.5455	0.1	2767.1
26148	12.281	1.4545	0.1	2743.4
26149	12.189	1.7273	0.1	2765.9
26150	12.281	1.6364	0.1	2742.1
26151	12.189	1.9091	0.1	2764.8
26152	12.281	1.8182	0.1	2741.
26153	12.189	2.0909	0.1	2763.9
26154	12.281	2.	0.1	2740.
26155	12.189	2.2727	0.1	2763.1
26156	12.281	2.1818	0.1	2739.2
26157	12.189	2.4545	0.1	2762.5
26158	12.281	2.3636	0.1	2738.6
26159	12.189	2.6364	0.1	2762.1
26160	12.281	2.5455	0.1	2738.1
26161	12.189	2.8182	0.1	2761.9
26162	12.281	2.7273	0.1	2737.7
26163	12.189	3.	0.1	2761.8
26164	12.281	2.9091	0.1	2737.6
26165	12.189	3.1818	0.1	2761.9
26166	12.281	3.0909	0.1	2737.6
26167	12.189	3.3636	0.1	2762.1
26168	12.281	3.2727	0.1	2737.7
26169	12.189	3.5455	0.1	2762.5
26170	12.281	3.4545	0.1	2738.1
26171	12.189	3.7273	0.1	2763.1
26172	12.281	3.6364	0.1	2738.6
26173	12.189	3.9091	0.1	2763.9
26174	12.281	3.8182	0.1	2739.2
26175	12.189	4.0909	0.1	2764.8
26176	12.281	4.	0.1	2740.
26177	12.189	4.2727	0.1	2765.9
26178	12.281	4.1818	0.1	2741.
26179	12.189	4.4545	0.1	2767.1
26180	12.281	4.3636	0.1	2742.1
26181	12.189	4.6364	0.1	2768.5
26182	12.281	4.5455	0.1	2743.4
26183	12.189	4.8182	0.1	2770.
26184	12.281	4.7273	0.1	2744.8
26185	12.189	5.	0.1	2771.7
26186	12.281	4.9091	0.1	2746.3
26187	12.189	5.1818	0.1	2773.5
26188	12.281	5.0909	0.1	2748.
26189	12.189	5.3636	0.1	2775.4
26190	12.281	5.2727	0.1	2749.8
26191	12.189	5.5455	0.1	2777.5
26192	12.281	5.4545	0.1	2751.8
26193	12.189	5.7273	0.1	2780.8
26194	12.281	5.6364	0.1	2754.
26195	12.281	5.8182	0.1	2758.4
26196	12.189	5.9091	0.1	2777.
26197	12.373	0.27273	0.1	2731.4
26198	12.466	0.18182	0.1	2709.1
26199	12.373	9.0909e-002	0.1	2727.4
26200	12.373	0.45455	0.1	2728.2
26201	12.466	0.36364	0.1	2704.7
26202	12.373	0.63636	0.1	2726.2
26203	12.466	0.54545	0.1	2702.6
26204	12.373	0.81818	0.1	2724.4
26205	12.466	0.72727	0.1	2700.8
26206	12.373	1.	0.1	2722.6
26207	12.466	0.90909	0.1	2699.
26208	12.373	1.1818	0.1	2721.1
26209	12.466	1.0909	0.1	2697.4
26210	12.373	1.3636	0.1	2719.6
26211	12.466	1.2727	0.1	2696.
26212	12.373	1.5455	0.1	2718.3
26213	12.466	1.4545	0.1	2694.6
26214	12.373	1.7273	0.1	2717.2
26215	12.466	1.6364	0.1	2693.4
26216	12.373	1.9091	0.1	2716.2
26217	12.466	1.8182	0.1	2692.4
26218	12.373	2.0909	0.1	2715.3
26219	12.466	2.	0.1	2691.5
26220	12.373	2.2727	0.1	2714.6
26221	12.466	2.1818	0.1	2690.7
26222	12.373	2.4545	0.1	2714.
26223	12.466	2.3636	0.1	2690.1
26224	12.373	2.6364	0.1	2713.6
26225	12.466	2.5455	0.1	2689.6
26226	12.373	2.8182	0.1	2713.4
26227	12.466	2.7273	0.1	2689.3
26228	12.373	3.	0.1	2713.3
26229	12.466	2.9091	0.1	2689.2
26230	12.373	3.1818	0.1	2713.4
26231	12.466	3.0909	0.1	2689.2
26232	12.373	3.3636	0.1	2713.6
26233	12.466	3.2727	0.1	2689.3
26234	12.373	3.5455	0.1	2714.
26235	12.466	3.4545	0.1	2689.6
26236	12.373	3.7273	0.1	2714.6
26237	12.466	3.6364	0.1	2690.1
26238	12.373	3.9091	0.1	2715.3
26239	12.466	3.8182	0.1	2690.7
26240	12.373	4.0909	0.1	2716.2
26241	12.466	4.	0.1	2691.5
26242	12.373	4.2727	0.1	2717.2
26243	12.466	4.1818	0.1	2692.4
26244	12.373	4.4545	0.1	2718.3
26245	12.466	4.3636	0.1	2693.4
26246	12.373	4.6364	0.1	2719.6
26247	12.466	4.5455	0.1	2694.6
26248	12.373	4.8182	0.1	2721.1
26249	12.466	4.7273	0.1	2696.
26250	12.373	5.	0.1	2722.6
26251	12.466	4.9091	0.1	2697.4
26252	12.373	5.1818	0.1	2724.4
26253	12.466	5.0909	0.1	2699.
26254	12.373	5.3636	0.1	2726.2
26255	12.466	5.2727	0.1	2700.8
26256	12.373	5.5455	0.1	2728.2
26257	12.466	5.4545	0.1	2702.6
26258	12.373	5.7273	0.1	2731.4
26259	12.466	5.6364	0.1	2704.7
26260	12.466	5.8182	0.1	2709.1
26261	12.373	5.9091	0.1	2727.4
26262	12.558	0.27273	0.1	2682.3
26263	12.65	0.18182	0.1	2660.
26264	12.558	9.0909e-002	0.1	2678.
26265	12.558	0.45455	0.1	2679.1
26266	12.65	0.36364	0.1	2655.7
26267	12.558	0.63636	0.1	2677.2
26268	12.65	0.54545	0.1	2653.7
26269	12.558	0.81818	0.1	2675.4
26270	12.65	0.72727	0.1	2651.9
26271	12.558	1.	0.1	2673.8
26272	12.65	0.90909	0.1	2650.3
26273	12.558	1.1818	0.1	2672.3
26274	12.65	1.0909	0.1	2648.7
26275	12.558	1.3636	0.1	2670.9
26276	12.65	1.2727	0.1	2647.3
26277	12.558	1.5455	0.1	2669.7
26278	12.65	1.4545	0.1	2646.1
26279	12.558	1.7273	0.1	2668.6
26280	12.65	1.6364	0.1	2644.9
26281	12.558	1.9091	0.1	2667.7
26282	12.65	1.8182	0.1	2643.9
26283	12.558	2.0909	0.1	2666.8
26284	12.65	2.	0.1	2643.1
26285	12.558	2.2727	0.1	2666.2
26286	12.65	2.1818	0.1	2642.4
26287	12.558	2.4545	0.1	2665.7
26288	12.65	2.3636	0.1	2641.8
26289	12.558	2.6364	0.1	2665.3
26290	12.65	2.5455	0.1	2641.3
26291	12.558	2.8182	0.1	2665.1
26292	12.65	2.7273	0.1	2641.1
26293	12.558	3.	0.1	2665.
26294	12.65	2.9091	0.1	2640.9
26295	12.558	3.1818	0.1	2665.1
26296	12.65	3.0909	0.1	2640.9
26297	12.558	3.3636	0.1	2665.3
26298	12.65	3.2727	0.1	2641.1
26299	12.558	3.5455	0.1	2665.7
26300	12.65	3.4545	0.1	2641.3
26301	12.558	3.7273	0.1	2666.2
26302	12.65	3.6364	0.1	2641.8
26303	12.558	3.9091	0.1	2666.8
26304	12.65	3.8182	0.1	2642.4
26305	12.558	4.0909	0.1	2667.7
26306	12.65	4.	0.1	2643.1
26307	12.558	4.2727	0.1	2668.6
26308	12.65	4.1818	0.1	2643.9
26309	12.558	4.4545	0.1	2669.7
26310	12.65	4.3636	0.1	2644.9
26311	12.558	4.6364	0.1	2670.9
26312	12.65	4.5455	0.1	2646.1
26313	12.558	4.8182	0.1	2672.3
26314	12.65	4.7273	0.1	2647.3
26315	12.558	5.	0.1	2673.8
26316	12.65	4.9091	0.1	2648.7
26317	12.558	5.1818	0.1	2675.4
26318	12.65	5.0909	0.1	2650.3
26319	12.558	5.3636	0.1	2677.2
26320	12.65	5.2727	0.1	2651.9
26321	12.558	5.5455	0.1	2679.1
26322	12.65	5.4545	0.1	2653.7
26323	12.558	5.7273	0.1	2682.3
26324	12.65	5.6364	0.1	2655.7
26325	12.65	5.8182	0.1	2660.
26326	12.558	5.9091	0.1	2678.
26327	12.743	0.27273	0.1	2633.3
26328	12.835	0.18182	0.1	2611.2
26329	12.743	9.0909e-002	0.1	2628.9
26330	12.743	0.45455	0.1	2630.2
26331	12.835	0.36364	0.1	2606.9
26332	12.743	0.63636	0.1	2628.4
26333	12.835	0.54545	0.1	2604.9
26334	12.743	0.81818	0.1	2626.7
26335	12.835	0.72727	0.1	2603.2
26336	12.743	1.	0.1	2625.2
26337	12.835	0.90909	0.1	2601.7
26338	12.743	1.1818	0.1	2623.7
26339	12.835	1.0909	0.1	2600.2
26340	12.743	1.3636	0.1	2622.4
26341	12.835	1.2727	0.1	2598.9
26342	12.743	1.5455	0.1	2621.3
26343	12.835	1.4545	0.1	2597.7
26344	12.743	1.7273	0.1	2620.2
26345	12.835	1.6364	0.1	2596.6
26346	12.743	1.9091	0.1	2619.3
26347	12.835	1.8182	0.1	2595.7
26348	12.743	2.0909	0.1	2618.6
26349	12.835	2.	0.1	2594.9
26350	12.743	2.2727	0.1	2617.9
26351	12.835	2.1818	0.1	2594.2
26352	12.743	2.4545	0.1	2617.4
26353	12.835	2.3636	0.1	2593.6
26354	12.743	2.6364	0.1	2617.1
26355	12.835	2.5455	0.1	2593.2
26356	12.743	2.8182	0.1	2616.9
26357	12.835	2.7273	0.1	2592.9
26358	12.743	3.	0.1	2616.8
26359	12.835	2.9091	0.1	2592.8
26360	12.743	3.1818	0.1	2616.9
26361	12.835	3.0909	0.1	2592.8
26362	12.743	3.3636	0.1	2617.1
26363	12.835	3.2727	0.1	2592.9
26364	12.743	3.5455	0.1	2617.4
26365	12.835	3.4545	0.1	2593.2
26366	12.743	3.7273	0.1	2617.9
26367	12.835	3.6364	0.1	2593.6
26368	12.743	3.9091	0.1	2618.6
26369	12.835	3.8182	0.1	2594.2
26370	12.743	4.0909	0.1	2619.3
26371	12.835	4.	0.1	2594.9
26372	12.743	4.2727	0.1	2620.2
26373	12.835	4.1818	0.1	2595.7
26374	12.743	4.4545	0.1	2621.3
26375	12.835	4.3636	0.1	2596.6
26376	12.743	4.6364	0.1	2622.4
26377	12.835	4.5455	0.1	2597.7
26378	12.743	4.8182	0.1	2623.7
26379	12.835	4.7273	0.1	2598.9
26380	12.743	5.	0.1	2625.2
26381	12.835	4.9091	0.1	2600.2
26382	12.743	5.1818	0.1	2626.7
26383	12.835	5.0909	0.1	2601.7
26384	12.743	5.3636	0.1	2628.4
26385	12.835	5.2727	0.1	2603.2
26386	12.743	5.5455	0.1	2630.2
26387	12.835	5.4545	0.1	2604.9
26388	12.743	5.7273	0.1	2633.3
26389	12.835	5.6364	0.1	2606.9
26390	12.835	5.8182	0.1	2611.2
26391	12.743	5.9091	0.1	2628.9
26392	12.927	0.27273	0.1	2584.5
26393	13.02	0.18182	0.1	2562.5
26394	12.927	9.0909e-002	0.1	2580.
26395	12.927	0.45455	0.1	2581.5
26396	13.02	0.36364	0.1	2558.2
26397	12.927	0.63636	0.1	2579.7
26398	13.02	0.54545	0.1	2556.4
26399	12.927	0.81818	0.1	2578.2
26400	13.02	0.72727	0.1	2554.7
26401	12.927	1.	0.1	2576.7
26402	13.02	0.90909	0.1	2553.2
26403	12.927	1.1818	0.1	2575.3
26404	13.02	1.0909	0.1	2551.9
26405	12.927	1.3636	0.1	2574.1
26406	13.02	1.2727	0.1	2550.6
26407	12.927	1.5455	0.1	2573.
26408	13.02	1.4545	0.1	2549.5
26409	12.927	1.7273	0.1	2572.
26410	13.02	1.6364	0.1	2548.5
26411	12.927	1.9091	0.1	2571.2
26412	13.02	1.8182	0.1	2547.6
26413	12.927	2.0909	0.1	2570.4
26414	13.02	2.	0.1	2546.8
26415	12.927	2.2727	0.1	2569.8
26416	13.02	2.1818	0.1	2546.2
26417	12.927	2.4545	0.1	2569.4
26418	13.02	2.3636	0.1	2545.6
26419	12.927	2.6364	0.1	2569.
26420	13.02	2.5455	0.1	2545.3
26421	12.927	2.8182	0.1	2568.8
26422	13.02	2.7273	0.1	2545.
26423	12.927	3.	0.1	2568.8
26424	13.02	2.9091	0.1	2544.9
26425	12.927	3.1818	0.1	2568.8
26426	13.02	3.0909	0.1	2544.9
26427	12.927	3.3636	0.1	2569.
26428	13.02	3.2727	0.1	2545.
26429	12.927	3.5455	0.1	2569.4
26430	13.02	3.4545	0.1	2545.3
26431	12.927	3.7273	0.1	2569.8
26432	13.02	3.6364	0.1	2545.6
26433	12.927	3.9091	0.1	2570.4
26434	13.02	3.8182	0.1	2546.2
26435	12.927	4.0909	0.1	2571.2
26436	13.02	4.	0.1	2546.8
26437	12.927	4.2727	0.1	2572.
26438	13.02	4.1818	0.1	2547.6
26439	12.927	4.4545	0.1	2573.
26440	13.02	4.3636	0.1	2548.5
26441	12.927	4.6364	0.1	2574.1
26442	13.02	4.5455	0.1	2549.5
26443	12.927	4.8182	0.1	2575.3
26444	13.02	4.7273	0.1	2550.6
26445	12.927	5.	0.1	2576.7
26446	13.02	4.9091	0.1	2551.9
26447	12.927	5.1818	0.1	2578.2
26448	13.02	5.0909	0.1	2553.2
26449	12.927	5.3636	0.1	2579.7
26450	13.02	5.2727	0.1	2554.7
26451	12.927	5.5455	0.1	2581.5
26452	13.02	5.4545	0.1	2556.4
26453	12.927	5.7273	0.1	2584.5
26454	13.02	5.6364	0.1	2558.2
26455	13.02	5.8182	0.1	2562.5
26456	12.927	5.9091	0.1	2580.
26457	13.112	0.27273	0.1	2536.
26458	13.204	0.18182	0.1	2514.
26459	13.112	9.0909e-002	0.1	2531.3
26460	13.112	0.45455	0.1	2533.
26461	13.204	0.36364	0.1	2509.8
26462	13.112	0.63636	0.1	2531.3
26463	13.204	0.54545	0.1	2508.
26464	13.112	0.81818	0.1	2529.8
26465	13.204	0.72727	0.1	2506.4
26466	13.112	1.	0.1	2528.4
26467	13.204	0.90909	0.1	2505.
26468	13.112	1.1818	0.1	2527.1
26469	13.204	1.0909	0.1	2503.7
26470	13.112	1.3636	0.1	2525.9
26471	13.204	1.2727	0.1	2502.5
26472	13.112	1.5455	0.1	2524.9
26473	13.204	1.4545	0.1	2501.4
26474	13.112	1.7273	0.1	2524.
26475	13.204	1.6364	0.1	2500.5
26476	13.112	1.9091	0.1	2523.2
26477	13.204	1.8182	0.1	2499.6
26478	13.112	2.0909	0.1	2522.5
26479	13.204	2.	0.1	2498.9
26480	13.112	2.2727	0.1	2521.9
26481	13.204	2.1818	0.1	2498.3
26482	13.112	2.4545	0.1	2521.5
26483	13.204	2.3636	0.1	2497.8
26484	13.112	2.6364	0.1	2521.2
26485	13.204	2.5455	0.1	2497.5
26486	13.112	2.8182	0.1	2521.
26487	13.204	2.7273	0.1	2497.2
26488	13.112	3.	0.1	2520.9
26489	13.204	2.9091	0.1	2497.1
26490	13.112	3.1818	0.1	2521.
26491	13.204	3.0909	0.1	2497.1
26492	13.112	3.3636	0.1	2521.2
26493	13.204	3.2727	0.1	2497.2
26494	13.112	3.5455	0.1	2521.5
26495	13.204	3.4545	0.1	2497.5
26496	13.112	3.7273	0.1	2521.9
26497	13.204	3.6364	0.1	2497.8
26498	13.112	3.9091	0.1	2522.5
26499	13.204	3.8182	0.1	2498.3
26500	13.112	4.0909	0.1	2523.2
26501	13.204	4.	0.1	2498.9
26502	13.112	4.2727	0.1	2524.
26503	13.204	4.1818	0.1	2499.6
26504	13.112	4.4545	0.1	2524.9
26505	13.204	4.3636	0.1	2500.5
26506	13.112	4.6364	0.1	2525.9
26507	13.204	4.5455	0.1	2501.4
26508	13.112	4.8182	0.1	2527.1
26509	13.204	4.7273	0.1	2502.5
26510	13.112	5.	0.1	2528.4
26511	13.204	4.9091	0.1	2503.7
26512	13.112	5.1818	0.1	2529.8
26513	13.204	5.0909	0.1	2505.
26514	13.112	5.3636	0.1	2531.3
26515	13.204	5.2727	0.1	2506.4
26516	13.112	5.5455	0.1	2533.
26517	13.204	5.4545	0.1	2508.
26518	13.112	5.7273	0.1	2536.
26519	13.204	5.6364	0.1	2509.8
26520	13.204	5.8182	0.1	2514.
26521	13.112	5.9091	0.1	2531.3
26522	13.297	0.27273	0.1	2487.6
26523	13.389	0.18182	0.1	2465.7
26524	13.297	9.0909e-002	0.1	2482.7
26525	13.297	0.45455	0.1	2484.7
26526	13.389	0.36364	0.1	2461.5
26527	13.297	0.63636	0.1	2483.1
26528	13.389	0.54545	0.1	2459.8
26529	13.297	0.81818	0.1	2481.6
26530	13.389	0.72727	0.1	2458.3
26531	13.297	1.	0.1	2480.3
26532	13.389	0.90909	0.1	2457.
26533	13.297	1.1818	0.1	2479.1
26534	13.389	1.0909	0.1	2455.7
26535	13.297	1.3636	0.1	2478.
26536	13.389	1.2727	0.1	2454.6
26537	13.297	1.5455	0.1	2477.
26538	13.389	1.4545	0.1	2453.6
26539	13.297	1.7273	0.1	2476.1
26540	13.389	1.6364	0.1	2452.7
26541	13.297	1.9091	0.1	2475.3
26542	13.389	1.8182	0.1	2451.9
26543	13.297	2.0909	0.1	2474.7
26544	13.389	2.	0.1	2451.2
26545	13.297	2.2727	0.1	2474.2
26546	13.389	2.1818	0.1	2450.6
26547	13.297	2.4545	0.1	2473.8
26548	13.389	2.3636	0.1	2450.2
26549	13.297	2.6364	0.1	2473.5
26550	13.389	2.5455	0.1	2449.8
26551	13.297	2.8182	0.1	2473.3
26552	13.389	2.7273	0.1	2449.6
26553	13.297	3.	0.1	2473.2
26554	13.389	2.9091	0.1	2449.5
26555	13.297	3.1818	0.1	2473.3
26556	13.389	3.0909	0.1	2449.5
26557	13.297	3.3636	0.1	2473.5
26558	13.389	3.2727	0.1	2449.6
26559	13.297	3.5455	0.1	2473.8
26560	13.389	3.4545	0.1	2449.8
26561	13.297	3.7273	0.1	2474.2
26562	13.389	3.6364	0.1	2450.2
26563	13.297	3.9091	0.1	2474.7
26564	13.389	3.8182	0.1	2450.6
26565	13.297	4.0909	0.1	2475.3
26566	13.389	4.	0.1	2451.2
26567	13.297	4.2727	0.1	2476.1
26568	13.389	4.1818	0.1	2451.9
26569	13.297	4.4545	0.1	2477.
26570	13.389	4.3636	0.1	2452.7
26571	13.297	4.6364	0.1	2478.
26572	13.389	4.5455	0.1	2453.6
26573	13.297	4.8182	0.1	2479.1
26574	13.389	4.7273	0.1	2454.6
26575	13.297	5.	0.1	2480.3
26576	13.389	4.9091	0.1	2455.7
26577	13.297	5.1818	0.1	2481.6
26578	13.389	5.0909	0.1	2457.
26579	13.297	5.3636	0.1	2483.1
26580	13.389	5.2727	0.1	2458.3
26581	13.297	5.5455	0.1	2484.7
26582	13.389	5.4545	0.1	2459.8
26583	13.297	5.7273	0.1	2487.6
26584	13.389	5.6364	0.1	2461.5
26585	13.389	5.8182	0.1	2465.7
26586	13.297	5.9091	0.1	2482.7
26587	13.481	0.27273	0.1	2439.5
26588	13.574	0.18182	0.1	2417.7
26589	13.481	9.0909e-002	0.1	2434.4
26590	13.481	0.45455	0.1	2436.6
26591	13.574	0.36364	0.1	2413.5
26592	13.481	0.63636	0.1	2435.
26593	13.574	0.54545	0.1	2411.8
26594	13.481	0.81818	0.1	2433.6
26595	13.574	0.72727	0.1	2410.4
26596	13.481	1.	0.1	2432.4
26597	13.574	0.90909	0.1	2409.1
26598	13.481	1.1818	0.1	2431.2
26599	13.574	1.0909	0.1	2407.9
26600	13.481	1.3636	0.1	2430.2
26601	13.574	1.2727	0.1	2406.9
26602	13.481	1.5455	0.1	2429.2
26603	13.574	1.4545	0.1	2405.9
26604	13.481	1.7273	0.1	2428.4
26605	13.574	1.6364	0.1	2405.
26606	13.481	1.9091	0.1	2427.7
26607	13.574	1.8182	0.1	2404.3
26608	13.481	2.0909	0.1	2427.1
26609	13.574	2.	0.1	2403.7
26610	13.481	2.2727	0.1	2426.6
26611	13.574	2.1818	0.1	2403.1
26612	13.481	2.4545	0.1	2426.2
26613	13.574	2.3636	0.1	2402.7
26614	13.481	2.6364	0.1	2425.9
26615	13.574	2.5455	0.1	2402.4
26616	13.481	2.8182	0.1	2425.8
26617	13.574	2.7273	0.1	2402.2
26618	13.481	3.	0.1	2425.7
26619	13.574	2.9091	0.1	2402.1
26620	13.481	3.1818	0.1	2425.8
26621	13.574	3.0909	0.1	2402.1
26622	13.481	3.3636	0.1	2425.9
26623	13.574	3.2727	0.1	2402.2
26624	13.481	3.5455	0.1	2426.2
26625	13.574	3.4545	0.1	2402.4
26626	13.481	3.7273	0.1	2426.6
26627	13.574	3.6364	0.1	2402.7
26628	13.481	3.9091	0.1	2427.1
26629	13.574	3.8182	0.1	2403.1
26630	13.481	4.0909	0.1	2427.7
26631	13.574	4.	0.1	2403.7
26632	13.481	4.2727	0.1	2428.4
26633	13.574	4.1818	0.1	2404.3
26634	13.481	4.4545	0.1	2429.2
26635	13.574	4.3636	0.1	2405.
26636	13.481	4.6364	0.1	2430.2
26637	13.574	4.5455	0.1	2405.9
26638	13.481	4.8182	0.1	2431.2
26639	13.574	4.7273	0.1	2406.9
26640	13.481	5.	0.1	2432.4
26641	13.574	4.9091	0.1	2407.9
26642	13.481	5.1818	0.1	2433.6
26643	13.574	5.0909	0.1	2409.1
26644	13.481	5.3636	0.1	2435.
26645	13.574	5.2727	0.1	2410.4
26646	13.481	5.5455	0.1	2436.6
26647	13.574	5.4545	0.1	2411.8
26648	13.481	5.7273	0.1	2439.5
26649	13.574	5.6364	0.1	2413.5
26650	13.574	5.8182	0.1	2417.7
26651	13.481	5.9091	0.1	2434.4
26652	13.666	0.27273	0.1	2391.5
26653	13.758	0.18182	0.1	2369.8
26654	13.666	9.0909e-002	0.1	2386.3
26655	13.666	0.45455	0.1	2388.7
26656	13.758	0.36364	0.1	2365.7
26657	13.666	0.63636	0.1	2387.2
26658	13.758	0.54545	0.1	2364.1
26659	13.666	0.81818	0.1	2385.9
26660	13.758	0.72727	0.1	2362.7
26661	13.666	1.	0.1	2384.7
26662	13.758	0.90909	0.1	2361.5
26663	13.666	1.1818	0.1	2383.5
26664	13.758	1.0909	0.1	2360.3
26665	13.666	1.3636	0.1	2382.6
26666	13.758	1.2727	0.1	2359.3
26667	13.666	1.5455	0.1	2381.7
26668	13.758	1.4545	0.1	2358.4
26669	13.666	1.7273	0.1	2380.9
26670	13.758	1.6364	0.1	2357.6
26671	13.666	1.9091	0.1	2380.2
26672	13.758	1.8182	0.1	2356.9
26673	13.666	2.0909	0.1	2379.6
26674	13.758	2.	0.1	2356.3
26675	13.666	2.2727	0.1	2379.2
26676	13.758	2.1818	0.1	2355.8
26677	13.666	2.4545	0.1	2378.8
26678	13.758	2.3636	0.1	2355.4
26679	13.666	2.6364	0.1	2378.6
26680	13.758	2.5455	0.1	2355.1
26681	13.666	2.8182	0.1	2378.4
26682	13.758	2.7273	0.1	2354.9
26683	13.666	3.	0.1	2378.4
26684	13.758	2.9091	0.1	2354.8
26685	13.666	3.1818	0.1	2378.4
26686	13.758	3.0909	0.1	2354.8
26687	13.666	3.3636	0.1	2378.6
26688	13.758	3.2727	0.1	2354.9
26689	13.666	3.5455	0.1	2378.8
26690	13.758	3.4545	0.1	2355.1
26691	13.666	3.7273	0.1	2379.2
26692	13.758	3.6364	0.1	2355.4
26693	13.666	3.9091	0.1	2379.6
26694	13.758	3.8182	0.1	2355.8
26695	13.666	4.0909	0.1	2380.2
26696	13.758	4.	0.1	2356.3
26697	13.666	4.2727	0.1	2380.9
26698	13.758	4.1818	0.1	2356.9
26699	13.666	4.4545	0.1	2381.7
26700	13.758	4.3636	0.1	2357.6
26701	13.666	4.6364	0.1	2382.6
26702	13.758	4.5455	0.1	2358.4
26703	13.666	4.8182	0.1	2383.5
26704	13.758	4.7273	0.1	2359.3
26705	13.666	5.	0.1	2384.7
26706	13.758	4.9091	0.1	2360.3
26707	13.666	5.1818	0.1	2385.9
26708	13.758	5.0909	0.1	2361.5
26709	13.666	5.3636	0.1	2387.2
26710	13.758	5.2727	0.1	2362.7
26711	13.666	5.5455	0.1	2388.7
26712	13.758	5.4545	0.1	2364.1
26713	13.666	5.7273	0.1	2391.5
26714	13.758	5.6364	0.1	2365.7
26715	13.758	5.8182	0.1	2369.8
26716	13.666	5.9091	0.1	2386.3
26717	13.851	0.27273	0.1	2343.8
26718	13.943	0.18182	0.1	2322.1
26719	13.851	9.0909e-002	0.1	2338.4
26720	13.851	0.45455	0.1	2341.
26721	13.943	0.36364	0.1	2318.
26722	13.851	0.63636	0.1	2339.5
26723	13.943	0.54545	0.1	2316.5
26724	13.851	0.81818	0.1	2338.3
26725	13.943	0.72727	0.1	2315.2
26726	13.851	1.	0.1	2337.1
26727	13.943	0.90909	0.1	2314.
26728	13.851	1.1818	0.1	2336.1
26729	13.943	1.0909	0.1	2312.9
26730	13.851	1.3636	0.1	2335.1
26731	13.943	1.2727	0.1	2312.
26732	13.851	1.5455	0.1	2334.3
26733	13.943	1.4545	0.1	2311.1
26734	13.851	1.7273	0.1	2333.6
26735	13.943	1.6364	0.1	2310.4
26736	13.851	1.9091	0.1	2332.9
26737	13.943	1.8182	0.1	2309.7
26738	13.851	2.0909	0.1	2332.4
26739	13.943	2.	0.1	2309.1
26740	13.851	2.2727	0.1	2332.
26741	13.943	2.1818	0.1	2308.7
26742	13.851	2.4545	0.1	2331.6
26743	13.943	2.3636	0.1	2308.3
26744	13.851	2.6364	0.1	2331.4
26745	13.943	2.5455	0.1	2308.
26746	13.851	2.8182	0.1	2331.2
26747	13.943	2.7273	0.1	2307.8
26748	13.851	3.	0.1	2331.2
26749	13.943	2.9091	0.1	2307.7
26750	13.851	3.1818	0.1	2331.2
26751	13.943	3.0909	0.1	2307.7
26752	13.851	3.3636	0.1	2331.4
26753	13.943	3.2727	0.1	2307.8
26754	13.851	3.5455	0.1	2331.6
26755	13.943	3.4545	0.1	2308.
26756	13.851	3.7273	0.1	2332.
26757	13.943	3.6364	0.1	2308.3
26758	13.851	3.9091	0.1	2332.4
26759	13.943	3.8182	0.1	2308.7
26760	13.851	4.0909	0.1	2332.9
26761	13.943	4.	0.1	2309.1
26762	13.851	4.2727	0.1	2333.6
26763	13.943	4.1818	0.1	2309.7
26764	13.851	4.4545	0.1	2334.3
26765	13.943	4.3636	0.1	2310.4
26766	13.851	4.6364	0.1	2335.1
26767	13.943	4.5455	0.1	2311.1
26768	13.851	4.8182	0.1	2336.1
26769	13.943	4.7273	0.1	2312.
26770	13.851	5.	0.1	2337.1
26771	13.943	4.9091	0.1	2312.9
26772	13.851	5.1818	0.1	2338.3
26773	13.943	5.0909	0.1	2314.
26774	13.851	5.3636	0.1	2339.5
26775	13.943	5.2727	0.1	2315.2
26776	13.851	5.5455	0.1	2341.
26777	13.943	5.4545	0.1	2316.5
26778	13.851	5.7273	0.1	2343.8
26779	13.943	5.6364	0.1	2318.
26780	13.943	5.8182	0.1	2322.1
26781	13.851	5.9091	0.1	2338.4
26782	14.035	0.27273	0.1	2296.2
26783	14.128	0.18182	0.1	2274.6
26784	14.035	9.0909e-002	0.1	2290.7
26785	14.035	0.45455	0.1	2293.5
26786	14.128	0.36364	0.1	2270.6
26787	14.035	0.63636	0.1	2292.1
26788	14.128	0.54545	0.1	2269.1
26789	14.035	0.81818	0.1	2290.9
26790	14.128	0.72727	0.1	2267.8
26791	14.035	1.	0.1	2289.8
26792	14.128	0.90909	0.1	2266.7
26793	14.035	1.1818	0.1	2288.8
26794	14.128	1.0909	0.1	2265.7
26795	14.035	1.3636	0.1	2287.9
26796	14.128	1.2727	0.1	2264.8
26797	14.035	1.5455	0.1	2287.1
26798	14.128	1.4545	0.1	2264.
26799	14.035	1.7273	0.1	2286.4
26800	14.128	1.6364	0.1	2263.3
26801	14.035	1.9091	0.1	2285.8
26802	14.128	1.8182	0.1	2262.7
26803	14.035	2.0909	0.1	2285.3
26804	14.128	2.	0.1	2262.1
26805	14.035	2.2727	0.1	2284.9
26806	14.128	2.1818	0.1	2261.7
26807	14.035	2.4545	0.1	2284.6
26808	14.128	2.3636	0.1	2261.4
26809	14.035	2.6364	0.1	2284.4
26810	14.128	2.5455	0.1	2261.1
26811	14.035	2.8182	0.1	2284.3
26812	14.128	2.7273	0.1	2260.9
26813	14.035	3.	0.1	2284.2
26814	14.128	2.9091	0.1	2260.9
26815	14.035	3.1818	0.1	2284.3
26816	14.128	3.0909	0.1	2260.9
26817	14.035	3.3636	0.1	2284.4
26818	14.128	3.2727	0.1	2260.9
26819	14.035	3.5455	0.1	2284.6
26820	14.128	3.4545	0.1	2261.1
26821	14.035	3.7273	0.1	2284.9
26822	14.128	3.6364	0.1	2261.4
26823	14.035	3.9091	0.1	2285.3
26824	14.128	3.8182	0.1	2261.7
26825	14.035	4.0909	0.1	2285.8
26826	14.128	4.	0.1	2262.1
26827	14.035	4.2727	0.1	2286.4
26828	14.128	4.1818	0.1	2262.7
26829	14.035	4.4545	0.1	2287.1
26830	14.128	4.3636	0.1	2263.3
26831	14.035	4.6364	0.1	2287.9
26832	14.128	4.5455	0.1	2264.
26833	14.035	4.8182	0.1	2288.8
26834	14.128	4.7273	0.1	2264.8
26835	14.035	5.	0.1	2289.8
26836	14.128	4.9091	0.1	2265.7
26837	14.035	5.1818	0.1	2290.9
26838	14.128	5.0909	0.1	2266.7
26839	14.035	5.3636	0.1	2292.1
26840	14.128	5.2727	0.1	2267.8
26841	14.035	5.5455	0.1	2293.5
26842	14.128	5.4545	0.1	2269.1
26843	14.035	5.7273	0.1	2296.2
26844	14.128	5.6364	0.1	2270.6
26845	14.128	5.8182	0.1	2274.6
26846	14.035	5.9091	0.1	2290.7
26847	14.22	0.27273	0.1	2248.8
26848	14.312	0.18182	0.1	2227.4
26849	14.22	9.0909e-002	0.1	2243.2
26850	14.22	0.45455	0.1	2246.1
26851	14.312	0.36364	0.1	2223.3
26852	14.22	0.63636	0.1	2244.8
26853	14.312	0.54545	0.1	2221.9
26854	14.22	0.81818	0.1	2243.7
26855	14.312	0.72727	0.1	2220.7
26856	14.22	1.	0.1	2242.6
26857	14.312	0.90909	0.1	2219.7
26858	14.22	1.1818	0.1	2241.7
26859	14.312	1.0909	0.1	2218.7
26860	14.22	1.3636	0.1	2240.9
26861	14.312	1.2727	0.1	2217.8
26862	14.22	1.5455	0.1	2240.1
26863	14.312	1.4545	0.1	2217.1
26864	14.22	1.7273	0.1	2239.5
26865	14.312	1.6364	0.1	2216.4
26866	14.22	1.9091	0.1	2238.9
26867	14.312	1.8182	0.1	2215.9
26868	14.22	2.0909	0.1	2238.5
26869	14.312	2.	0.1	2215.4
26870	14.22	2.2727	0.1	2238.1
26871	14.312	2.1818	0.1	2215.
26872	14.22	2.4545	0.1	2237.8
26873	14.312	2.3636	0.1	2214.6
26874	14.22	2.6364	0.1	2237.6
26875	14.312	2.5455	0.1	2214.4
26876	14.22	2.8182	0.1	2237.5
26877	14.312	2.7273	0.1	2214.2
26878	14.22	3.	0.1	2237.4
26879	14.312	2.9091	0.1	2214.2
26880	14.22	3.1818	0.1	2237.5
26881	14.312	3.0909	0.1	2214.2
26882	14.22	3.3636	0.1	2237.6
26883	14.312	3.2727	0.1	2214.2
26884	14.22	3.5455	0.1	2237.8
26885	14.312	3.4545	0.1	2214.4
26886	14.22	3.7273	0.1	2238.1
26887	14.312	3.6364	0.1	2214.6
26888	14.22	3.9091	0.1	2238.5
26889	14.312	3.8182	0.1	2215.
26890	14.22	4.0909	0.1	2238.9
26891	14.312	4.	0.1	2215.4
26892	14.22	4.2727	0.1	2239.5
26893	14.312	4.1818	0.1	2215.9
26894	14.22	4.4545	0.1	2240.1
26895	14.312	4.3636	0.1	2216.4
26896	14.22	4.6364	0.1	2240.9
26897	14.312	4.5455	0.1	2217.1
26898	14.22	4.8182	0.1	2241.7
26899	14.312	4.7273	0.1	2217.8
26900	14.22	5.	0.1	2242.6
26901	14.312	4.9091	0.1	2218.7
26902	14.22	5.1818	0.1	2243.7
26903	14.312	5.0909	0.1	2219.7
26904	14.22	5.3636	0.1	2244.8
26905	14.312	5.2727	0.1	2220.7
26906	14.22	5.5455	0.1	2246.1
26907	14.312	5.4545	0.1	2221.9
26908	14.22	5.7273	0.1	2248.8
26909	14.312	5.6364	0.1	2223.3
26910	14.312	5.8182	0.1	2227.4
26911	14.22	5.9091	0.1	2243.2
26912	14.405	0.27273	0.1	2201.7
26913	14.497	0.18182	0.1	2180.3
26914	14.405	9.0909e-002	0.1	2195.9
26915	14.405	0.45455	0.1	2199.
26916	14.497	0.36364	0.1	2176.3
26917	14.405	0.63636	0.1	2197.7
26918	14.497	0.54545	0.1	2174.9
26919	14.405	0.81818	0.1	2196.7
26920	14.497	0.72727	0.1	2173.8
26921	14.405	1.	0.1	2195.7
26922	14.497	0.90909	0.1	2172.8
26923	14.405	1.1818	0.1	2194.8
26924	14.497	1.0909	0.1	2171.9
26925	14.405	1.3636	0.1	2194.
26926	14.497	1.2727	0.1	2171.1
26927	14.405	1.5455	0.1	2193.3
26928	14.497	1.4545	0.1	2170.4
26929	14.405	1.7273	0.1	2192.7
26930	14.497	1.6364	0.1	2169.8
26931	14.405	1.9091	0.1	2192.2
26932	14.497	1.8182	0.1	2169.2
26933	14.405	2.0909	0.1	2191.8
26934	14.497	2.	0.1	2168.8
26935	14.405	2.2727	0.1	2191.5
26936	14.497	2.1818	0.1	2168.4
26937	14.405	2.4545	0.1	2191.2
26938	14.497	2.3636	0.1	2168.1
26939	14.405	2.6364	0.1	2191.
26940	14.497	2.5455	0.1	2167.9
26941	14.405	2.8182	0.1	2190.9
26942	14.497	2.7273	0.1	2167.8
26943	14.405	3.	0.1	2190.9
26944	14.497	2.9091	0.1	2167.7
26945	14.405	3.1818	0.1	2190.9
26946	14.497	3.0909	0.1	2167.7
26947	14.405	3.3636	0.1	2191.
26948	14.497	3.2727	0.1	2167.8
26949	14.405	3.5455	0.1	2191.2
26950	14.497	3.4545	0.1	2167.9
26951	14.405	3.7273	0.1	2191.5
26952	14.497	3.6364	0.1	2168.1
26953	14.405	3.9091	0.1	2191.8
26954	14.497	3.8182	0.1	2168.4
26955	14.405	4.0909	0.1	2192.2
26956	14.497	4.	0.1	2168.8
26957	14.405	4.2727	0.1	2192.7
26958	14.497	4.1818	0.1	2169.2
26959	14.405	4.4545	0.1	2193.3
26960	14.497	4.3636	0.1	2169.8
26961	14.405	4.6364	0.1	2194.
26962	14.497	4.5455	0.1	2170.4
26963	14.405	4.8182	0.1	2194.8
26964	14.497	4.7273	0.1	2171.1
26965	14.405	5.	0.1	2195.7
26966	14.497	4.9091	0.1	2171.9
26967	14.405	5.1818	0.1	2196.7
26968	14.497	5.0909	0.1	2172.8
26969	14.405	5.3636	0.1	2197.7
26970	14.497	5.2727	0.1	2173.8
26971	14.405	5.5455	0.1	2199.
26972	14.497	5.4545	0.1	2174.9
26973	14.405	5.7273	0.1	2201.7
26974	14.497	5.6364	0.1	2176.3
26975	14.497	5.8182	0.1	2180.3
26976	14.405	5.9091	0.1	2195.9
26977	14.59	0.27273	0.1	2154.7
26978	14.682	0.18182	0.1	2133.4
26979	14.59	9.0909e-002	0.1	2148.8
26980	14.59	0.45455	0.1	2152.1
26981	14.682	0.36364	0.1	2129.4
26982	14.59	0.63636	0.1	2150.9
26983	14.682	0.54545	0.1	2128.1
26984	14.59	0.81818	0.1	2149.8
26985	14.682	0.72727	0.1	2127.
26986	14.59	1.	0.1	2148.9
26987	14.682	0.90909	0.1	2126.1
26988	14.59	1.1818	0.1	2148.1
26989	14.682	1.0909	0.1	2125.3
26990	14.59	1.3636	0.1	2147.4
26991	14.682	1.2727	0.1	2124.5
26992	14.59	1.5455	0.1	2146.7
26993	14.682	1.4545	0.1	2123.9
26994	14.59	1.7273	0.1	2146.2
26995	14.682	1.6364	0.1	2123.3
26996	14.59	1.9091	0.1	2145.7
26997	14.682	1.8182	0.1	2122.8
26998	14.59	2.0909	0.1	2145.3
26999	14.682	2.	0.1	2122.4
27000	14.59	2.2727	0.1	2145.
27001	14.682	2.1818	0.1	2122.1
27002	14.59	2.4545	0.1	2144.8
27003	14.682	2.3636	0.1	2121.8
27004	14.59	2.6364	0.1	2144.6
27005	14.682	2.5455	0.1	2121.6
27006	14.59	2.8182	0.1	2144.5
27007	14.682	2.7273	0.1	2121.5
27008	14.59	3.	0.1	2144.5
27009	14.682	2.9091	0.1	2121.4
27010	14.59	3.1818	0.1	2144.5
27011	14.682	3.0909	0.1	2121.4
27012	14.59	3.3636	0.1	2144.6
27013	14.682	3.2727	0.1	2121.5
27014	14.59	3.5455	0.1	2144.8
27015	14.682	3.4545	0.1	2121.6
27016	14.59	3.7273	0.1	2145.
27017	14.682	3.6364	0.1	2121.8
27018	14.59	3.9091	0.1	2145.3
27019	14.682	3.8182	0.1	2122.1
27020	14.59	4.0909	0.1	2145.7
27021	14.682	4.	0.1	2122.4
27022	14.59	4.2727	0.1	2146.2
27023	14.682	4.1818	0.1	2122.8
27024	14.59	4.4545	0.1	2146.7
27025	14.682	4.3636	0.1	2123.3
27026	14.59	4.6364	0.1	2147.4
27027	14.682	4.5455	0.1	2123.9
27028	14.59	4.8182	0.1	2148.1
27029	14.682	4.7273	0.1	2124.5
27030	14.59	5.	0.1	2148.9
27031	14.682	4.9091	0.1	2125.3
27032	14.59	5.1818	0.1	2149.8
27033	14.682	5.0909	0.1	2126.1
27034	14.59	5.3636	0.1	2150.9
27035	14.682	5.2727	0.1	2127.
27036	14.59	5.5455	0.1	2152.1
27037	14.682	5.4545	0.1	2128.1
27038	14.59	5.7273	0.1	2154.7
27039	14.682	5.6364	0.1	2129.4
27040	14.682	5.8182	0.1	2133.4
27041	14.59	5.9091	0.1	2148.8
27042	14.774	0.27273	0.1	2107.9
27043	14.867	0.18182	0.1	2086.7
27044	14.774	9.0909e-002	0.1	2101.9
27045	14.774	0.45455	0.1	2105.4
27046	14.867	0.36364	0.1	2082.7
27047	14.774	0.63636	0.1	2104.2
27048	14.867	0.54545	0.1	2081.5
27049	14.774	0.81818	0.1	2103.2
27050	14.867	0.72727	0.1	2080.5
27051	14.774	1.	0.1	2102.4
27052	14.867	0.90909	0.1	2079.6
27053	14.774	1.1818	0.1	2101.6
27054	14.867	1.0909	0.1	2078.8
27055	14.774	1.3636	0.1	2100.9
27056	14.867	1.2727	0.1	2078.1
27057	14.774	1.5455	0.1	2100.4
27058	14.867	1.4545	0.1	2077.5
27059	14.774	1.7273	0.1	2099.9
27060	14.867	1.6364	0.1	2077.
27061	14.774	1.9091	0.1	2099.4
27062	14.867	1.8182	0.1	2076.6
27063	14.774	2.0909	0.1	2099.1
27064	14.867	2.	0.1	2076.2
27065	14.774	2.2727	0.1	2098.8
27066	14.867	2.1818	0.1	2075.9
27067	14.774	2.4545	0.1	2098.6
27068	14.867	2.3636	0.1	2075.7
27069	14.774	2.6364	0.1	2098.4
27070	14.867	2.5455	0.1	2075.5
27071	14.774	2.8182	0.1	2098.3
27072	14.867	2.7273	0.1	2075.4
27073	14.774	3.	0.1	2098.3
27074	14.867	2.9091	0.1	2075.3
27075	14.774	3.1818	0.1	2098.3
27076	14.867	3.0909	0.1	2075.3
27077	14.774	3.3636	0.1	2098.4
27078	14.867	3.2727	0.1	2075.4
27079	14.774	3.5455	0.1	2098.6
27080	14.867	3.4545	0.1	2075.5
27081	14.774	3.7273	0.1	2098.8
27082	14.867	3.6364	0.1	2075.7
27083	14.774	3.9091	0.1	2099.1
27084	14.867	3.8182	0.1	2075.9
27085	14.774	4.0909	0.1	2099.4
27086	14.867	4.	0.1	2076.2
27087	14.774	4.2727	0.1	2099.9
27088	14.867	4.1818	0.1	2076.6
27089	14.774	4.4545	0.1	2100.4
27090	14.867	4.3636	0.1	2077.
27091	14.774	4.6364	0.1	2100.9
27092	14.867	4.5455	0.1	2077.5
27093	14.774	4.8182	0.1	2101.6
27094	14.867	4.7273	0.1	2078.1
27095	14.774	5.	0.1	2102.4
27096	14.867	4.9091	0.1	2078.8
27097	14.774	5.1818	0.1	2103.2
27098	14.867	5.0909	0.1	2079.6
27099	14.774	5.3636	0.1	2104.2
27100	14.867	5.2727	0.1	2080.5
27101	14.774	5.5455	0.1	2105.4
27102	14.867	5.4545	0.1	2081.5
27103	14.774	5.7273	0.1	2107.9
27104	14.867	5.6364	0.1	2082.7
27105	14.867	5.8182	0.1	2086.7
27106	14.774	5.9091	0.1	2101.9
27107	14.959	0.27273	0.1	2061.4
27108	15.051	0.18182	0.1	2040.2
27109	14.959	9.0909e-002	0.1	2055.2
27110	14.959	0.45455	0.1	2058.8
27111	15.051	0.36364	0.1	2036.3
27112	14.959	0.63636	0.1	2057.7
27113	15.051	0.54545	0.1	2035.1
27114	14.959	0.81818	0.1	2056.8
27115	15.051	0.72727	0.1	2034.1
27116	14.959	1.	0.1	2056.
27117	15.051	0.90909	0.1	2033.3
27118	14.959	1.1818	0.1	2055.3
27119	15.051	1.0909	0.1	2032.6
27120	14.959	1.3636	0.1	2054.7
27121	15.051	1.2727	0.1	2032.
27122	14.959	1.5455	0.1	2054.2
27123	15.051	1.4545	0.1	2031.4
27124	14.959	1.7273	0.1	2053.7
27125	15.051	1.6364	0.1	2031.
27126	14.959	1.9091	0.1	2053.3
27127	15.051	1.8182	0.1	2030.6
27128	14.959	2.0909	0.1	2053.
27129	15.051	2.	0.1	2030.2
27130	14.959	2.2727	0.1	2052.8
27131	15.051	2.1818	0.1	2030.
27132	14.959	2.4545	0.1	2052.6
27133	15.051	2.3636	0.1	2029.8
27134	14.959	2.6364	0.1	2052.4
27135	15.051	2.5455	0.1	2029.6
27136	14.959	2.8182	0.1	2052.3
27137	15.051	2.7273	0.1	2029.5
27138	14.959	3.	0.1	2052.3
27139	15.051	2.9091	0.1	2029.5
27140	14.959	3.1818	0.1	2052.3
27141	15.051	3.0909	0.1	2029.5
27142	14.959	3.3636	0.1	2052.4
27143	15.051	3.2727	0.1	2029.5
27144	14.959	3.5455	0.1	2052.6
27145	15.051	3.4545	0.1	2029.6
27146	14.959	3.7273	0.1	2052.8
27147	15.051	3.6364	0.1	2029.8
27148	14.959	3.9091	0.1	2053.
27149	15.051	3.8182	0.1	2030.
27150	14.959	4.0909	0.1	2053.3
27151	15.051	4.	0.1	2030.2
27152	14.959	4.2727	0.1	2053.7
27153	15.051	4.1818	0.1	2030.6
27154	14.959	4.4545	0.1	2054.2
27155	15.051	4.3636	0.1	2031.
27156	14.959	4.6364	0.1	2054.7
27157	15.051	4.5455	0.1	2031.4
27158	14.959	4.8182	0.1	2055.3
27159	15.051	4.7273	0.1	2032.
27160	14.959	5.	0.1	2056.
27161	15.051	4.9091	0.1	2032.6
27162	14.959	5.1818	0.1	2056.8
27163	15.051	5.0909	0.1	2033.3
27164	14.959	5.3636	0.1	2057.7
27165	15.051	5.2727	0.1	2034.1
27166	14.959	5.5455	0.1	2058.8
27167	15.051	5.4545	0.1	2035.1
27168	14.959	5.7273	0.1	2061.4
27169	15.051	5.6364	0.1	2036.3
27170	15.051	5.8182	0.1	2040.2
27171	14.959	5.9091	0.1	2055.2
27172	15.144	0.27273	0.1	2015.
27173	15.236	0.18182	0.1	1993.9
27174	15.144	9.0909e-002	0.1	2008.7
27175	15.144	0.45455	0.1	2012.5
27176	15.236	0.36364	0.1	1990.
27177	15.144	0.63636	0.1	2011.4
27178	15.236	0.54545	0.1	1988.9
27179	15.144	0.81818	0.1	2010.6
27180	15.236	0.72727	0.1	1988.
27181	15.144	1.	0.1	2009.9
27182	15.236	0.90909	0.1	1987.2
27183	15.144	1.1818	0.1	2009.2
27184	15.236	1.0909	0.1	1986.6
27185	15.144	1.3636	0.1	2008.7
27186	15.236	1.2727	0.1	1986.
27187	15.144	1.5455	0.1	2008.2
27188	15.236	1.4545	0.1	1985.5
27189	15.144	1.7273	0.1	2007.8
27190	15.236	1.6364	0.1	1985.1
27191	15.144	1.9091	0.1	2007.4
27192	15.236	1.8182	0.1	1984.8
27193	15.144	2.0909	0.1	2007.2
27194	15.236	2.	0.1	1984.5
27195	15.144	2.2727	0.1	2006.9
27196	15.236	2.1818	0.1	1984.2
27197	15.144	2.4545	0.1	2006.8
27198	15.236	2.3636	0.1	1984.1
27199	15.144	2.6364	0.1	2006.7
27200	15.236	2.5455	0.1	1983.9
27201	15.144	2.8182	0.1	2006.6
27202	15.236	2.7273	0.1	1983.9
27203	15.144	3.	0.1	2006.6
27204	15.236	2.9091	0.1	1983.8
27205	15.144	3.1818	0.1	2006.6
27206	15.236	3.0909	0.1	1983.8
27207	15.144	3.3636	0.1	2006.7
27208	15.236	3.2727	0.1	1983.9
27209	15.144	3.5455	0.1	2006.8
27210	15.236	3.4545	0.1	1983.9
27211	15.144	3.7273	0.1	2006.9
27212	15.236	3.6364	0.1	1984.1
27213	15.144	3.9091	0.1	2007.2
27214	15.236	3.8182	0.1	1984.2
27215	15.144	4.0909	0.1	2007.4
27216	15.236	4.	0.1	1984.5
27217	15.144	4.2727	0.1	2007.8
27218	15.236	4.1818	0.1	1984.8
27219	15.144	4.4545	0.1	2008.2
27220	15.236	4.3636	0.1	1985.1
27221	15.144	4.6364	0.1	2008.7
27222	15.236	4.5455	0.1	1985.5
27223	15.144	4.8182	0.1	2009.2
27224	15.236	4.7273	0.1	1986.
27225	15.144	5.	0.1	2009.9
27226	15.236	4.9091	0.1	1986.6
27227	15.144	5.1818	0.1	2010.6
27228	15.236	5.0909	0.1	1987.2
27229	15.144	5.3636	0.1	2011.4
27230	15.236	5.2727	0.1	1988.
27231	15.144	5.5455	0.1	2012.5
27232	15.236	5.4545	0.1	1988.9
27233	15.144	5.7273	0.1	2015.
27234	15.236	5.6364	0.1	1990.
27235	15.236	5.8182	0.1	1993.9
27236	15.144	5.9091	0.1	2008.7
27237	15.328	0.27273	0.1	1968.8
27238	15.421	0.18182	0.1	1947.8
27239	15.328	9.0909e-002	0.1	1962.3
27240	15.328	0.45455	0.1	1966.3
27241	15.421	0.36364	0.1	1943.9
27242	15.328	0.63636	0.1	1965.4
27243	15.421	0.54545	0.1	1942.8
27244	15.328	0.81818	0.1	1964.6
27245	15.421	0.72727	0.1	1942.
27246	15.328	1.	0.1	1963.9
27247	15.421	0.90909	0.1	1941.4
27248	15.328	1.1818	0.1	1963.3
27249	15.421	1.0909	0.1	1940.8
27250	15.328	1.3636	0.1	1962.8
27251	15.421	1.2727	0.1	1940.3
27252	15.328	1.5455	0.1	1962.4
27253	15.421	1.4545	0.1	1939.8
27254	15.328	1.7273	0.1	1962.1
27255	15.421	1.6364	0.1	1939.5
27256	15.328	1.9091	0.1	1961.8
27257	15.421	1.8182	0.1	1939.2
27258	15.328	2.0909	0.1	1961.5
27259	15.421	2.	0.1	1938.9
27260	15.328	2.2727	0.1	1961.3
27261	15.421	2.1818	0.1	1938.7
27262	15.328	2.4545	0.1	1961.2
27263	15.421	2.3636	0.1	1938.6
27264	15.328	2.6364	0.1	1961.1
27265	15.421	2.5455	0.1	1938.5
27266	15.328	2.8182	0.1	1961.
27267	15.421	2.7273	0.1	1938.4
27268	15.328	3.	0.1	1961.
27269	15.421	2.9091	0.1	1938.4
27270	15.328	3.1818	0.1	1961.
27271	15.421	3.0909	0.1	1938.4
27272	15.328	3.3636	0.1	1961.1
27273	15.421	3.2727	0.1	1938.4
27274	15.328	3.5455	0.1	1961.2
27275	15.421	3.4545	0.1	1938.5
27276	15.328	3.7273	0.1	1961.3
27277	15.421	3.6364	0.1	1938.6
27278	15.328	3.9091	0.1	1961.5
27279	15.421	3.8182	0.1	1938.7
27280	15.328	4.0909	0.1	1961.8
27281	15.421	4.	0.1	1938.9
27282	15.328	4.2727	0.1	1962.1
27283	15.421	4.1818	0.1	1939.2
27284	15.328	4.4545	0.1	1962.4
27285	15.421	4.3636	0.1	1939.5
27286	15.328	4.6364	0.1	1962.8
27287	15.421	4.5455	0.1	1939.8
27288	15.328	4.8182	0.1	1963.3
27289	15.421	4.7273	0.1	1940.3
27290	15.328	5.	0.1	1963.9
27291	15.421	4.9091	0.1	1940.8
27292	15.328	5.1818	0.1	1964.6
27293	15.421	5.0909	0.1	1941.4
27294	15.328	5.3636	0.1	1965.4
27295	15.421	5.2727	0.1	1942.
27296	15.328	5.5455	0.1	1966.3
27297	15.421	5.4545	0.1	1942.8
27298	15.328	5.7273	0.1	1968.8
27299	15.421	5.6364	0.1	1943.9
27300	15.421	5.8182	0.1	1947.8
27301	15.328	5.9091	0.1	1962.3
27302	15.513	0.27273	0.1	1922.8
27303	15.605	0.18182	0.1	1901.9
27304	15.513	9.0909e-002	0.1	1916.2
27305	15.513	0.45455	0.1	1920.4
27306	15.605	0.36364	0.1	1898.
27307	15.513	0.63636	0.1	1919.5
27308	15.605	0.54545	0.1	1897.
27309	15.513	0.81818	0.1	1918.8
27310	15.605	0.72727	0.1	1896.3
27311	15.513	1.	0.1	1918.2
27312	15.605	0.90909	0.1	1895.7
27313	15.513	1.1818	0.1	1917.6
27314	15.605	1.0909	0.1	1895.1
27315	15.513	1.3636	0.1	1917.2
27316	15.605	1.2727	0.1	1894.7
27317	15.513	1.5455	0.1	1916.8
27318	15.605	1.4545	0.1	1894.3
27319	15.513	1.7273	0.1	1916.5
27320	15.605	1.6364	0.1	1894.
27321	15.513	1.9091	0.1	1916.3
27322	15.605	1.8182	0.1	1893.8
27323	15.513	2.0909	0.1	1916.1
27324	15.605	2.	0.1	1893.6
27325	15.513	2.2727	0.1	1916.
27326	15.605	2.1818	0.1	1893.5
27327	15.513	2.4545	0.1	1915.8
27328	15.605	2.3636	0.1	1893.3
27329	15.513	2.6364	0.1	1915.8
27330	15.605	2.5455	0.1	1893.3
27331	15.513	2.8182	0.1	1915.7
27332	15.605	2.7273	0.1	1893.2
27333	15.513	3.	0.1	1915.7
27334	15.605	2.9091	0.1	1893.2
27335	15.513	3.1818	0.1	1915.7
27336	15.605	3.0909	0.1	1893.2
27337	15.513	3.3636	0.1	1915.8
27338	15.605	3.2727	0.1	1893.2
27339	15.513	3.5455	0.1	1915.8
27340	15.605	3.4545	0.1	1893.3
27341	15.513	3.7273	0.1	1916.
27342	15.605	3.6364	0.1	1893.3
27343	15.513	3.9091	0.1	1916.1
27344	15.605	3.8182	0.1	1893.5
27345	15.513	4.0909	0.1	1916.3
27346	15.605	4.	0.1	1893.6
27347	15.513	4.2727	0.1	1916.5
27348	15.605	4.1818	0.1	1893.8
27349	15.513	4.4545	0.1	1916.8
27350	15.605	4.3636	0.1	1894.
27351	15.513	4.6364	0.1	1917.2
27352	15.605	4.5455	0.1	1894.3
27353	15.513	4.8182	0.1	1917.6
27354	15.605	4.7273	0.1	1894.7
27355	15.513	5.	0.1	1918.2
27356	15.605	4.9091	0.1	1895.1
27357	15.513	5.1818	0.1	1918.8
27358	15.605	5.0909	0.1	1895.7
27359	15.513	5.3636	0.1	1919.5
27360	15.605	5.2727	0.1	1896.3
27361	15.513	5.5455	0.1	1920.4
27362	15.605	5.4545	0.1	1897.
27363	15.513	5.7273	0.1	1922.8
27364	15.605	5.6364	0.1	1898.
27365	15.605	5.8182	0.1	1901.9
27366	15.513	5.9091	0.1	1916.2
27367	15.698	0.27273	0.1	1876.9
27368	15.79	0.18182	0.1	1856.1
27369	15.698	9.0909e-002	0.1	1870.2
27370	15.698	0.45455	0.1	1874.6
27371	15.79	0.36364	0.1	1852.3
27372	15.698	0.63636	0.1	1873.8
27373	15.79	0.54545	0.1	1851.4
27374	15.698	0.81818	0.1	1873.1
27375	15.79	0.72727	0.1	1850.7
27376	15.698	1.	0.1	1872.6
27377	15.79	0.90909	0.1	1850.2
27378	15.698	1.1818	0.1	1872.2
27379	15.79	1.0909	0.1	1849.7
27380	15.698	1.3636	0.1	1871.8
27381	15.79	1.2727	0.1	1849.4
27382	15.698	1.5455	0.1	1871.5
27383	15.79	1.4545	0.1	1849.1
27384	15.698	1.7273	0.1	1871.3
27385	15.79	1.6364	0.1	1848.8
27386	15.698	1.9091	0.1	1871.1
27387	15.79	1.8182	0.1	1848.7
27388	15.698	2.0909	0.1	1870.9
27389	15.79	2.	0.1	1848.5
27390	15.698	2.2727	0.1	1870.8
27391	15.79	2.1818	0.1	1848.4
27392	15.698	2.4545	0.1	1870.7
27393	15.79	2.3636	0.1	1848.3
27394	15.698	2.6364	0.1	1870.7
27395	15.79	2.5455	0.1	1848.3
27396	15.698	2.8182	0.1	1870.6
27397	15.79	2.7273	0.1	1848.2
27398	15.698	3.	0.1	1870.6
27399	15.79	2.9091	0.1	1848.2
27400	15.698	3.1818	0.1	1870.6
27401	15.79	3.0909	0.1	1848.2
27402	15.698	3.3636	0.1	1870.7
27403	15.79	3.2727	0.1	1848.2
27404	15.698	3.5455	0.1	1870.7
27405	15.79	3.4545	0.1	1848.3
27406	15.698	3.7273	0.1	1870.8
27407	15.79	3.6364	0.1	1848.3
27408	15.698	3.9091	0.1	1870.9
27409	15.79	3.8182	0.1	1848.4
27410	15.698	4.0909	0.1	1871.1
27411	15.79	4.	0.1	1848.5
27412	15.698	4.2727	0.1	1871.3
27413	15.79	4.1818	0.1	1848.7
27414	15.698	4.4545	0.1	1871.5
27415	15.79	4.3636	0.1	1848.8
27416	15.698	4.6364	0.1	1871.8
27417	15.79	4.5455	0.1	1849.1
27418	15.698	4.8182	0.1	1872.2
27419	15.79	4.7273	0.1	1849.4
27420	15.698	5.	0.1	1872.6
27421	15.79	4.9091	0.1	1849.7
27422	15.698	5.1818	0.1	1873.1
27423	15.79	5.0909	0.1	1850.2
27424	15.698	5.3636	0.1	1873.8
27425	15.79	5.2727	0.1	1850.7
27426	15.698	5.5455	0.1	1874.6
27427	15.79	5.4545	0.1	1851.4
27428	15.698	5.7273	0.1	1876.9
27429	15.79	5.6364	0.1	1852.3
27430	15.79	5.8182	0.1	1856.1
27431	15.698	5.9091	0.1	1870.2
27432	15.882	0.27273	0.1	1831.3
27433	15.975	0.18182	0.1	1810.6
27434	15.882	9.0909e-002	0.1	1824.5
27435	15.882	0.45455	0.1	1829.
27436	15.975	0.36364	0.1	1806.8
27437	15.882	0.63636	0.1	1828.3
27438	15.975	0.54545	0.1	1806.
27439	15.882	0.81818	0.1	1827.7
27440	15.975	0.72727	0.1	1805.4
27441	15.882	1.	0.1	1827.3
27442	15.975	0.90909	0.1	1804.9
27443	15.882	1.1818	0.1	1826.9
27444	15.975	1.0909	0.1	1804.5
27445	15.882	1.3636	0.1	1826.6
27446	15.975	1.2727	0.1	1804.3
27447	15.882	1.5455	0.1	1826.4
27448	15.975	1.4545	0.1	1804.
27449	15.882	1.7273	0.1	1826.2
27450	15.975	1.6364	0.1	1803.9
27451	15.882	1.9091	0.1	1826.1
27452	15.975	1.8182	0.1	1803.7
27453	15.882	2.0909	0.1	1826.
27454	15.975	2.	0.1	1803.6
27455	15.882	2.2727	0.1	1825.9
27456	15.975	2.1818	0.1	1803.6
27457	15.882	2.4545	0.1	1825.8
27458	15.975	2.3636	0.1	1803.5
27459	15.882	2.6364	0.1	1825.8
27460	15.975	2.5455	0.1	1803.5
27461	15.882	2.8182	0.1	1825.8
27462	15.975	2.7273	0.1	1803.5
27463	15.882	3.	0.1	1825.8
27464	15.975	2.9091	0.1	1803.5
27465	15.882	3.1818	0.1	1825.8
27466	15.975	3.0909	0.1	1803.5
27467	15.882	3.3636	0.1	1825.8
27468	15.975	3.2727	0.1	1803.5
27469	15.882	3.5455	0.1	1825.8
27470	15.975	3.4545	0.1	1803.5
27471	15.882	3.7273	0.1	1825.9
27472	15.975	3.6364	0.1	1803.5
27473	15.882	3.9091	0.1	1826.
27474	15.975	3.8182	0.1	1803.6
27475	15.882	4.0909	0.1	1826.1
27476	15.975	4.	0.1	1803.6
27477	15.882	4.2727	0.1	1826.2
27478	15.975	4.1818	0.1	1803.7
27479	15.882	4.4545	0.1	1826.4
27480	15.975	4.3636	0.1	1803.9
27481	15.882	4.6364	0.1	1826.6
27482	15.975	4.5455	0.1	1804.
27483	15.882	4.8182	0.1	1826.9
27484	15.975	4.7273	0.1	1804.3
27485	15.882	5.	0.1	1827.3
27486	15.975	4.9091	0.1	1804.5
27487	15.882	5.1818	0.1	1827.7
27488	15.975	5.0909	0.1	1804.9
27489	15.882	5.3636	0.1	1828.3
27490	15.975	5.2727	0.1	1805.4
27491	15.882	5.5455	0.1	1829.
27492	15.975	5.4545	0.1	1806.
27493	15.882	5.7273	0.1	1831.3
27494	15.975	5.6364	0.1	1806.8
27495	15.975	5.8182	0.1	1810.6
27496	15.882	5.9091	0.1	1824.5
27497	16.067	0.27273	0.1	1785.9
27498	16.159	0.18182	0.1	1765.2
27499	16.067	9.0909e-002	0.1	1778.9
27500	16.067	0.45455	0.1	1783.7
27501	16.159	0.36364	0.1	1761.5
27502	16.067	0.63636	0.1	1783.
27503	16.159	0.54545	0.1	1760.7
27504	16.067	0.81818	0.1	1782.5
27505	16.159	0.72727	0.1	1760.2
27506	16.067	1.	0.1	1782.1
27507	16.159	0.90909	0.1	1759.8
27508	16.067	1.1818	0.1	1781.8
27509	16.159	1.0909	0.1	1759.6
27510	16.067	1.3636	0.1	1781.6
27511	16.159	1.2727	0.1	1759.3
27512	16.067	1.5455	0.1	1781.5
27513	16.159	1.4545	0.1	1759.2
27514	16.067	1.7273	0.1	1781.4
27515	16.159	1.6364	0.1	1759.1
27516	16.067	1.9091	0.1	1781.3
27517	16.159	1.8182	0.1	1759.
27518	16.067	2.0909	0.1	1781.2
27519	16.159	2.	0.1	1759.
27520	16.067	2.2727	0.1	1781.2
27521	16.159	2.1818	0.1	1759.
27522	16.067	2.4545	0.1	1781.2
27523	16.159	2.3636	0.1	1759.
27524	16.067	2.6364	0.1	1781.2
27525	16.159	2.5455	0.1	1759.
27526	16.067	2.8182	0.1	1781.2
27527	16.159	2.7273	0.1	1759.
27528	16.067	3.	0.1	1781.2
27529	16.159	2.9091	0.1	1759.
27530	16.067	3.1818	0.1	1781.2
27531	16.159	3.0909	0.1	1759.
27532	16.067	3.3636	0.1	1781.2
27533	16.159	3.2727	0.1	1759.
27534	16.067	3.5455	0.1	1781.2
27535	16.159	3.4545	0.1	1759.
27536	16.067	3.7273	0.1	1781.2
27537	16.159	3.6364	0.1	1759.
27538	16.067	3.9091	0.1	1781.2
27539	16.159	3.8182	0.1	1759.
27540	16.067	4.0909	0.1	1781.3
27541	16.159	4.	0.1	1759.
27542	16.067	4.2727	0.1	1781.4
27543	16.159	4.1818	0.1	1759.
27544	16.067	4.4545	0.1	1781.5
27545	16.159	4.3636	0.1	1759.1
27546	16.067	4.6364	0.1	1781.6
27547	16.159	4.5455	0.1	1759.2
27548	16.067	4.8182	0.1	1781.8
27549	16.159	4.7273	0.1	1759.3
27550	16.067	5.	0.1	1782.1
27551	16.159	4.9091	0.1	1759.6
27552	16.067	5.1818	0.1	1782.5
27553	16.159	5.0909	0.1	1759.8
27554	16.067	5.3636	0.1	1783.
27555	16.159	5.2727	0.1	1760.2
27556	16.067	5.5455	0.1	1783.7
27557	16.159	5.4545	0.1	1760.7
27558	16.067	5.7273	0.1	1785.9
27559	16.159	5.6364	0.1	1761.5
27560	16.159	5.8182	0.1	1765.2
27561	16.067	5.9091	0.1	1778.9
27562	16.252	0.27273	0.1	1740.6
27563	16.344	0.18182	0.1	1720.
27564	16.252	9.0909e-002	0.1	1733.5
27565	16.252	0.45455	0.1	1738.5
27566	16.344	0.36364	0.1	1716.3
27567	16.252	0.63636	0.1	1737.9
27568	16.344	0.54545	0.1	1715.6
27569	16.252	0.81818	0.1	1737.5
27570	16.344	0.72727	0.1	1715.2
27571	16.252	1.	0.1	1737.2
27572	16.344	0.90909	0.1	1715.
27573	16.252	1.1818	0.1	1737.
27574	16.344	1.0909	0.1	1714.8
27575	16.252	1.3636	0.1	1736.9
27576	16.344	1.2727	0.1	1714.7
27577	16.252	1.5455	0.1	1736.8
27578	16.344	1.4545	0.1	1714.6
27579	16.252	1.7273	0.1	1736.7
27580	16.344	1.6364	0.1	1714.6
27581	16.252	1.9091	0.1	1736.7
27582	16.344	1.8182	0.1	1714.6
27583	16.252	2.0909	0.1	1736.7
27584	16.344	2.	0.1	1714.6
27585	16.252	2.2727	0.1	1736.7
27586	16.344	2.1818	0.1	1714.7
27587	16.252	2.4545	0.1	1736.8
27588	16.344	2.3636	0.1	1714.7
27589	16.252	2.6364	0.1	1736.8
27590	16.344	2.5455	0.1	1714.7
27591	16.252	2.8182	0.1	1736.8
27592	16.344	2.7273	0.1	1714.8
27593	16.252	3.	0.1	1736.8
27594	16.344	2.9091	0.1	1714.8
27595	16.252	3.1818	0.1	1736.8
27596	16.344	3.0909	0.1	1714.8
27597	16.252	3.3636	0.1	1736.8
27598	16.344	3.2727	0.1	1714.8
27599	16.252	3.5455	0.1	1736.8
27600	16.344	3.4545	0.1	1714.7
27601	16.252	3.7273	0.1	1736.7
27602	16.344	3.6364	0.1	1714.7
27603	16.252	3.9091	0.1	1736.7
27604	16.344	3.8182	0.1	1714.7
27605	16.252	4.0909	0.1	1736.7
27606	16.344	4.	0.1	1714.6
27607	16.252	4.2727	0.1	1736.7
27608	16.344	4.1818	0.1	1714.6
27609	16.252	4.4545	0.1	1736.8
27610	16.344	4.3636	0.1	1714.6
27611	16.252	4.6364	0.1	1736.9
27612	16.344	4.5455	0.1	1714.6
27613	16.252	4.8182	0.1	1737.
27614	16.344	4.7273	0.1	1714.7
27615	16.252	5.	0.1	1737.2
27616	16.344	4.9091	0.1	1714.8
27617	16.252	5.1818	0.1	1737.5
27618	16.344	5.0909	0.1	1715.
27619	16.252	5.3636	0.1	1737.9
27620	16.344	5.2727	0.1	1715.2
27621	16.252	5.5455	0.1	1738.5
27622	16.344	5.4545	0.1	1715.6
27623	16.252	5.7273	0.1	1740.6
27624	16.344	5.6364	0.1	1716.3
27625	16.344	5.8182	0.1	1720.
27626	16.252	5.9091	0.1	1733.5
27627	16.436	0.27273	0.1	1695.5
27628	16.529	0.18182	0.1	1674.9
27629	16.436	9.0909e-002	0.1	1688.2
27630	16.436	0.45455	0.1	1693.5
27631	16.529	0.36364	0.1	1671.4
27632	16.436	0.63636	0.1	1693.
27633	16.529	0.54545	0.1	1670.8
27634	16.436	0.81818	0.1	1692.7
27635	16.529	0.72727	0.1	1670.5
27636	16.436	1.	0.1	1692.5
27637	16.529	0.90909	0.1	1670.3
27638	16.436	1.1818	0.1	1692.4
27639	16.529	1.0909	0.1	1670.2
27640	16.436	1.3636	0.1	1692.3
27641	16.529	1.2727	0.1	1670.2
27642	16.436	1.5455	0.1	1692.3
27643	16.529	1.4545	0.1	1670.2
27644	16.436	1.7273	0.1	1692.4
27645	16.529	1.6364	0.1	1670.3
27646	16.436	1.9091	0.1	1692.4
27647	16.529	1.8182	0.1	1670.4
27648	16.436	2.0909	0.1	1692.5
27649	16.529	2.	0.1	1670.5
27650	16.436	2.2727	0.1	1692.6
27651	16.529	2.1818	0.1	1670.6
27652	16.436	2.4545	0.1	1692.6
27653	16.529	2.3636	0.1	1670.6
27654	16.436	2.6364	0.1	1692.7
27655	16.529	2.5455	0.1	1670.7
27656	16.436	2.8182	0.1	1692.7
27657	16.529	2.7273	0.1	1670.8
27658	16.436	3.	0.1	1692.7
27659	16.529	2.9091	0.1	1670.8
27660	16.436	3.1818	0.1	1692.7
27661	16.529	3.0909	0.1	1670.8
27662	16.436	3.3636	0.1	1692.7
27663	16.529	3.2727	0.1	1670.8
27664	16.436	3.5455	0.1	1692.6
27665	16.529	3.4545	0.1	1670.7
27666	16.436	3.7273	0.1	1692.6
27667	16.529	3.6364	0.1	1670.6
27668	16.436	3.9091	0.1	1692.5
27669	16.529	3.8182	0.1	1670.6
27670	16.436	4.0909	0.1	1692.4
27671	16.529	4.	0.1	1670.5
27672	16.436	4.2727	0.1	1692.4
27673	16.529	4.1818	0.1	1670.4
27674	16.436	4.4545	0.1	1692.3
27675	16.529	4.3636	0.1	1670.3
27676	16.436	4.6364	0.1	1692.3
27677	16.529	4.5455	0.1	1670.2
27678	16.436	4.8182	0.1	1692.4
27679	16.529	4.7273	0.1	1670.2
27680	16.436	5.	0.1	1692.5
27681	16.529	4.9091	0.1	1670.2
27682	16.436	5.1818	0.1	1692.7
27683	16.529	5.0909	0.1	1670.3
27684	16.436	5.3636	0.1	1693.
27685	16.529	5.2727	0.1	1670.5
27686	16.436	5.5455	0.1	1693.5
27687	16.529	5.4545	0.1	1670.8
27688	16.436	5.7273	0.1	1695.5
27689	16.529	5.6364	0.1	1671.4
27690	16.529	5.8182	0.1	1674.9
27691	16.436	5.9091	0.1	1688.2
27692	16.621	0.27273	0.1	1650.6
27693	16.713	0.18182	0.1	1630.1
27694	16.621	9.0909e-002	0.1	1643.2
27695	16.621	0.45455	0.1	1648.6
27696	16.713	0.36364	0.1	1626.6
27697	16.621	0.63636	0.1	1648.2
27698	16.713	0.54545	0.1	1626.1
27699	16.621	0.81818	0.1	1648.1
27700	16.713	0.72727	0.1	1625.9
27701	16.621	1.	0.1	1648.
27702	16.713	0.90909	0.1	1625.8
27703	16.621	1.1818	0.1	1648.
27704	16.713	1.0909	0.1	1625.9
27705	16.621	1.3636	0.1	1648.
27706	16.713	1.2727	0.1	1625.9
27707	16.621	1.5455	0.1	1648.1
27708	16.713	1.4545	0.1	1626.1
27709	16.621	1.7273	0.1	1648.2
27710	16.713	1.6364	0.1	1626.2
27711	16.621	1.9091	0.1	1648.4
27712	16.713	1.8182	0.1	1626.4
27713	16.621	2.0909	0.1	1648.5
27714	16.713	2.	0.1	1626.6
27715	16.621	2.2727	0.1	1648.6
27716	16.713	2.1818	0.1	1626.7
27717	16.621	2.4545	0.1	1648.7
27718	16.713	2.3636	0.1	1626.8
27719	16.621	2.6364	0.1	1648.8
27720	16.713	2.5455	0.1	1627.
27721	16.621	2.8182	0.1	1648.8
27722	16.713	2.7273	0.1	1627.
27723	16.621	3.	0.1	1648.8
27724	16.713	2.9091	0.1	1627.1
27725	16.621	3.1818	0.1	1648.8
27726	16.713	3.0909	0.1	1627.1
27727	16.621	3.3636	0.1	1648.8
27728	16.713	3.2727	0.1	1627.
27729	16.621	3.5455	0.1	1648.7
27730	16.713	3.4545	0.1	1627.
27731	16.621	3.7273	0.1	1648.6
27732	16.713	3.6364	0.1	1626.8
27733	16.621	3.9091	0.1	1648.5
27734	16.713	3.8182	0.1	1626.7
27735	16.621	4.0909	0.1	1648.4
27736	16.713	4.	0.1	1626.6
27737	16.621	4.2727	0.1	1648.2
27738	16.713	4.1818	0.1	1626.4
27739	16.621	4.4545	0.1	1648.1
27740	16.713	4.3636	0.1	1626.2
27741	16.621	4.6364	0.1	1648.
27742	16.713	4.5455	0.1	1626.1
27743	16.621	4.8182	0.1	1648.
27744	16.713	4.7273	0.1	1625.9
27745	16.621	5.	0.1	1648.
27746	16.713	4.9091	0.1	1625.9
27747	16.621	5.1818	0.1	1648.1
27748	16.713	5.0909	0.1	1625.8
27749	16.621	5.3636	0.1	1648.2
27750	16.713	5.2727	0.1	1625.9
27751	16.621	5.5455	0.1	1648.6
27752	16.713	5.4545	0.1	1626.1
27753	16.621	5.7273	0.1	1650.6
27754	16.713	5.6364	0.1	1626.6
27755	16.713	5.8182	0.1	1630.1
27756	16.621	5.9091	0.1	1643.2
27757	16.806	0.27273	0.1	1605.8
27758	16.898	0.18182	0.1	1585.3
27759	16.806	9.0909e-002	0.1	1598.3
27760	16.806	0.45455	0.1	1604.
27761	16.898	0.36364	0.1	1582.
27762	16.806	0.63636	0.1	1603.7
27763	16.898	0.54545	0.1	1581.6
27764	16.806	0.81818	0.1	1603.6
27765	16.898	0.72727	0.1	1581.5
27766	16.806	1.	0.1	1603.7
27767	16.898	0.90909	0.1	1581.6
27768	16.806	1.1818	0.1	1603.8
27769	16.898	1.0909	0.1	1581.7
27770	16.806	1.3636	0.1	1603.9
27771	16.898	1.2727	0.1	1581.9
27772	16.806	1.5455	0.1	1604.1
27773	16.898	1.4545	0.1	1582.2
27774	16.806	1.7273	0.1	1604.3
27775	16.898	1.6364	0.1	1582.4
27776	16.806	1.9091	0.1	1604.5
27777	16.898	1.8182	0.1	1582.7
27778	16.806	2.0909	0.1	1604.7
27779	16.898	2.	0.1	1582.9
27780	16.806	2.2727	0.1	1604.9
27781	16.898	2.1818	0.1	1583.1
27782	16.806	2.4545	0.1	1605.1
27783	16.898	2.3636	0.1	1583.3
27784	16.806	2.6364	0.1	1605.2
27785	16.898	2.5455	0.1	1583.5
27786	16.806	2.8182	0.1	1605.2
27787	16.898	2.7273	0.1	1583.6
27788	16.806	3.	0.1	1605.3
27789	16.898	2.9091	0.1	1583.6
27790	16.806	3.1818	0.1	1605.2
27791	16.898	3.0909	0.1	1583.6
27792	16.806	3.3636	0.1	1605.2
27793	16.898	3.2727	0.1	1583.6
27794	16.806	3.5455	0.1	1605.1
27795	16.898	3.4545	0.1	1583.5
27796	16.806	3.7273	0.1	1604.9
27797	16.898	3.6364	0.1	1583.3
27798	16.806	3.9091	0.1	1604.7
27799	16.898	3.8182	0.1	1583.1
27800	16.806	4.0909	0.1	1604.5
27801	16.898	4.	0.1	1582.9
27802	16.806	4.2727	0.1	1604.3
27803	16.898	4.1818	0.1	1582.7
27804	16.806	4.4545	0.1	1604.1
27805	16.898	4.3636	0.1	1582.4
27806	16.806	4.6364	0.1	1603.9
27807	16.898	4.5455	0.1	1582.2
27808	16.806	4.8182	0.1	1603.8
27809	16.898	4.7273	0.1	1581.9
27810	16.806	5.	0.1	1603.7
27811	16.898	4.9091	0.1	1581.7
27812	16.806	5.1818	0.1	1603.6
27813	16.898	5.0909	0.1	1581.6
27814	16.806	5.3636	0.1	1603.7
27815	16.898	5.2727	0.1	1581.5
27816	16.806	5.5455	0.1	1604.
27817	16.898	5.4545	0.1	1581.6
27818	16.806	5.7273	0.1	1605.8
27819	16.898	5.6364	0.1	1582.
27820	16.898	5.8182	0.1	1585.3
27821	16.806	5.9091	0.1	1598.3
27822	16.99	0.27273	0.1	1561.3
27823	17.083	0.18182	0.1	1540.8
27824	16.99	9.0909e-002	0.1	1553.5
27825	16.99	0.45455	0.1	1559.5
27826	17.083	0.36364	0.1	1537.5
27827	16.99	0.63636	0.1	1559.4
27828	17.083	0.54545	0.1	1537.3
27829	16.99	0.81818	0.1	1559.4
27830	17.083	0.72727	0.1	1537.4
27831	16.99	1.	0.1	1559.6
27832	17.083	0.90909	0.1	1537.5
27833	16.99	1.1818	0.1	1559.8
27834	17.083	1.0909	0.1	1537.8
27835	16.99	1.3636	0.1	1560.1
27836	17.083	1.2727	0.1	1538.1
27837	16.99	1.5455	0.1	1560.4
27838	17.083	1.4545	0.1	1538.5
27839	16.99	1.7273	0.1	1560.7
27840	17.083	1.6364	0.1	1538.8
27841	16.99	1.9091	0.1	1561.
27842	17.083	1.8182	0.1	1539.2
27843	16.99	2.0909	0.1	1561.3
27844	17.083	2.	0.1	1539.5
27845	16.99	2.2727	0.1	1561.5
27846	17.083	2.1818	0.1	1539.8
27847	16.99	2.4545	0.1	1561.7
27848	17.083	2.3636	0.1	1540.1
27849	16.99	2.6364	0.1	1561.8
27850	17.083	2.5455	0.1	1540.3
27851	16.99	2.8182	0.1	1561.9
27852	17.083	2.7273	0.1	1540.4
27853	16.99	3.	0.1	1561.9
27854	17.083	2.9091	0.1	1540.5
27855	16.99	3.1818	0.1	1561.9
27856	17.083	3.0909	0.1	1540.5
27857	16.99	3.3636	0.1	1561.8
27858	17.083	3.2727	0.1	1540.4
27859	16.99	3.5455	0.1	1561.7
27860	17.083	3.4545	0.1	1540.3
27861	16.99	3.7273	0.1	1561.5
27862	17.083	3.6364	0.1	1540.1
27863	16.99	3.9091	0.1	1561.3
27864	17.083	3.8182	0.1	1539.8
27865	16.99	4.0909	0.1	1561.
27866	17.083	4.	0.1	1539.5
27867	16.99	4.2727	0.1	1560.7
27868	17.083	4.1818	0.1	1539.2
27869	16.99	4.4545	0.1	1560.4
27870	17.083	4.3636	0.1	1538.8
27871	16.99	4.6364	0.1	1560.1
27872	17.083	4.5455	0.1	1538.5
27873	16.99	4.8182	0.1	1559.8
27874	17.083	4.7273	0.1	1538.1
27875	16.99	5.	0.1	1559.6
27876	17.083	4.9091	0.1	1537.8
27877	16.99	5.1818	0.1	1559.4
27878	17.083	5.0909	0.1	1537.5
27879	16.99	5.3636	0.1	1559.4
27880	17.083	5.2727	0.1	1537.4
27881	16.99	5.5455	0.1	1559.5
27882	17.083	5.4545	0.1	1537.3
27883	16.99	5.7273	0.1	1561.3
27884	17.083	5.6364	0.1	1537.5
27885	17.083	5.8182	0.1	1540.8
27886	16.99	5.9091	0.1	1553.5
27887	17.175	0.27273	0.1	1516.8
27888	17.267	0.18182	0.1	1496.4
27889	17.175	9.0909e-002	0.1	1508.9
27890	17.175	0.45455	0.1	1515.2
27891	17.267	0.36364	0.1	1493.2
27892	17.175	0.63636	0.1	1515.2
27893	17.267	0.54545	0.1	1493.1
27894	17.175	0.81818	0.1	1515.4
27895	17.267	0.72727	0.1	1493.4
27896	17.175	1.	0.1	1515.7
27897	17.267	0.90909	0.1	1493.7
27898	17.175	1.1818	0.1	1516.1
27899	17.267	1.0909	0.1	1494.1
27900	17.175	1.3636	0.1	1516.5
27901	17.267	1.2727	0.1	1494.6
27902	17.175	1.5455	0.1	1516.9
27903	17.267	1.4545	0.1	1495.1
27904	17.175	1.7273	0.1	1517.3
27905	17.267	1.6364	0.1	1495.5
27906	17.175	1.9091	0.1	1517.7
27907	17.267	1.8182	0.1	1496.
27908	17.175	2.0909	0.1	1518.
27909	17.267	2.	0.1	1496.4
27910	17.175	2.2727	0.1	1518.4
27911	17.267	2.1818	0.1	1496.8
27912	17.175	2.4545	0.1	1518.6
27913	17.267	2.3636	0.1	1497.1
27914	17.175	2.6364	0.1	1518.8
27915	17.267	2.5455	0.1	1497.3
27916	17.175	2.8182	0.1	1518.9
27917	17.267	2.7273	0.1	1497.5
27918	17.175	3.	0.1	1518.9
27919	17.267	2.9091	0.1	1497.6
27920	17.175	3.1818	0.1	1518.9
27921	17.267	3.0909	0.1	1497.6
27922	17.175	3.3636	0.1	1518.8
27923	17.267	3.2727	0.1	1497.5
27924	17.175	3.5455	0.1	1518.6
27925	17.267	3.4545	0.1	1497.3
27926	17.175	3.7273	0.1	1518.4
27927	17.267	3.6364	0.1	1497.1
27928	17.175	3.9091	0.1	1518.
27929	17.267	3.8182	0.1	1496.8
27930	17.175	4.0909	0.1	1517.7
27931	17.267	4.	0.1	1496.4
27932	17.175	4.2727	0.1	1517.3
27933	17.267	4.1818	0.1	1496.
27934	17.175	4.4545	0.1	1516.9
27935	17.267	4.3636	0.1	1495.5
27936	17.175	4.6364	0.1	1516.5
27937	17.267	4.5455	0.1	1495.1
27938	17.175	4.8182	0.1	1516.1
27939	17.267	4.7273	0.1	1494.6
27940	17.175	5.	0.1	1515.7
27941	17.267	4.9091	0.1	1494.1
27942	17.175	5.1818	0.1	1515.4
27943	17.267	5.0909	0.1	1493.7
27944	17.175	5.3636	0.1	1515.2
27945	17.267	5.2727	0.1	1493.4
27946	17.175	5.5455	0.1	1515.2
27947	17.267	5.4545	0.1	1493.1
27948	17.175	5.7273	0.1	1516.8
27949	17.267	5.6364	0.1	1493.2
27950	17.267	5.8182	0.1	1496.4
27951	17.175	5.9091	0.1	1508.9
27952	17.36	0.27273	0.1	1472.6
27953	17.452	0.18182	0.1	1452.1
27954	17.36	9.0909e-002	0.1	1464.5
27955	17.36	0.45455	0.1	1471.1
27956	17.452	0.36364	0.1	1449.1
27957	17.36	0.63636	0.1	1471.2
27958	17.452	0.54545	0.1	1449.2
27959	17.36	0.81818	0.1	1471.6
27960	17.452	0.72727	0.1	1449.6
27961	17.36	1.	0.1	1472.1
27962	17.452	0.90909	0.1	1450.1
27963	17.36	1.1818	0.1	1472.6
27964	17.452	1.0909	0.1	1450.6
27965	17.36	1.3636	0.1	1473.1
27966	17.452	1.2727	0.1	1451.3
27967	17.36	1.5455	0.1	1473.7
27968	17.452	1.4545	0.1	1451.9
27969	17.36	1.7273	0.1	1474.2
27970	17.452	1.6364	0.1	1452.5
27971	17.36	1.9091	0.1	1474.7
27972	17.452	1.8182	0.1	1453.1
27973	17.36	2.0909	0.1	1475.1
27974	17.452	2.	0.1	1453.6
27975	17.36	2.2727	0.1	1475.5
27976	17.452	2.1818	0.1	1454.
27977	17.36	2.4545	0.1	1475.8
27978	17.452	2.3636	0.1	1454.4
27979	17.36	2.6364	0.1	1476.
27980	17.452	2.5455	0.1	1454.7
27981	17.36	2.8182	0.1	1476.1
27982	17.452	2.7273	0.1	1454.9
27983	17.36	3.	0.1	1476.2
27984	17.452	2.9091	0.1	1455.
27985	17.36	3.1818	0.1	1476.1
27986	17.452	3.0909	0.1	1455.
27987	17.36	3.3636	0.1	1476.
27988	17.452	3.2727	0.1	1454.9
27989	17.36	3.5455	0.1	1475.8
27990	17.452	3.4545	0.1	1454.7
27991	17.36	3.7273	0.1	1475.5
27992	17.452	3.6364	0.1	1454.4
27993	17.36	3.9091	0.1	1475.1
27994	17.452	3.8182	0.1	1454.
27995	17.36	4.0909	0.1	1474.7
27996	17.452	4.	0.1	1453.6
27997	17.36	4.2727	0.1	1474.2
27998	17.452	4.1818	0.1	1453.1
27999	17.36	4.4545	0.1	1473.7
28000	17.452	4.3636	0.1	1452.5
28001	17.36	4.6364	0.1	1473.1
28002	17.452	4.5455	0.1	1451.9
28003	17.36	4.8182	0.1	1472.6
28004	17.452	4.7273	0.1	1451.3
28005	17.36	5.	0.1	1472.1
28006	17.452	4.9091	0.1	1450.6
28007	17.36	5.1818	0.1	1471.6
28008	17.452	5.0909	0.1	1450.1
28009	17.36	5.3636	0.1	1471.2
28010	17.452	5.2727	0.1	1449.6
28011	17.36	5.5455	0.1	1471.1
28012	17.452	5.4545	0.1	1449.2
28013	17.36	5.7273	0.1	1472.6
28014	17.452	5.6364	0.1	1449.1
28015	17.452	5.8182	0.1	1452.1
28016	17.36	5.9091	0.1	1464.5
28017	17.544	0.27273	0.1	1428.4
28018	17.637	0.18182	0.1	1408.
28019	17.544	9.0909e-002	0.1	1420.2
28020	17.544	0.45455	0.1	1427.1
28021	17.637	0.36364	0.1	1405.1
28022	17.544	0.63636	0.1	1427.5
28023	17.637	0.54545	0.1	1405.4
28024	17.544	0.81818	0.1	1428.
28025	17.637	0.72727	0.1	1406.
28026	17.544	1.	0.1	1428.6
28027	17.637	0.90909	0.1	1406.7
28028	17.544	1.1818	0.1	1429.3
28029	17.637	1.0909	0.1	1407.4
28030	17.544	1.3636	0.1	1430.
28031	17.637	1.2727	0.1	1408.2
28032	17.544	1.5455	0.1	1430.7
28033	17.637	1.4545	0.1	1409.
28034	17.544	1.7273	0.1	1431.3
28035	17.637	1.6364	0.1	1409.7
28036	17.544	1.9091	0.1	1431.9
28037	17.637	1.8182	0.1	1410.4
28038	17.544	2.0909	0.1	1432.5
28039	17.637	2.	0.1	1411.
28040	17.544	2.2727	0.1	1432.9
28041	17.637	2.1818	0.1	1411.6
28042	17.544	2.4545	0.1	1433.3
28043	17.637	2.3636	0.1	1412.
28044	17.544	2.6364	0.1	1433.5
28045	17.637	2.5455	0.1	1412.4
28046	17.544	2.8182	0.1	1433.7
28047	17.637	2.7273	0.1	1412.6
28048	17.544	3.	0.1	1433.8
28049	17.637	2.9091	0.1	1412.7
28050	17.544	3.1818	0.1	1433.7
28051	17.637	3.0909	0.1	1412.7
28052	17.544	3.3636	0.1	1433.5
28053	17.637	3.2727	0.1	1412.6
28054	17.544	3.5455	0.1	1433.3
28055	17.637	3.4545	0.1	1412.4
28056	17.544	3.7273	0.1	1432.9
28057	17.637	3.6364	0.1	1412.
28058	17.544	3.9091	0.1	1432.5
28059	17.637	3.8182	0.1	1411.6
28060	17.544	4.0909	0.1	1431.9
28061	17.637	4.	0.1	1411.
28062	17.544	4.2727	0.1	1431.3
28063	17.637	4.1818	0.1	1410.4
28064	17.544	4.4545	0.1	1430.7
28065	17.637	4.3636	0.1	1409.7
28066	17.544	4.6364	0.1	1430.
28067	17.637	4.5455	0.1	1409.
28068	17.544	4.8182	0.1	1429.3
28069	17.637	4.7273	0.1	1408.2
28070	17.544	5.	0.1	1428.6
28071	17.637	4.9091	0.1	1407.4
28072	17.544	5.1818	0.1	1428.
28073	17.637	5.0909	0.1	1406.7
28074	17.544	5.3636	0.1	1427.5
28075	17.637	5.2727	0.1	1406.
28076	17.544	5.5455	0.1	1427.1
28077	17.637	5.4545	0.1	1405.4
28078	17.544	5.7273	0.1	1428.4
28079	17.637	5.6364	0.1	1405.1
28080	17.637	5.8182	0.1	1408.
28081	17.544	5.9091	0.1	1420.2
28082	17.729	0.27273	0.1	1384.5
28083	17.821	0.18182	0.1	1364.
28084	17.729	9.0909e-002	0.1	1376.
28085	17.729	0.45455	0.1	1383.3
28086	17.821	0.36364	0.1	1361.3
28087	17.729	0.63636	0.1	1383.9
28088	17.821	0.54545	0.1	1361.8
28089	17.729	0.81818	0.1	1384.6
28090	17.821	0.72727	0.1	1362.6
28091	17.729	1.	0.1	1385.4
28092	17.821	0.90909	0.1	1363.4
28093	17.729	1.1818	0.1	1386.2
28094	17.821	1.0909	0.1	1364.4
28095	17.729	1.3636	0.1	1387.1
28096	17.821	1.2727	0.1	1365.3
28097	17.729	1.5455	0.1	1388.
28098	17.821	1.4545	0.1	1366.3
28099	17.729	1.7273	0.1	1388.7
28100	17.821	1.6364	0.1	1367.2
28101	17.729	1.9091	0.1	1389.5
28102	17.821	1.8182	0.1	1368.
28103	17.729	2.0909	0.1	1390.1
28104	17.821	2.	0.1	1368.8
28105	17.729	2.2727	0.1	1390.7
28106	17.821	2.1818	0.1	1369.4
28107	17.729	2.4545	0.1	1391.1
28108	17.821	2.3636	0.1	1370.
28109	17.729	2.6364	0.1	1391.4
28110	17.821	2.5455	0.1	1370.4
28111	17.729	2.8182	0.1	1391.6
28112	17.821	2.7273	0.1	1370.6
28113	17.729	3.	0.1	1391.6
28114	17.821	2.9091	0.1	1370.8
28115	17.729	3.1818	0.1	1391.6
28116	17.821	3.0909	0.1	1370.8
28117	17.729	3.3636	0.1	1391.4
28118	17.821	3.2727	0.1	1370.6
28119	17.729	3.5455	0.1	1391.1
28120	17.821	3.4545	0.1	1370.4
28121	17.729	3.7273	0.1	1390.7
28122	17.821	3.6364	0.1	1370.
28123	17.729	3.9091	0.1	1390.1
28124	17.821	3.8182	0.1	1369.4
28125	17.729	4.0909	0.1	1389.5
28126	17.821	4.	0.1	1368.8
28127	17.729	4.2727	0.1	1388.7
28128	17.821	4.1818	0.1	1368.
28129	17.729	4.4545	0.1	1388.
28130	17.821	4.3636	0.1	1367.2
28131	17.729	4.6364	0.1	1387.1
28132	17.821	4.5455	0.1	1366.3
28133	17.729	4.8182	0.1	1386.2
28134	17.821	4.7273	0.1	1365.3
28135	17.729	5.	0.1	1385.4
28136	17.821	4.9091	0.1	1364.4
28137	17.729	5.1818	0.1	1384.6
28138	17.821	5.0909	0.1	1363.4
28139	17.729	5.3636	0.1	1383.9
28140	17.821	5.2727	0.1	1362.6
28141	17.729	5.5455	0.1	1383.3
28142	17.821	5.4545	0.1	1361.8
28143	17.729	5.7273	0.1	1384.5
28144	17.821	5.6364	0.1	1361.3
28145	17.821	5.8182	0.1	1364.
28146	17.729	5.9091	0.1	1376.
28147	17.914	0.27273	0.1	1340.6
28148	18.006	0.18182	0.1	1320.1
28149	17.914	9.0909e-002	0.1	1332.
28150	17.914	0.45455	0.1	1339.7
28151	18.006	0.36364	0.1	1317.6
28152	17.914	0.63636	0.1	1340.4
28153	18.006	0.54545	0.1	1318.3
28154	17.914	0.81818	0.1	1341.4
28155	18.006	0.72727	0.1	1319.3
28156	17.914	1.	0.1	1342.4
28157	18.006	0.90909	0.1	1320.4
28158	17.914	1.1818	0.1	1343.4
28159	18.006	1.0909	0.1	1321.6
28160	17.914	1.3636	0.1	1344.5
28161	18.006	1.2727	0.1	1322.8
28162	17.914	1.5455	0.1	1345.5
28163	18.006	1.4545	0.1	1323.9
28164	17.914	1.7273	0.1	1346.5
28165	18.006	1.6364	0.1	1325.
28166	17.914	1.9091	0.1	1347.3
28167	18.006	1.8182	0.1	1326.
28168	17.914	2.0909	0.1	1348.1
28169	18.006	2.	0.1	1326.9
28170	17.914	2.2727	0.1	1348.7
28171	18.006	2.1818	0.1	1327.6
28172	17.914	2.4545	0.1	1349.2
28173	18.006	2.3636	0.1	1328.2
28174	17.914	2.6364	0.1	1349.6
28175	18.006	2.5455	0.1	1328.7
28176	17.914	2.8182	0.1	1349.8
28177	18.006	2.7273	0.1	1329.
28178	17.914	3.	0.1	1349.9
28179	18.006	2.9091	0.1	1329.2
28180	17.914	3.1818	0.1	1349.8
28181	18.006	3.0909	0.1	1329.2
28182	17.914	3.3636	0.1	1349.6
28183	18.006	3.2727	0.1	1329.
28184	17.914	3.5455	0.1	1349.2
28185	18.006	3.4545	0.1	1328.7
28186	17.914	3.7273	0.1	1348.7
28187	18.006	3.6364	0.1	1328.2
28188	17.914	3.9091	0.1	1348.1
28189	18.006	3.8182	0.1	1327.6
28190	17.914	4.0909	0.1	1347.3
28191	18.006	4.	0.1	1326.9
28192	17.914	4.2727	0.1	1346.5
28193	18.006	4.1818	0.1	1326.
28194	17.914	4.4545	0.1	1345.5
28195	18.006	4.3636	0.1	1325.
28196	17.914	4.6364	0.1	1344.5
28197	18.006	4.5455	0.1	1323.9
28198	17.914	4.8182	0.1	1343.4
28199	18.006	4.7273	0.1	1322.8
28200	17.914	5.	0.1	1342.4
28201	18.006	4.9091	0.1	1321.6
28202	17.914	5.1818	0.1	1341.4
28203	18.006	5.0909	0.1	1320.4
28204	17.914	5.3636	0.1	1340.4
28205	18.006	5.2727	0.1	1319.3
28206	17.914	5.5455	0.1	1339.7
28207	18.006	5.4545	0.1	1318.3
28208	17.914	5.7273	0.1	1340.6
28209	18.006	5.6364	0.1	1317.6
28210	18.006	5.8182	0.1	1320.1
28211	17.914	5.9091	0.1	1332.
28212	18.098	0.27273	0.1	1296.9
28213	18.191	0.18182	0.1	1276.2
28214	18.098	9.0909e-002	0.1	1288.1
28215	18.098	0.45455	0.1	1296.2
28216	18.191	0.36364	0.1	1274.1
28217	18.098	0.63636	0.1	1297.2
28218	18.191	0.54545	0.1	1275.
28219	18.098	0.81818	0.1	1298.3
28220	18.191	0.72727	0.1	1276.3
28221	18.098	1.	0.1	1299.6
28222	18.191	0.90909	0.1	1277.6
28223	18.098	1.1818	0.1	1300.9
28224	18.191	1.0909	0.1	1279.
28225	18.098	1.3636	0.1	1302.1
28226	18.191	1.2727	0.1	1280.4
28227	18.098	1.5455	0.1	1303.3
28228	18.191	1.4545	0.1	1281.8
28229	18.098	1.7273	0.1	1304.5
28230	18.191	1.6364	0.1	1283.1
28231	18.098	1.9091	0.1	1305.5
28232	18.191	1.8182	0.1	1284.2
28233	18.098	2.0909	0.1	1306.4
28234	18.191	2.	0.1	1285.3
28235	18.098	2.2727	0.1	1307.1
28236	18.191	2.1818	0.1	1286.1
28237	18.098	2.4545	0.1	1307.7
28238	18.191	2.3636	0.1	1286.8
28239	18.098	2.6364	0.1	1308.1
28240	18.191	2.5455	0.1	1287.4
28241	18.098	2.8182	0.1	1308.3
28242	18.191	2.7273	0.1	1287.7
28243	18.098	3.	0.1	1308.4
28244	18.191	2.9091	0.1	1287.9
28245	18.098	3.1818	0.1	1308.3
28246	18.191	3.0909	0.1	1287.9
28247	18.098	3.3636	0.1	1308.1
28248	18.191	3.2727	0.1	1287.7
28249	18.098	3.5455	0.1	1307.7
28250	18.191	3.4545	0.1	1287.4
28251	18.098	3.7273	0.1	1307.1
28252	18.191	3.6364	0.1	1286.8
28253	18.098	3.9091	0.1	1306.4
28254	18.191	3.8182	0.1	1286.1
28255	18.098	4.0909	0.1	1305.5
28256	18.191	4.	0.1	1285.3
28257	18.098	4.2727	0.1	1304.5
28258	18.191	4.1818	0.1	1284.2
28259	18.098	4.4545	0.1	1303.3
28260	18.191	4.3636	0.1	1283.1
28261	18.098	4.6364	0.1	1302.1
28262	18.191	4.5455	0.1	1281.8
28263	18.098	4.8182	0.1	1300.9
28264	18.191	4.7273	0.1	1280.4
28265	18.098	5.	0.1	1299.6
28266	18.191	4.9091	0.1	1279.
28267	18.098	5.1818	0.1	1298.3
28268	18.191	5.0909	0.1	1277.6
28269	18.098	5.3636	0.1	1297.2
28270	18.191	5.2727	0.1	1276.3
28271	18.098	5.5455	0.1	1296.2
28272	18.191	5.4545	0.1	1275.
28273	18.098	5.7273	0.1	1296.9
28274	18.191	5.6364	0.1	1274.1
28275	18.191	5.8182	0.1	1276.2
28276	18.098	5.9091	0.1	1288.1
28277	18.283	0.27273	0.1	1253.2
28278	18.375	0.18182	0.1	1232.5
28279	18.283	9.0909e-002	0.1	1244.2
28280	18.283	0.45455	0.1	1252.8
28281	18.375	0.36364	0.1	1230.6
28282	18.283	0.63636	0.1	1254.
28283	18.375	0.54545	0.1	1231.8
28284	18.283	0.81818	0.1	1255.5
28285	18.375	0.72727	0.1	1233.4
28286	18.283	1.	0.1	1257.
28287	18.375	0.90909	0.1	1235.
28288	18.283	1.1818	0.1	1258.6
28289	18.375	1.0909	0.1	1236.7
28290	18.283	1.3636	0.1	1260.1
28291	18.375	1.2727	0.1	1238.4
28292	18.283	1.5455	0.1	1261.5
28293	18.375	1.4545	0.1	1240.
28294	18.283	1.7273	0.1	1262.8
28295	18.375	1.6364	0.1	1241.5
28296	18.283	1.9091	0.1	1264.
28297	18.375	1.8182	0.1	1242.8
28298	18.283	2.0909	0.1	1265.
28299	18.375	2.	0.1	1244.
28300	18.283	2.2727	0.1	1265.8
28301	18.375	2.1818	0.1	1245.
28302	18.283	2.4545	0.1	1266.5
28303	18.375	2.3636	0.1	1245.8
28304	18.283	2.6364	0.1	1267.
28305	18.375	2.5455	0.1	1246.4
28306	18.283	2.8182	0.1	1267.3
28307	18.375	2.7273	0.1	1246.8
28308	18.283	3.	0.1	1267.4
28309	18.375	2.9091	0.1	1247.
28310	18.283	3.1818	0.1	1267.3
28311	18.375	3.0909	0.1	1247.
28312	18.283	3.3636	0.1	1267.
28313	18.375	3.2727	0.1	1246.8
28314	18.283	3.5455	0.1	1266.5
28315	18.375	3.4545	0.1	1246.4
28316	18.283	3.7273	0.1	1265.8
28317	18.375	3.6364	0.1	1245.8
28318	18.283	3.9091	0.1	1265.
28319	18.375	3.8182	0.1	1245.
28320	18.283	4.0909	0.1	1264.
28321	18.375	4.	0.1	1244.
28322	18.283	4.2727	0.1	1262.8
28323	18.375	4.1818	0.1	1242.8
28324	18.283	4.4545	0.1	1261.5
28325	18.375	4.3636	0.1	1241.5
28326	18.283	4.6364	0.1	1260.1
28327	18.375	4.5455	0.1	1240.
28328	18.283	4.8182	0.1	1258.6
28329	18.375	4.7273	0.1	1238.4
28330	18.283	5.	0.1	1257.
28331	18.375	4.9091	0.1	1236.7
28332	18.283	5.1818	0.1	1255.5
28333	18.375	5.0909	0.1	1235.
28334	18.283	5.3636	0.1	1254.
28335	18.375	5.2727	0.1	1233.4
28336	18.283	5.5455	0.1	1252.8
28337	18.375	5.4545	0.1	1231.8
28338	18.283	5.7273	0.1	1253.2
28339	18.375	5.6364	0.1	1230.6
28340	18.375	5.8182	0.1	1232.5
28341	18.283	5.9091	0.1	1244.2
28342	18.468	0.27273	0.1	1209.6
28343	18.56	0.18182	0.1	1188.8
28344	18.468	9.0909e-002	0.1	1200.4
28345	18.468	0.45455	0.1	1209.5
28346	18.56	0.36364	0.1	1187.2
28347	18.468	0.63636	0.1	1211.1
28348	18.56	0.54545	0.1	1188.8
28349	18.468	0.81818	0.1	1212.9
28350	18.56	0.72727	0.1	1190.7
28351	18.468	1.	0.1	1214.7
28352	18.56	0.90909	0.1	1192.6
28353	18.468	1.1818	0.1	1216.5
28354	18.56	1.0909	0.1	1194.6
28355	18.468	1.3636	0.1	1218.3
28356	18.56	1.2727	0.1	1196.6
28357	18.468	1.5455	0.1	1219.9
28358	18.56	1.4545	0.1	1198.4
28359	18.468	1.7273	0.1	1221.4
28360	18.56	1.6364	0.1	1200.2
28361	18.468	1.9091	0.1	1222.8
28362	18.56	1.8182	0.1	1201.7
28363	18.468	2.0909	0.1	1224.
28364	18.56	2.	0.1	1203.1
28365	18.468	2.2727	0.1	1224.9
28366	18.56	2.1818	0.1	1204.2
28367	18.468	2.4545	0.1	1225.7
28368	18.56	2.3636	0.1	1205.1
28369	18.468	2.6364	0.1	1226.2
28370	18.56	2.5455	0.1	1205.8
28371	18.468	2.8182	0.1	1226.5
28372	18.56	2.7273	0.1	1206.3
28373	18.468	3.	0.1	1226.7
28374	18.56	2.9091	0.1	1206.5
28375	18.468	3.1818	0.1	1226.5
28376	18.56	3.0909	0.1	1206.5
28377	18.468	3.3636	0.1	1226.2
28378	18.56	3.2727	0.1	1206.3
28379	18.468	3.5455	0.1	1225.7
28380	18.56	3.4545	0.1	1205.8
28381	18.468	3.7273	0.1	1224.9
28382	18.56	3.6364	0.1	1205.1
28383	18.468	3.9091	0.1	1224.
28384	18.56	3.8182	0.1	1204.2
28385	18.468	4.0909	0.1	1222.8
28386	18.56	4.	0.1	1203.1
28387	18.468	4.2727	0.1	1221.4
28388	18.56	4.1818	0.1	1201.7
28389	18.468	4.4545	0.1	1219.9
28390	18.56	4.3636	0.1	1200.2
28391	18.468	4.6364	0.1	1218.3
28392	18.56	4.5455	0.1	1198.4
28393	18.468	4.8182	0.1	1216.5
28394	18.56	4.7273	0.1	1196.6
28395	18.468	5.	0.1	1214.7
28396	18.56	4.9091	0.1	1194.6
28397	18.468	5.1818	0.1	1212.9
28398	18.56	5.0909	0.1	1192.6
28399	18.468	5.3636	0.1	1211.1
28400	18.56	5.2727	0.1	1190.7
28401	18.468	5.5455	0.1	1209.5
28402	18.56	5.4545	0.1	1188.8
28403	18.468	5.7273	0.1	1209.6
28404	18.56	5.6364	0.1	1187.2
28405	18.56	5.8182	0.1	1188.8
28406	18.468	5.9091	0.1	1200.4
28407	18.652	0.27273	0.1	1166.1
28408	18.745	0.18182	0.1	1145.1
28409	18.652	9.0909e-002	0.1	1156.7
28410	18.652	0.45455	0.1	1166.4
28411	18.745	0.36364	0.1	1143.9
28412	18.652	0.63636	0.1	1168.3
28413	18.745	0.54545	0.1	1145.9
28414	18.652	0.81818	0.1	1170.4
28415	18.745	0.72727	0.1	1148.1
28416	18.652	1.	0.1	1172.5
28417	18.745	0.90909	0.1	1150.4
28418	18.652	1.1818	0.1	1174.7
28419	18.745	1.0909	0.1	1152.8
28420	18.652	1.3636	0.1	1176.7
28421	18.745	1.2727	0.1	1155.1
28422	18.652	1.5455	0.1	1178.7
28423	18.745	1.4545	0.1	1157.2
28424	18.652	1.7273	0.1	1180.4
28425	18.745	1.6364	0.1	1159.2
28426	18.652	1.9091	0.1	1182.
28427	18.745	1.8182	0.1	1161.
28428	18.652	2.0909	0.1	1183.3
28429	18.745	2.	0.1	1162.5
28430	18.652	2.2727	0.1	1184.4
28431	18.745	2.1818	0.1	1163.8
28432	18.652	2.4545	0.1	1185.3
28433	18.745	2.3636	0.1	1164.9
28434	18.652	2.6364	0.1	1185.9
28435	18.745	2.5455	0.1	1165.7
28436	18.652	2.8182	0.1	1186.2
28437	18.745	2.7273	0.1	1166.2
28438	18.652	3.	0.1	1186.4
28439	18.745	2.9091	0.1	1166.5
28440	18.652	3.1818	0.1	1186.2
28441	18.745	3.0909	0.1	1166.5
28442	18.652	3.3636	0.1	1185.9
28443	18.745	3.2727	0.1	1166.2
28444	18.652	3.5455	0.1	1185.3
28445	18.745	3.4545	0.1	1165.7
28446	18.652	3.7273	0.1	1184.4
28447	18.745	3.6364	0.1	1164.9
28448	18.652	3.9091	0.1	1183.3
28449	18.745	3.8182	0.1	1163.8
28450	18.652	4.0909	0.1	1182.
28451	18.745	4.	0.1	1162.5
28452	18.652	4.2727	0.1	1180.4
28453	18.745	4.1818	0.1	1161.
28454	18.652	4.4545	0.1	1178.7
28455	18.745	4.3636	0.1	1159.2
28456	18.652	4.6364	0.1	1176.7
28457	18.745	4.5455	0.1	1157.2
28458	18.652	4.8182	0.1	1174.7
28459	18.745	4.7273	0.1	1155.1
28460	18.652	5.	0.1	1172.5
28461	18.745	4.9091	0.1	1152.8
28462	18.652	5.1818	0.1	1170.4
28463	18.745	5.0909	0.1	1150.4
28464	18.652	5.3636	0.1	1168.3
28465	18.745	5.2727	0.1	1148.1
28466	18.652	5.5455	0.1	1166.4
28467	18.745	5.4545	0.1	1145.9
28468	18.652	5.7273	0.1	1166.1
28469	18.745	5.6364	0.1	1143.9
28470	18.745	5.8182	0.1	1145.1
28471	18.652	5.9091	0.1	1156.7
28472	18.837	0.27273	0.1	1122.7
28473	18.929	0.18182	0.1	1101.4
28474	18.837	9.0909e-002	0.1	1113.
28475	18.837	0.45455	0.1	1123.3
28476	18.929	0.36364	0.1	1100.7
28477	18.837	0.63636	0.1	1125.6
28478	18.929	0.54545	0.1	1103.
28479	18.837	0.81818	0.1	1128.1
28480	18.929	0.72727	0.1	1105.7
28481	18.837	1.	0.1	1130.6
28482	18.929	0.90909	0.1	1108.5
28483	18.837	1.1818	0.1	1133.1
28484	18.929	1.0909	0.1	1111.2
28485	18.837	1.3636	0.1	1135.5
28486	18.929	1.2727	0.1	1113.9
28487	18.837	1.5455	0.1	1137.8
28488	18.929	1.4545	0.1	1116.4
28489	18.837	1.7273	0.1	1139.8
28490	18.929	1.6364	0.1	1118.6
28491	18.837	1.9091	0.1	1141.5
28492	18.929	1.8182	0.1	1120.7
28493	18.837	2.0909	0.1	1143.1
28494	18.929	2.	0.1	1122.4
28495	18.837	2.2727	0.1	1144.3
28496	18.929	2.1818	0.1	1123.9
28497	18.837	2.4545	0.1	1145.3
28498	18.929	2.3636	0.1	1125.1
28499	18.837	2.6364	0.1	1146.
28500	18.929	2.5455	0.1	1126.
28501	18.837	2.8182	0.1	1146.4
28502	18.929	2.7273	0.1	1126.5
28503	18.837	3.	0.1	1146.5
28504	18.929	2.9091	0.1	1126.8
28505	18.837	3.1818	0.1	1146.4
28506	18.929	3.0909	0.1	1126.8
28507	18.837	3.3636	0.1	1146.
28508	18.929	3.2727	0.1	1126.5
28509	18.837	3.5455	0.1	1145.3
28510	18.929	3.4545	0.1	1126.
28511	18.837	3.7273	0.1	1144.3
28512	18.929	3.6364	0.1	1125.1
28513	18.837	3.9091	0.1	1143.1
28514	18.929	3.8182	0.1	1123.9
28515	18.837	4.0909	0.1	1141.5
28516	18.929	4.	0.1	1122.4
28517	18.837	4.2727	0.1	1139.8
28518	18.929	4.1818	0.1	1120.7
28519	18.837	4.4545	0.1	1137.8
28520	18.929	4.3636	0.1	1118.6
28521	18.837	4.6364	0.1	1135.5
28522	18.929	4.5455	0.1	1116.4
28523	18.837	4.8182	0.1	1133.1
28524	18.929	4.7273	0.1	1113.9
28525	18.837	5.	0.1	1130.6
28526	18.929	4.9091	0.1	1111.2
28527	18.837	5.1818	0.1	1128.1
28528	18.929	5.0909	0.1	1108.5
28529	18.837	5.3636	0.1	1125.6
28530	18.929	5.2727	0.1	1105.7
28531	18.837	5.5455	0.1	1123.3
28532	18.929	5.4545	0.1	1103.
28533	18.837	5.7273	0.1	1122.7
28534	18.929	5.6364	0.1	1100.7
28535	18.929	5.8182	0.1	1101.4
28536	18.837	5.9091	0.1	1113.
28537	19.022	0.27273	0.1	1079.2
28538	19.114	0.18182	0.1	1057.7
28539	19.022	9.0909e-002	0.1	1069.3
28540	19.022	0.45455	0.1	1080.3
28541	19.114	0.36364	0.1	1057.4
28542	19.022	0.63636	0.1	1083.
28543	19.114	0.54545	0.1	1060.3
28544	19.022	0.81818	0.1	1086.
28545	19.114	0.72727	0.1	1063.4
28546	19.022	1.	0.1	1089.
28547	19.114	0.90909	0.1	1066.7
28548	19.022	1.1818	0.1	1091.9
28549	19.114	1.0909	0.1	1069.9
28550	19.022	1.3636	0.1	1094.6
28551	19.114	1.2727	0.1	1072.9
28552	19.022	1.5455	0.1	1097.2
28553	19.114	1.4545	0.1	1075.8
28554	19.022	1.7273	0.1	1099.5
28555	19.114	1.6364	0.1	1078.4
28556	19.022	1.9091	0.1	1101.5
28557	19.114	1.8182	0.1	1080.8
28558	19.022	2.0909	0.1	1103.2
28559	19.114	2.	0.1	1082.8
28560	19.022	2.2727	0.1	1104.6
28561	19.114	2.1818	0.1	1084.4
28562	19.022	2.4545	0.1	1105.7
28563	19.114	2.3636	0.1	1085.7
28564	19.022	2.6364	0.1	1106.5
28565	19.114	2.5455	0.1	1086.7
28566	19.022	2.8182	0.1	1107.
28567	19.114	2.7273	0.1	1087.4
28568	19.022	3.	0.1	1107.1
28569	19.114	2.9091	0.1	1087.7
28570	19.022	3.1818	0.1	1107.
28571	19.114	3.0909	0.1	1087.7
28572	19.022	3.3636	0.1	1106.5
28573	19.114	3.2727	0.1	1087.4
28574	19.022	3.5455	0.1	1105.7
28575	19.114	3.4545	0.1	1086.7
28576	19.022	3.7273	0.1	1104.6
28577	19.114	3.6364	0.1	1085.7
28578	19.022	3.9091	0.1	1103.2
28579	19.114	3.8182	0.1	1084.4
28580	19.022	4.0909	0.1	1101.5
28581	19.114	4.	0.1	1082.8
28582	19.022	4.2727	0.1	1099.5
28583	19.114	4.1818	0.1	1080.8
28584	19.022	4.4545	0.1	1097.2
28585	19.114	4.3636	0.1	1078.4
28586	19.022	4.6364	0.1	1094.6
28587	19.114	4.5455	0.1	1075.8
28588	19.022	4.8182	0.1	1091.9
28589	19.114	4.7273	0.1	1072.9
28590	19.022	5.	0.1	1089.
28591	19.114	4.9091	0.1	1069.9
28592	19.022	5.1818	0.1	1086.
28593	19.114	5.0909	0.1	1066.7
28594	19.022	5.3636	0.1	1083.
28595	19.114	5.2727	0.1	1063.4
28596	19.022	5.5455	0.1	1080.3
28597	19.114	5.4545	0.1	1060.3
28598	19.022	5.7273	0.1	1079.2
28599	19.114	5.6364	0.1	1057.4
28600	19.114	5.8182	0.1	1057.7
28601	19.022	5.9091	0.1	1069.3
28602	19.206	0.27273	0.1	1035.7
28603	19.299	0.18182	0.1	1013.8
28604	19.206	9.0909e-002	0.1	1025.5
28605	19.206	0.45455	0.1	1037.3
28606	19.299	0.36364	0.1	1014.2
28607	19.206	0.63636	0.1	1040.6
28608	19.299	0.54545	0.1	1017.5
28609	19.206	0.81818	0.1	1044.
28610	19.299	0.72727	0.1	1021.2
28611	19.206	1.	0.1	1047.5
28612	19.299	0.90909	0.1	1025.
28613	19.206	1.1818	0.1	1050.9
28614	19.299	1.0909	0.1	1028.8
28615	19.206	1.3636	0.1	1054.1
28616	19.299	1.2727	0.1	1032.3
28617	19.206	1.5455	0.1	1057.
28618	19.299	1.4545	0.1	1035.6
28619	19.206	1.7273	0.1	1059.7
28620	19.299	1.6364	0.1	1038.6
28621	19.206	1.9091	0.1	1062.
28622	19.299	1.8182	0.1	1041.3
28623	19.206	2.0909	0.1	1063.9
28624	19.299	2.	0.1	1043.6
28625	19.206	2.2727	0.1	1065.5
28626	19.299	2.1818	0.1	1045.4
28627	19.206	2.4545	0.1	1066.7
28628	19.299	2.3636	0.1	1046.9
28629	19.206	2.6364	0.1	1067.5
28630	19.299	2.5455	0.1	1048.
28631	19.206	2.8182	0.1	1068.
28632	19.299	2.7273	0.1	1048.7
28633	19.206	3.	0.1	1068.2
28634	19.299	2.9091	0.1	1049.
28635	19.206	3.1818	0.1	1068.
28636	19.299	3.0909	0.1	1049.
28637	19.206	3.3636	0.1	1067.5
28638	19.299	3.2727	0.1	1048.7
28639	19.206	3.5455	0.1	1066.7
28640	19.299	3.4545	0.1	1048.
28641	19.206	3.7273	0.1	1065.5
28642	19.299	3.6364	0.1	1046.9
28643	19.206	3.9091	0.1	1063.9
28644	19.299	3.8182	0.1	1045.4
28645	19.206	4.0909	0.1	1062.
28646	19.299	4.	0.1	1043.6
28647	19.206	4.2727	0.1	1059.7
28648	19.299	4.1818	0.1	1041.3
28649	19.206	4.4545	0.1	1057.
28650	19.299	4.3636	0.1	1038.6
28651	19.206	4.6364	0.1	1054.1
28652	19.299	4.5455	0.1	1035.6
28653	19.206	4.8182	0.1	1050.9
28654	19.299	4.7273	0.1	1032.3
28655	19.206	5.	0.1	1047.5
28656	19.299	4.9091	0.1	1028.8
28657	19.206	5.1818	0.1	1044.
28658	19.299	5.0909	0.1	1025.
28659	19.206	5.3636	0.1	1040.6
28660	19.299	5.2727	0.1	1021.2
28661	19.206	5.5455	0.1	1037.3
28662	19.299	5.4545	0.1	1017.5
28663	19.206	5.7273	0.1	1035.7
28664	19.299	5.6364	0.1	1014.2
28665	19.299	5.8182	0.1	1013.8
28666	19.206	5.9091	0.1	1025.5
28667	19.391	0.27273	0.1	992.06
28668	19.483	0.18182	0.1	969.82
28669	19.391	9.0909e-002	0.1	981.6
28670	19.391	0.45455	0.1	994.3
28671	19.483	0.36364	0.1	970.82
28672	19.391	0.63636	0.1	998.15
28673	19.483	0.54545	0.1	974.82
28674	19.391	0.81818	0.1	1002.2
28675	19.483	0.72727	0.1	979.17
28676	19.391	1.	0.1	1006.2
28677	19.483	0.90909	0.1	983.58
28678	19.391	1.1818	0.1	1010.2
28679	19.483	1.0909	0.1	987.91
28680	19.391	1.3636	0.1	1013.9
28681	19.483	1.2727	0.1	992.04
28682	19.391	1.5455	0.1	1017.2
28683	19.483	1.4545	0.1	995.87
28684	19.391	1.7273	0.1	1020.3
28685	19.483	1.6364	0.1	999.31
28686	19.391	1.9091	0.1	1022.9
28687	19.483	1.8182	0.1	1002.3
28688	19.391	2.0909	0.1	1025.1
28689	19.483	2.	0.1	1004.9
28690	19.391	2.2727	0.1	1026.8
28691	19.483	2.1818	0.1	1007.
28692	19.391	2.4545	0.1	1028.2
28693	19.483	2.3636	0.1	1008.6
28694	19.391	2.6364	0.1	1029.1
28695	19.483	2.5455	0.1	1009.8
28696	19.391	2.8182	0.1	1029.7
28697	19.483	2.7273	0.1	1010.6
28698	19.391	3.	0.1	1029.9
28699	19.483	2.9091	0.1	1011.
28700	19.391	3.1818	0.1	1029.7
28701	19.483	3.0909	0.1	1011.
28702	19.391	3.3636	0.1	1029.1
28703	19.483	3.2727	0.1	1010.6
28704	19.391	3.5455	0.1	1028.2
28705	19.483	3.4545	0.1	1009.8
28706	19.391	3.7273	0.1	1026.8
28707	19.483	3.6364	0.1	1008.6
28708	19.391	3.9091	0.1	1025.1
28709	19.483	3.8182	0.1	1007.
28710	19.391	4.0909	0.1	1022.9
28711	19.483	4.	0.1	1004.9
28712	19.391	4.2727	0.1	1020.3
28713	19.483	4.1818	0.1	1002.3
28714	19.391	4.4545	0.1	1017.2
28715	19.483	4.3636	0.1	999.31
28716	19.391	4.6364	0.1	1013.9
28717	19.483	4.5455	0.1	995.87
28718	19.391	4.8182	0.1	1010.2
28719	19.483	4.7273	0.1	992.04
28720	19.391	5.	0.1	1006.2
28721	19.483	4.9091	0.1	987.91
28722	19.391	5.1818	0.1	1002.2
28723	19.483	5.0909	0.1	983.58
28724	19.391	5.3636	0.1	998.15
28725	19.483	5.2727	0.1	979.17
28726	19.391	5.5455	0.1	994.3
28727	19.483	5.4545	0.1	974.82
28728	19.391	5.7273	0.1	992.06
28729	19.483	5.6364	0.1	970.82
28730	19.483	5.8182	0.1	969.82
28731	19.391	5.9091	0.1	981.6
28732	19.576	0.27273	0.1	948.3
28733	19.668	0.18182	0.1	925.57
28734	19.576	9.0909e-002	0.1	937.54
28735	19.576	0.45455	0.1	951.24
28736	19.668	0.36364	0.1	927.34
28737	19.576	0.63636	0.1	955.76
28738	19.668	0.54545	0.1	932.06
28739	19.576	0.81818	0.1	960.49
28740	19.668	0.72727	0.1	937.15
28741	19.576	1.	0.1	965.2
28742	19.668	0.90909	0.1	942.29
28743	19.576	1.1818	0.1	969.75
28744	19.668	1.0909	0.1	947.32
28745	19.576	1.3636	0.1	974.02
28746	19.668	1.2727	0.1	952.11
28747	19.576	1.5455	0.1	977.91
28748	19.668	1.4545	0.1	956.52
28749	19.576	1.7273	0.1	981.36
28750	19.668	1.6364	0.1	960.48
28751	19.576	1.9091	0.1	984.32
28752	19.668	1.8182	0.1	963.92
28753	19.576	2.0909	0.1	986.79
28754	19.668	2.	0.1	966.81
28755	19.576	2.2727	0.1	988.76
28756	19.668	2.1818	0.1	969.15
28757	19.576	2.4545	0.1	990.25
28758	19.668	2.3636	0.1	970.96
28759	19.576	2.6364	0.1	991.28
28760	19.668	2.5455	0.1	972.28
28761	19.576	2.8182	0.1	991.89
28762	19.668	2.7273	0.1	973.13
28763	19.576	3.	0.1	992.09
28764	19.668	2.9091	0.1	973.55
28765	19.576	3.1818	0.1	991.89
28766	19.668	3.0909	0.1	973.55
28767	19.576	3.3636	0.1	991.28
28768	19.668	3.2727	0.1	973.13
28769	19.576	3.5455	0.1	990.25
28770	19.668	3.4545	0.1	972.28
28771	19.576	3.7273	0.1	988.76
28772	19.668	3.6364	0.1	970.96
28773	19.576	3.9091	0.1	986.79
28774	19.668	3.8182	0.1	969.15
28775	19.576	4.0909	0.1	984.32
28776	19.668	4.	0.1	966.81
28777	19.576	4.2727	0.1	981.36
28778	19.668	4.1818	0.1	963.92
28779	19.576	4.4545	0.1	977.91
28780	19.668	4.3636	0.1	960.48
28781	19.576	4.6364	0.1	974.02
28782	19.668	4.5455	0.1	956.52
28783	19.576	4.8182	0.1	969.75
28784	19.668	4.7273	0.1	952.11
28785	19.576	5.	0.1	965.2
28786	19.668	4.9091	0.1	947.33
28787	19.576	5.1818	0.1	960.49
28788	19.668	5.0909	0.1	942.29
28789	19.576	5.3636	0.1	955.76
28790	19.668	5.2727	0.1	937.15
28791	19.576	5.5455	0.1	951.24
28792	19.668	5.4545	0.1	932.06
28793	19.576	5.7273	0.1	948.3
28794	19.668	5.6364	0.1	927.34
28795	19.668	5.8182	0.1	925.57
28796	19.576	5.9091	0.1	937.54
28797	19.76	0.27273	0.1	904.33
28798	19.853	0.18182	0.1	881.
28799	19.76	9.0909e-002	0.1	893.23
28800	19.76	0.45455	0.1	908.06
28801	19.853	0.36364	0.1	883.66
28802	19.76	0.63636	0.1	913.37
28803	19.853	0.54545	0.1	889.21
28804	19.76	0.81818	0.1	918.88
28805	19.853	0.72727	0.1	895.14
28806	19.76	1.	0.1	924.36
28807	19.853	0.90909	0.1	901.14
28808	19.76	1.1818	0.1	929.64
28809	19.853	1.0909	0.1	906.99
28810	19.76	1.3636	0.1	934.58
28811	19.853	1.2727	0.1	912.54
28812	19.76	1.5455	0.1	939.06
28813	19.853	1.4545	0.1	917.65
28814	19.76	1.7273	0.1	943.01
28815	19.853	1.6364	0.1	922.19
28816	19.76	1.9091	0.1	946.38
28817	19.853	1.8182	0.1	926.12
28818	19.76	2.0909	0.1	949.15
28819	19.853	2.	0.1	929.38
28820	19.76	2.2727	0.1	951.34
28821	19.853	2.1818	0.1	932.
28822	19.76	2.4545	0.1	952.98
28823	19.853	2.3636	0.1	934.01
28824	19.76	2.6364	0.1	954.11
28825	19.853	2.5455	0.1	935.44
28826	19.76	2.8182	0.1	954.77
28827	19.853	2.7273	0.1	936.36
28828	19.76	3.	0.1	954.99
28829	19.853	2.9091	0.1	936.81
28830	19.76	3.1818	0.1	954.77
28831	19.853	3.0909	0.1	936.81
28832	19.76	3.3636	0.1	954.11
28833	19.853	3.2727	0.1	936.36
28834	19.76	3.5455	0.1	952.98
28835	19.853	3.4545	0.1	935.44
28836	19.76	3.7273	0.1	951.34
28837	19.853	3.6364	0.1	934.01
28838	19.76	3.9091	0.1	949.15
28839	19.853	3.8182	0.1	932.
28840	19.76	4.0909	0.1	946.38
28841	19.853	4.	0.1	929.38
28842	19.76	4.2727	0.1	943.01
28843	19.853	4.1818	0.1	926.12
28844	19.76	4.4545	0.1	939.06
28845	19.853	4.3636	0.1	922.19
28846	19.76	4.6364	0.1	934.58
28847	19.853	4.5455	0.1	917.65
28848	19.76	4.8182	0.1	929.64
28849	19.853	4.7273	0.1	912.54
28850	19.76	5.	0.1	924.36
28851	19.853	4.9091	0.1	906.99
28852	19.76	5.1818	0.1	918.88
28853	19.853	5.0909	0.1	901.14
28854	19.76	5.3636	0.1	913.37
28855	19.853	5.2727	0.1	895.14
28856	19.76	5.5455	0.1	908.06
28857	19.853	5.4545	0.1	889.21
28858	19.76	5.7273	0.1	904.33
28859	19.853	5.6364	0.1	883.66
28860	19.853	5.8182	0.1	881.
28861	19.76	5.9091	0.1	893.23
28862	19.945	0.27273	0.1	860.04
28863	20.038	0.18182	0.1	836.01
28864	19.945	9.0909e-002	0.1	848.58
28865	19.945	0.45455	0.1	864.7
28866	20.038	0.36364	0.1	839.68
28867	19.945	0.63636	0.1	870.91
28868	20.038	0.54545	0.1	846.19
28869	19.945	0.81818	0.1	877.33
28870	20.038	0.72727	0.1	853.11
28871	19.945	1.	0.1	883.72
28872	20.038	0.90909	0.1	860.09
28873	19.945	1.1818	0.1	889.86
28874	20.038	1.0909	0.1	866.92
28875	19.945	1.3636	0.1	895.58
28876	20.038	1.2727	0.1	873.38
28877	19.945	1.5455	0.1	900.75
28878	20.038	1.4545	0.1	879.29
28879	19.945	1.7273	0.1	905.28
28880	20.038	1.6364	0.1	884.54
28881	19.945	1.9091	0.1	909.11
28882	20.038	1.8182	0.1	889.02
28883	19.945	2.0909	0.1	912.23
28884	20.038	2.	0.1	892.72
28885	19.945	2.2727	0.1	914.66
28886	20.038	2.1818	0.1	895.64
28887	19.945	2.4545	0.1	916.45
28888	20.038	2.3636	0.1	897.84
28889	19.945	2.6364	0.1	917.68
28890	20.038	2.5455	0.1	899.39
28891	19.945	2.8182	0.1	918.38
28892	20.038	2.7273	0.1	900.37
28893	19.945	3.	0.1	918.62
28894	20.038	2.9091	0.1	900.84
28895	19.945	3.1818	0.1	918.38
28896	20.038	3.0909	0.1	900.84
28897	19.945	3.3636	0.1	917.68
28898	20.038	3.2727	0.1	900.37
28899	19.945	3.5455	0.1	916.45
28900	20.038	3.4545	0.1	899.39
28901	19.945	3.7273	0.1	914.66
28902	20.038	3.6364	0.1	897.84
28903	19.945	3.9091	0.1	912.23
28904	20.038	3.8182	0.1	895.64
28905	19.945	4.0909	0.1	909.11
28906	20.038	4.	0.1	892.72
28907	19.945	4.2727	0.1	905.28
28908	20.038	4.1818	0.1	889.02
28909	19.945	4.4545	0.1	900.75
28910	20.038	4.3636	0.1	884.54
28911	19.945	4.6364	0.1	895.58
28912	20.038	4.5455	0.1	879.29
28913	19.945	4.8182	0.1	889.86
28914	20.038	4.7273	0.1	873.38
28915	19.945	5.	0.1	883.72
28916	20.038	4.9091	0.1	866.92
28917	19.945	5.1818	0.1	877.33
28918	20.038	5.0909	0.1	860.09
28919	19.945	5.3636	0.1	870.91
28920	20.038	5.2727	0.1	853.11
28921	19.945	5.5455	0.1	864.7
28922	20.038	5.4545	0.1	846.19
28923	19.945	5.7273	0.1	860.04
28924	20.038	5.6364	0.1	839.68
28925	20.038	5.8182	0.1	836.01
28926	19.945	5.9091	0.1	848.58
28927	20.13	0.27273	0.1	815.35
28928	20.222	0.18182	0.1	790.47
28929	20.13	9.0909e-002	0.1	803.49
28930	20.13	0.45455	0.1	821.06
28931	20.222	0.36364	0.1	795.3
28932	20.13	0.63636	0.1	828.31
28933	20.222	0.54545	0.1	802.9
28934	20.13	0.81818	0.1	835.8
28935	20.222	0.72727	0.1	810.97
28936	20.13	1.	0.1	843.25
28937	20.222	0.90909	0.1	819.12
28938	20.13	1.1818	0.1	850.4
28939	20.222	1.0909	0.1	827.1
28940	20.13	1.3636	0.1	857.06
28941	20.222	1.2727	0.1	834.64
28942	20.13	1.5455	0.1	863.06
28943	20.222	1.4545	0.1	841.53
28944	20.13	1.7273	0.1	868.26
28945	20.222	1.6364	0.1	847.6
28946	20.13	1.9091	0.1	872.62
28947	20.222	1.8182	0.1	852.74
28948	20.13	2.0909	0.1	876.12
28949	20.222	2.	0.1	856.93
28950	20.13	2.2727	0.1	878.81
28951	20.222	2.1818	0.1	860.18
28952	20.13	2.4545	0.1	880.77
28953	20.222	2.3636	0.1	862.58
28954	20.13	2.6364	0.1	882.07
28955	20.222	2.5455	0.1	864.23
28956	20.13	2.8182	0.1	882.82
28957	20.222	2.7273	0.1	865.26
28958	20.13	3.	0.1	883.06
28959	20.222	2.9091	0.1	865.74
28960	20.13	3.1818	0.1	882.82
28961	20.222	3.0909	0.1	865.74
28962	20.13	3.3636	0.1	882.07
28963	20.222	3.2727	0.1	865.26
28964	20.13	3.5455	0.1	880.77
28965	20.222	3.4545	0.1	864.23
28966	20.13	3.7273	0.1	878.81
28967	20.222	3.6364	0.1	862.58
28968	20.13	3.9091	0.1	876.12
28969	20.222	3.8182	0.1	860.18
28970	20.13	4.0909	0.1	872.62
28971	20.222	4.	0.1	856.93
28972	20.13	4.2727	0.1	868.26
28973	20.222	4.1818	0.1	852.74
28974	20.13	4.4545	0.1	863.06
28975	20.222	4.3636	0.1	847.6
28976	20.13	4.6364	0.1	857.06
28977	20.222	4.5455	0.1	841.53
28978	20.13	4.8182	0.1	850.4
28979	20.222	4.7273	0.1	834.64
28980	20.13	5.	0.1	843.25
28981	20.222	4.9091	0.1	827.1
28982	20.13	5.1818	0.1	835.8
28983	20.222	5.0909	0.1	819.12
28984	20.13	5.3636	0.1	828.31
28985	20.222	5.2727	0.1	810.97
28986	20.13	5.5455	0.1	821.06
28987	20.222	5.4545	0.1	802.9
28988	20.13	5.7273	0.1	815.35
28989	20.222	5.6364	0.1	795.3
28990	20.222	5.8182	0.1	790.47
28991	20.13	5.9091	0.1	803.49
28992	20.315	0.27273	0.1	770.11
28993	20.407	0.18182	0.1	744.24
28994	20.315	9.0909e-002	0.1	757.82
28995	20.315	0.45455	0.1	777.03
28996	20.407	0.36364	0.1	750.38
28997	20.315	0.63636	0.1	785.48
28998	20.407	0.54545	0.1	759.25
28999	20.315	0.81818	0.1	794.23
29000	20.407	0.72727	0.1	768.65
29001	20.315	1.	0.1	802.93
29002	20.407	0.90909	0.1	778.18
29003	20.315	1.1818	0.1	811.31
29004	20.407	1.0909	0.1	787.53
29005	20.315	1.3636	0.1	819.09
29006	20.407	1.2727	0.1	796.37
29007	20.315	1.5455	0.1	826.06
29008	20.407	1.4545	0.1	804.43
29009	20.315	1.7273	0.1	832.07
29010	20.407	1.6364	0.1	811.5
29011	20.315	1.9091	0.1	837.05
29012	20.407	1.8182	0.1	817.42
29013	20.315	2.0909	0.1	840.98
29014	20.407	2.	0.1	822.17
29015	20.315	2.2727	0.1	843.94
29016	20.407	2.1818	0.1	825.77
29017	20.315	2.4545	0.1	846.04
29018	20.407	2.3636	0.1	828.36
29019	20.315	2.6364	0.1	847.41
29020	20.407	2.5455	0.1	830.1
29021	20.315	2.8182	0.1	848.18
29022	20.407	2.7273	0.1	831.15
29023	20.315	3.	0.1	848.43
29024	20.407	2.9091	0.1	831.63
29025	20.315	3.1818	0.1	848.18
29026	20.407	3.0909	0.1	831.63
29027	20.315	3.3636	0.1	847.41
29028	20.407	3.2727	0.1	831.15
29029	20.315	3.5455	0.1	846.04
29030	20.407	3.4545	0.1	830.1
29031	20.315	3.7273	0.1	843.94
29032	20.407	3.6364	0.1	828.36
29033	20.315	3.9091	0.1	840.98
29034	20.407	3.8182	0.1	825.77
29035	20.315	4.0909	0.1	837.05
29036	20.407	4.	0.1	822.17
29037	20.315	4.2727	0.1	832.07
29038	20.407	4.1818	0.1	817.42
29039	20.315	4.4545	0.1	826.06
29040	20.407	4.3636	0.1	811.5
29041	20.315	4.6364	0.1	819.09
29042	20.407	4.5455	0.1	804.43
29043	20.315	4.8182	0.1	811.31
29044	20.407	4.7273	0.1	796.37
29045	20.315	5.	0.1	802.93
29046	20.407	4.9091	0.1	787.53
29047	20.315	5.1818	0.1	794.23
29048	20.407	5.0909	0.1	778.18
29049	20.315	5.3636	0.1	785.48
29050	20.407	5.2727	0.1	768.65
29051	20.315	5.5455	0.1	777.03
29052	20.407	5.4545	0.1	759.25
29053	20.315	5.7273	0.1	770.11
29054	20.407	5.6364	0.1	750.38
29055	20.407	5.8182	0.1	744.24
29056	20.315	5.9091	0.1	757.82
29057	20.499	0.27273	0.1	724.18
29058	20.592	0.18182	0.1	697.15
29059	20.499	9.0909e-002	0.1	711.43
29060	20.499	0.45455	0.1	732.48
29061	20.592	0.36364	0.1	704.78
29062	20.499	0.63636	0.1	742.32
29063	20.592	0.54545	0.1	715.08
29064	20.499	0.81818	0.1	752.54
29065	20.592	0.72727	0.1	726.03
29066	20.499	1.	0.1	762.75
29067	20.592	0.90909	0.1	737.2
29068	20.499	1.1818	0.1	772.58
29069	20.592	1.0909	0.1	748.2
29070	20.499	1.3636	0.1	781.72
29071	20.592	1.2727	0.1	758.63
29072	20.499	1.5455	0.1	789.88
29073	20.592	1.4545	0.1	768.13
29074	20.499	1.7273	0.1	796.86
29075	20.592	1.6364	0.1	776.4
29076	20.499	1.9091	0.1	802.56
29077	20.592	1.8182	0.1	783.26
29078	20.499	2.0909	0.1	806.97
29079	20.592	2.	0.1	788.64
29080	20.499	2.2727	0.1	810.21
29081	20.592	2.1818	0.1	792.63
29082	20.499	2.4545	0.1	812.43
29083	20.592	2.3636	0.1	795.39
29084	20.499	2.6364	0.1	813.84
29085	20.592	2.5455	0.1	797.16
29086	20.499	2.8182	0.1	814.6
29087	20.592	2.7273	0.1	798.18
29088	20.499	3.	0.1	814.84
29089	20.592	2.9091	0.1	798.64
29090	20.499	3.1818	0.1	814.6
29091	20.592	3.0909	0.1	798.64
29092	20.499	3.3636	0.1	813.84
29093	20.592	3.2727	0.1	798.18
29094	20.499	3.5455	0.1	812.43
29095	20.592	3.4545	0.1	797.16
29096	20.499	3.7273	0.1	810.21
29097	20.592	3.6364	0.1	795.39
29098	20.499	3.9091	0.1	806.97
29099	20.592	3.8182	0.1	792.63
29100	20.499	4.0909	0.1	802.56
29101	20.592	4.	0.1	788.64
29102	20.499	4.2727	0.1	796.86
29103	20.592	4.1818	0.1	783.26
29104	20.499	4.4545	0.1	789.88
29105	20.592	4.3636	0.1	776.4
29106	20.499	4.6364	0.1	781.72
29107	20.592	4.5455	0.1	768.13
29108	20.499	4.8182	0.1	772.58
29109	20.592	4.7273	0.1	758.63
29110	20.499	5.	0.1	762.75
29111	20.592	4.9091	0.1	748.2
29112	20.499	5.1818	0.1	752.54
29113	20.592	5.0909	0.1	737.2
29114	20.499	5.3636	0.1	742.32
29115	20.592	5.2727	0.1	726.03
29116	20.499	5.5455	0.1	732.48
29117	20.592	5.4545	0.1	715.08
29118	20.499	5.7273	0.1	724.18
29119	20.592	5.6364	0.1	704.78
29120	20.592	5.8182	0.1	697.15
29121	20.499	5.9091	0.1	711.43
29122	20.684	0.27273	0.1	677.4
29123	20.776	0.18182	0.1	649.01
29124	20.684	9.0909e-002	0.1	664.13
29125	20.684	0.45455	0.1	687.24
29126	20.776	0.36364	0.1	658.29
29127	20.684	0.63636	0.1	698.7
29128	20.776	0.54545	0.1	670.22
29129	20.684	0.81818	0.1	710.65
29130	20.776	0.72727	0.1	682.99
29131	20.684	1.	0.1	722.65
29132	20.776	0.90909	0.1	696.11
29133	20.684	1.1818	0.1	734.26
29134	20.776	1.0909	0.1	709.12
29135	20.684	1.3636	0.1	745.07
29136	20.776	1.2727	0.1	721.49
29137	20.684	1.5455	0.1	754.68
29138	20.776	1.4545	0.1	732.76
29139	20.684	1.7273	0.1	762.83
29140	20.776	1.6364	0.1	742.52
29141	20.684	1.9091	0.1	769.37
29142	20.776	1.8182	0.1	750.5
29143	20.684	2.0909	0.1	774.32
29144	20.776	2.	0.1	756.62
29145	20.684	2.2727	0.1	777.83
29146	20.776	2.1818	0.1	761.
29147	20.684	2.4545	0.1	780.13
29148	20.776	2.3636	0.1	763.88
29149	20.684	2.6364	0.1	781.52
29150	20.776	2.5455	0.1	765.61
29151	20.684	2.8182	0.1	782.23
29152	20.776	2.7273	0.1	766.54
29153	20.684	3.	0.1	782.45
29154	20.776	2.9091	0.1	766.92
29155	20.684	3.1818	0.1	782.23
29156	20.776	3.0909	0.1	766.92
29157	20.684	3.3636	0.1	781.52
29158	20.776	3.2727	0.1	766.54
29159	20.684	3.5455	0.1	780.13
29160	20.776	3.4545	0.1	765.61
29161	20.684	3.7273	0.1	777.83
29162	20.776	3.6364	0.1	763.88
29163	20.684	3.9091	0.1	774.32
29164	20.776	3.8182	0.1	761.
29165	20.684	4.0909	0.1	769.37
29166	20.776	4.	0.1	756.62
29167	20.684	4.2727	0.1	762.83
29168	20.776	4.1818	0.1	750.5
29169	20.684	4.4545	0.1	754.68
29170	20.776	4.3636	0.1	742.52
29171	20.684	4.6364	0.1	745.07
29172	20.776	4.5455	0.1	732.76
29173	20.684	4.8182	0.1	734.26
29174	20.776	4.7273	0.1	721.5
29175	20.684	5.	0.1	722.65
29176	20.776	4.9091	0.1	709.12
29177	20.684	5.1818	0.1	710.65
29178	20.776	5.0909	0.1	696.11
29179	20.684	5.3636	0.1	698.7
29180	20.776	5.2727	0.1	682.99
29181	20.684	5.5455	0.1	687.24
29182	20.776	5.4545	0.1	670.22
29183	20.684	5.7273	0.1	677.4
29184	20.776	5.6364	0.1	658.29
29185	20.776	5.8182	0.1	649.01
29186	20.684	5.9091	0.1	664.14
29187	20.869	0.27273	0.1	629.55
29188	20.961	0.18182	0.1	599.63
29189	20.869	9.0909e-002	0.1	615.74
29190	20.869	0.45455	0.1	641.13
29191	20.961	0.36364	0.1	610.72
29192	20.869	0.63636	0.1	654.44
29193	20.961	0.54545	0.1	624.49
29194	20.869	0.81818	0.1	668.42
29195	20.961	0.72727	0.1	639.35
29196	20.869	1.	0.1	682.59
29197	20.961	0.90909	0.1	654.8
29198	20.869	1.1818	0.1	696.39
29199	20.961	1.0909	0.1	670.25
29200	20.869	1.3636	0.1	709.25
29201	20.961	1.2727	0.1	685.05
29202	20.869	1.5455	0.1	720.67
29203	20.961	1.4545	0.1	698.54
29204	20.869	1.7273	0.1	730.25
29205	20.961	1.6364	0.1	710.15
29206	20.869	1.9091	0.1	737.8
29207	20.961	1.8182	0.1	719.5
29208	20.869	2.0909	0.1	743.34
29209	20.961	2.	0.1	726.47
29210	20.869	2.2727	0.1	747.08
29211	20.961	2.1818	0.1	731.22
29212	20.869	2.4545	0.1	749.38
29213	20.961	2.3636	0.1	734.13
29214	20.869	2.6364	0.1	750.65
29215	20.961	2.5455	0.1	735.7
29216	20.869	2.8182	0.1	751.25
29217	20.961	2.7273	0.1	736.42
29218	20.869	3.	0.1	751.42
29219	20.961	2.9091	0.1	736.68
29220	20.869	3.1818	0.1	751.25
29221	20.961	3.0909	0.1	736.68
29222	20.869	3.3636	0.1	750.65
29223	20.961	3.2727	0.1	736.42
29224	20.869	3.5455	0.1	749.38
29225	20.961	3.4545	0.1	735.7
29226	20.869	3.7273	0.1	747.08
29227	20.961	3.6364	0.1	734.13
29228	20.869	3.9091	0.1	743.34
29229	20.961	3.8182	0.1	731.22
29230	20.869	4.0909	0.1	737.8
29231	20.961	4.	0.1	726.47
29232	20.869	4.2727	0.1	730.25
29233	20.961	4.1818	0.1	719.5
29234	20.869	4.4545	0.1	720.67
29235	20.961	4.3636	0.1	710.15
29236	20.869	4.6364	0.1	709.25
29237	20.961	4.5455	0.1	698.54
29238	20.869	4.8182	0.1	696.39
29239	20.961	4.7273	0.1	685.05
29240	20.869	5.	0.1	682.59
29241	20.961	4.9091	0.1	670.25
29242	20.869	5.1818	0.1	668.42
29243	20.961	5.0909	0.1	654.8
29244	20.869	5.3636	0.1	654.44
29245	20.961	5.2727	0.1	639.35
29246	20.869	5.5455	0.1	641.13
29247	20.961	5.4545	0.1	624.49
29248	20.869	5.7273	0.1	629.55
29249	20.961	5.6364	0.1	610.72
29250	20.961	5.8182	0.1	599.63
29251	20.869	5.9091	0.1	615.74
29252	21.053	0.27273	0.1	580.42
29253	21.146	0.18182	0.1	548.8
29254	21.053	9.0909e-002	0.1	566.05
29255	21.053	0.45455	0.1	593.93
29256	21.146	0.36364	0.1	561.82
29257	21.053	0.63636	0.1	609.34
29258	21.146	0.54545	0.1	577.63
29259	21.053	0.81818	0.1	625.73
29260	21.146	0.72727	0.1	594.92
29261	21.053	1.	0.1	642.52
29262	21.146	0.90909	0.1	613.15
29263	21.053	1.1818	0.1	659.01
29264	21.146	1.0909	0.1	631.61
29265	21.053	1.3636	0.1	674.45
29266	21.146	1.2727	0.1	649.44
29267	21.053	1.5455	0.1	688.13
29268	21.146	1.4545	0.1	665.75
29269	21.053	1.7273	0.1	699.5
29270	21.146	1.6364	0.1	679.71
29271	21.053	1.9091	0.1	708.25
29272	21.146	1.8182	0.1	690.75
29273	21.053	2.0909	0.1	714.42
29274	21.146	2.	0.1	698.69
29275	21.053	2.2727	0.1	718.32
29276	21.146	2.1818	0.1	703.76
29277	21.053	2.4545	0.1	720.49
29278	21.146	2.3636	0.1	706.53
29279	21.053	2.6364	0.1	721.5
29280	21.146	2.5455	0.1	707.73
29281	21.053	2.8182	0.1	721.87
29282	21.146	2.7273	0.1	708.08
29283	21.053	3.	0.1	721.96
29284	21.146	2.9091	0.1	708.11
29285	21.053	3.1818	0.1	721.87
29286	21.146	3.0909	0.1	708.11
29287	21.053	3.3636	0.1	721.5
29288	21.146	3.2727	0.1	708.08
29289	21.053	3.5455	0.1	720.49
29290	21.146	3.4545	0.1	707.73
29291	21.053	3.7273	0.1	718.32
29292	21.146	3.6364	0.1	706.53
29293	21.053	3.9091	0.1	714.42
29294	21.146	3.8182	0.1	703.76
29295	21.053	4.0909	0.1	708.25
29296	21.146	4.	0.1	698.69
29297	21.053	4.2727	0.1	699.5
29298	21.146	4.1818	0.1	690.75
29299	21.053	4.4545	0.1	688.13
29300	21.146	4.3636	0.1	679.71
29301	21.053	4.6364	0.1	674.45
29302	21.146	4.5455	0.1	665.75
29303	21.053	4.8182	0.1	659.01
29304	21.146	4.7273	0.1	649.44
29305	21.053	5.	0.1	642.52
29306	21.146	4.9091	0.1	631.61
29307	21.053	5.1818	0.1	625.73
29308	21.146	5.0909	0.1	613.15
29309	21.053	5.3636	0.1	609.34
29310	21.146	5.2727	0.1	594.92
29311	21.053	5.5455	0.1	593.93
29312	21.146	5.4545	0.1	577.63
29313	21.053	5.7273	0.1	580.42
29314	21.146	5.6364	0.1	561.82
29315	21.146	5.8182	0.1	548.8
29316	21.053	5.9091	0.1	566.05
29317	21.238	0.27273	0.1	529.8
29318	21.33	0.18182	0.1	496.34
29319	21.238	9.0909e-002	0.1	514.84
29320	21.238	0.45455	0.1	545.38
29321	21.33	0.36364	0.1	511.37
29322	21.238	0.63636	0.1	563.17
29323	21.33	0.54545	0.1	529.4
29324	21.238	0.81818	0.1	582.39
29325	21.33	0.72727	0.1	549.47
29326	21.238	1.	0.1	602.36
29327	21.33	0.90909	0.1	571.01
29328	21.238	1.1818	0.1	622.2
29329	21.33	1.0909	0.1	593.18
29330	21.238	1.3636	0.1	640.92
29331	21.33	1.2727	0.1	614.85
29332	21.238	1.5455	0.1	657.49
29333	21.33	1.4545	0.1	634.79
29334	21.238	1.7273	0.1	671.1
29335	21.33	1.6364	0.1	651.77
29336	21.238	1.9091	0.1	681.3
29337	21.33	1.8182	0.1	664.94
29338	21.238	2.0909	0.1	688.12
29339	21.33	2.	0.1	673.97
29340	21.238	2.2727	0.1	692.03
29341	21.33	2.1818	0.1	679.22
29342	21.238	2.4545	0.1	693.82
29343	21.33	2.3636	0.1	681.56
29344	21.238	2.6364	0.1	694.35
29345	21.33	2.5455	0.1	682.08
29346	21.238	2.8182	0.1	694.35
29347	21.33	2.7273	0.1	681.81
29348	21.238	3.	0.1	694.29
29349	21.33	2.9091	0.1	681.49
29350	21.238	3.1818	0.1	694.35
29351	21.33	3.0909	0.1	681.49
29352	21.238	3.3636	0.1	694.35
29353	21.33	3.2727	0.1	681.81
29354	21.238	3.5455	0.1	693.82
29355	21.33	3.4545	0.1	682.08
29356	21.238	3.7273	0.1	692.03
29357	21.33	3.6364	0.1	681.56
29358	21.238	3.9091	0.1	688.12
29359	21.33	3.8182	0.1	679.22
29360	21.238	4.0909	0.1	681.3
29361	21.33	4.	0.1	673.97
29362	21.238	4.2727	0.1	671.1
29363	21.33	4.1818	0.1	664.94
29364	21.238	4.4545	0.1	657.49
29365	21.33	4.3636	0.1	651.77
29366	21.238	4.6364	0.1	640.92
29367	21.33	4.5455	0.1	634.79
29368	21.238	4.8182	0.1	622.2
29369	21.33	4.7273	0.1	614.85
29370	21.238	5.	0.1	602.36
29371	21.33	4.9091	0.1	593.18
29372	21.238	5.1818	0.1	582.39
29373	21.33	5.0909	0.1	571.01
29374	21.238	5.3636	0.1	563.17
29375	21.33	5.2727	0.1	549.47
29376	21.238	5.5455	0.1	545.38
29377	21.33	5.4545	0.1	529.4
29378	21.238	5.7273	0.1	529.8
29379	21.33	5.6364	0.1	511.37
29380	21.33	5.8182	0.1	496.34
29381	21.238	5.9091	0.1	514.84
29382	21.423	0.27273	0.1	477.48
29383	21.515	0.18182	0.1	442.11
29384	21.423	9.0909e-002	0.1	461.93
29385	21.423	0.45455	0.1	495.25
29386	21.515	0.36364	0.1	459.13
29387	21.423	0.63636	0.1	515.7
29388	21.515	0.54545	0.1	479.55
29389	21.423	0.81818	0.1	538.22
29390	21.515	0.72727	0.1	502.77
29391	21.423	1.	0.1	562.05
29392	21.515	0.90909	0.1	528.25
29393	21.423	1.1818	0.1	586.1
29394	21.515	1.0909	0.1	554.98
29395	21.423	1.3636	0.1	609.01
29396	21.515	1.2727	0.1	581.56
29397	21.423	1.5455	0.1	629.33
29398	21.515	1.4545	0.1	606.23
29399	21.423	1.7273	0.1	645.82
29400	21.515	1.6364	0.1	627.2
29401	21.423	1.9091	0.1	657.76
29402	21.515	1.8182	0.1	643.08
29403	21.423	2.0909	0.1	665.19
29404	21.515	2.	0.1	653.32
29405	21.423	2.2727	0.1	668.83
29406	21.515	2.1818	0.1	658.45
29407	21.423	2.4545	0.1	669.87
29408	21.515	2.3636	0.1	659.85
29409	21.423	2.6364	0.1	669.58
29410	21.515	2.5455	0.1	659.19
29411	21.423	2.8182	0.1	668.98
29412	21.515	2.7273	0.1	657.94
29413	21.423	3.	0.1	668.7
29414	21.515	2.9091	0.1	657.09
29415	21.423	3.1818	0.1	668.98
29416	21.515	3.0909	0.1	657.09
29417	21.423	3.3636	0.1	669.58
29418	21.515	3.2727	0.1	657.94
29419	21.423	3.5455	0.1	669.87
29420	21.515	3.4545	0.1	659.19
29421	21.423	3.7273	0.1	668.83
29422	21.515	3.6364	0.1	659.85
29423	21.423	3.9091	0.1	665.19
29424	21.515	3.8182	0.1	658.45
29425	21.423	4.0909	0.1	657.76
29426	21.515	4.	0.1	653.32
29427	21.423	4.2727	0.1	645.82
29428	21.515	4.1818	0.1	643.08
29429	21.423	4.4545	0.1	629.33
29430	21.515	4.3636	0.1	627.2
29431	21.423	4.6364	0.1	609.01
29432	21.515	4.5455	0.1	606.23
29433	21.423	4.8182	0.1	586.1
29434	21.515	4.7273	0.1	581.56
29435	21.423	5.	0.1	562.05
29436	21.515	4.9091	0.1	554.98
29437	21.423	5.1818	0.1	538.22
29438	21.515	5.0909	0.1	528.25
29439	21.423	5.3636	0.1	515.7
29440	21.515	5.2727	0.1	502.77
29441	21.423	5.5455	0.1	495.25
29442	21.515	5.4545	0.1	479.55
29443	21.423	5.7273	0.1	477.48
29444	21.515	5.6364	0.1	459.13
29445	21.515	5.8182	0.1	442.11
29446	21.423	5.9091	0.1	461.93
29447	21.607	0.27273	0.1	423.32
29448	21.7	0.18182	0.1	386.08
29449	21.607	9.0909e-002	0.1	407.22
29450	21.607	0.45455	0.1	443.31
29451	21.7	0.36364	0.1	404.97
29452	21.607	0.63636	0.1	466.69
29453	21.7	0.54545	0.1	427.88
29454	21.607	0.81818	0.1	493.05
29455	21.7	0.72727	0.1	454.64
29456	21.607	1.	0.1	521.57
29457	21.7	0.90909	0.1	484.75
29458	21.607	1.1818	0.1	550.91
29459	21.7	1.0909	0.1	517.1
29460	21.607	1.3636	0.1	579.25
29461	21.7	1.2727	0.1	549.94
29462	21.607	1.5455	0.1	604.5
29463	21.7	1.4545	0.1	580.91
29464	21.607	1.7273	0.1	624.76
29465	21.7	1.6364	0.1	607.28
29466	21.607	1.9091	0.1	638.83
29467	21.7	1.8182	0.1	626.73
29468	21.607	2.0909	0.1	646.71
29469	21.7	2.	0.1	638.25
29470	21.607	2.2727	0.1	649.55
29471	21.7	2.1818	0.1	642.66
29472	21.607	2.4545	0.1	649.22
29473	21.7	2.3636	0.1	642.21
29474	21.607	2.6364	0.1	647.59
29475	21.7	2.5455	0.1	639.58
29476	21.607	2.8182	0.1	646.08
29477	21.7	2.7273	0.1	636.86
29478	21.607	3.	0.1	645.49
29479	21.7	2.9091	0.1	635.24
29480	21.607	3.1818	0.1	646.08
29481	21.7	3.0909	0.1	635.24
29482	21.607	3.3636	0.1	647.59
29483	21.7	3.2727	0.1	636.86
29484	21.607	3.5455	0.1	649.22
29485	21.7	3.4545	0.1	639.58
29486	21.607	3.7273	0.1	649.55
29487	21.7	3.6364	0.1	642.21
29488	21.607	3.9091	0.1	646.71
29489	21.7	3.8182	0.1	642.66
29490	21.607	4.0909	0.1	638.83
29491	21.7	4.	0.1	638.25
29492	21.607	4.2727	0.1	624.76
29493	21.7	4.1818	0.1	626.73
29494	21.607	4.4545	0.1	604.5
29495	21.7	4.3636	0.1	607.28
29496	21.607	4.6364	0.1	579.25
29497	21.7	4.5455	0.1	580.91
29498	21.607	4.8182	0.1	550.91
29499	21.7	4.7273	0.1	549.94
29500	21.607	5.	0.1	521.57
29501	21.7	4.9091	0.1	517.1
29502	21.607	5.1818	0.1	493.05
29503	21.7	5.0909	0.1	484.75
29504	21.607	5.3636	0.1	466.69
29505	21.7	5.2727	0.1	454.64
29506	21.607	5.5455	0.1	443.31
29507	21.7	5.4545	0.1	427.88
29508	21.607	5.7273	0.1	423.32
29509	21.7	5.6364	0.1	404.97
29510	21.7	5.8182	0.1	386.08
29511	21.607	5.9091	0.1	407.22
29512	21.792	0.27273	0.1	367.29
29513	21.884	0.18182	0.1	328.4
29514	21.792	9.0909e-002	0.1	350.69
29515	21.792	0.45455	0.1	389.46
29516	21.884	0.36364	0.1	348.91
29517	21.792	0.63636	0.1	416.03
29518	21.884	0.54545	0.1	374.39
29519	21.792	0.81818	0.1	446.81
29520	21.884	0.72727	0.1	405.08
29521	21.792	1.	0.1	480.96
29522	21.884	0.90909	0.1	440.57
29523	21.792	1.1818	0.1	516.93
29524	21.884	1.0909	0.1	479.72
29525	21.792	1.3636	0.1	552.37
29526	21.884	1.2727	0.1	520.55
29527	21.792	1.5455	0.1	584.3
29528	21.884	1.4545	0.1	559.99
29529	21.792	1.7273	0.1	609.65
29530	21.884	1.6364	0.1	593.94
29531	21.792	1.9091	0.1	626.37
29532	21.884	1.8182	0.1	618.37
29533	21.792	2.0909	0.1	634.3
29534	21.884	2.	0.1	631.16
29535	21.792	2.2727	0.1	635.37
29536	21.884	2.1818	0.1	633.6
29537	21.792	2.4545	0.1	632.61
29538	21.884	2.3636	0.1	629.72
29539	21.792	2.6364	0.1	628.87
29540	21.884	2.5455	0.1	623.86
29541	21.792	2.8182	0.1	626.03
29542	21.884	2.7273	0.1	618.95
29543	21.792	3.	0.1	625.01
29544	21.884	2.9091	0.1	616.29
29545	21.792	3.1818	0.1	626.03
29546	21.884	3.0909	0.1	616.29
29547	21.792	3.3636	0.1	628.87
29548	21.884	3.2727	0.1	618.95
29549	21.792	3.5455	0.1	632.61
29550	21.884	3.4545	0.1	623.86
29551	21.792	3.7273	0.1	635.37
29552	21.884	3.6364	0.1	629.72
29553	21.792	3.9091	0.1	634.3
29554	21.884	3.8182	0.1	633.6
29555	21.792	4.0909	0.1	626.37
29556	21.884	4.	0.1	631.16
29557	21.792	4.2727	0.1	609.65
29558	21.884	4.1818	0.1	618.37
29559	21.792	4.4545	0.1	584.3
29560	21.884	4.3636	0.1	593.94
29561	21.792	4.6364	0.1	552.37
29562	21.884	4.5455	0.1	559.99
29563	21.792	4.8182	0.1	516.93
29564	21.884	4.7273	0.1	520.55
29565	21.792	5.	0.1	480.96
29566	21.884	4.9091	0.1	479.72
29567	21.792	5.1818	0.1	446.81
29568	21.884	5.0909	0.1	440.57
29569	21.792	5.3636	0.1	416.03
29570	21.884	5.2727	0.1	405.08
29571	21.792	5.5455	0.1	389.46
29572	21.884	5.4545	0.1	374.39
29573	21.792	5.7273	0.1	367.29
29574	21.884	5.6364	0.1	348.91
29575	21.884	5.8182	0.1	328.4
29576	21.792	5.9091	0.1	350.69
29577	21.977	0.27273	0.1	309.58
29578	22.069	0.18182	0.1	269.45
29579	21.977	9.0909e-002	0.1	292.53
29580	21.977	0.45455	0.1	333.84
29581	22.069	0.36364	0.1	291.26
29582	21.977	0.63636	0.1	363.86
29583	22.069	0.54545	0.1	319.45
29584	21.977	0.81818	0.1	399.69
29585	22.069	0.72727	0.1	354.55
29586	21.977	1.	0.1	440.51
29587	22.069	0.90909	0.1	396.18
29588	21.977	1.1818	0.1	484.69
29589	22.069	1.0909	0.1	443.33
29590	21.977	1.3636	0.1	529.45
29591	22.069	1.2727	0.1	494.1
29592	21.977	1.5455	0.1	570.59
29593	22.069	1.4545	0.1	545.01
29594	21.977	1.7273	0.1	603.18
29595	22.069	1.6364	0.1	590.27
29596	21.977	1.9091	0.1	623.33
29597	22.069	1.8182	0.1	622.22
29598	21.977	2.0909	0.1	630.46
29599	22.069	2.	0.1	636.21
29600	21.977	2.2727	0.1	627.93
29601	22.069	2.1818	0.1	634.23
29602	21.977	2.4545	0.1	620.97
29603	22.069	2.3636	0.1	623.82
29604	21.977	2.6364	0.1	613.94
29605	22.069	2.5455	0.1	612.68
29606	21.977	2.8182	0.1	609.2
29607	22.069	2.7273	0.1	604.57
29608	21.977	3.	0.1	607.58
29609	22.069	2.9091	0.1	600.49
29610	21.977	3.1818	0.1	609.2
29611	22.069	3.0909	0.1	600.49
29612	21.977	3.3636	0.1	613.94
29613	22.069	3.2727	0.1	604.57
29614	21.977	3.5455	0.1	620.97
29615	22.069	3.4545	0.1	612.68
29616	21.977	3.7273	0.1	627.93
29617	22.069	3.6364	0.1	623.82
29618	21.977	3.9091	0.1	630.46
29619	22.069	3.8182	0.1	634.23
29620	21.977	4.0909	0.1	623.33
29621	22.069	4.	0.1	636.21
29622	21.977	4.2727	0.1	603.18
29623	22.069	4.1818	0.1	622.22
29624	21.977	4.4545	0.1	570.59
29625	22.069	4.3636	0.1	590.27
29626	21.977	4.6364	0.1	529.45
29627	22.069	4.5455	0.1	545.01
29628	21.977	4.8182	0.1	484.69
29629	22.069	4.7273	0.1	494.1
29630	21.977	5.	0.1	440.51
29631	22.069	4.9091	0.1	443.33
29632	21.977	5.1818	0.1	399.69
29633	22.069	5.0909	0.1	396.18
29634	21.977	5.3636	0.1	363.86
29635	22.069	5.2727	0.1	354.55
29636	21.977	5.5455	0.1	333.84
29637	22.069	5.4545	0.1	319.45
29638	21.977	5.7273	0.1	309.58
29639	22.069	5.6364	0.1	291.26
29640	22.069	5.8182	0.1	269.45
29641	21.977	5.9091	0.1	292.53
29642	22.161	0.27273	0.1	250.75
29643	22.254	0.18182	0.1	209.93
29644	22.161	9.0909e-002	0.1	233.2
29645	22.161	0.45455	0.1	277.08
29646	22.254	0.36364	0.1	232.88
29647	22.161	0.63636	0.1	310.99
29648	22.254	0.54545	0.1	264.3
29649	22.161	0.81818	0.1	352.53
29650	22.254	0.72727	0.1	304.49
29651	22.161	1.	0.1	400.99
29652	22.254	0.90909	0.1	352.92
29653	22.161	1.1818	0.1	454.99
29654	22.254	1.0909	0.1	408.92
29655	22.161	1.3636	0.1	511.8
29656	22.254	1.2727	0.1	471.34
29657	22.161	1.5455	0.1	566.24
29658	22.254	1.4545	0.1	537.67
29659	22.161	1.7273	0.1	609.95
29660	22.254	1.6364	0.1	600.43
29661	22.161	1.9091	0.1	635.01
29662	22.254	1.8182	0.1	646.07
29663	22.161	2.0909	0.1	639.68
29664	22.254	2.	0.1	661.52
29665	22.161	2.2727	0.1	629.92
29666	22.254	2.1818	0.1	649.15
29667	22.161	2.4545	0.1	615.44
29668	22.254	2.3636	0.1	626.58
29669	22.161	2.6364	0.1	603.27
29670	22.254	2.5455	0.1	606.75
29671	22.161	2.8182	0.1	595.83
29672	22.254	2.7273	0.1	593.8
29673	22.161	3.	0.1	593.38
29674	22.254	2.9091	0.1	587.64
29675	22.161	3.1818	0.1	595.83
29676	22.254	3.0909	0.1	587.64
29677	22.161	3.3636	0.1	603.27
29678	22.254	3.2727	0.1	593.8
29679	22.161	3.5455	0.1	615.44
29680	22.254	3.4545	0.1	606.75
29681	22.161	3.7273	0.1	629.92
29682	22.254	3.6364	0.1	626.58
29683	22.161	3.9091	0.1	639.68
29684	22.254	3.8182	0.1	649.15
29685	22.161	4.0909	0.1	635.01
29686	22.254	4.	0.1	661.52
29687	22.161	4.2727	0.1	609.95
29688	22.254	4.1818	0.1	646.07
29689	22.161	4.4545	0.1	566.24
29690	22.254	4.3636	0.1	600.43
29691	22.161	4.6364	0.1	511.8
29692	22.254	4.5455	0.1	537.67
29693	22.161	4.8182	0.1	454.99
29694	22.254	4.7273	0.1	471.34
29695	22.161	5.	0.1	400.99
29696	22.254	4.9091	0.1	408.92
29697	22.161	5.1818	0.1	352.53
29698	22.254	5.0909	0.1	352.92
29699	22.161	5.3636	0.1	310.99
29700	22.254	5.2727	0.1	304.49
29701	22.161	5.5455	0.1	277.08
29702	22.254	5.4545	0.1	264.3
29703	22.161	5.7273	0.1	250.75
29704	22.254	5.6364	0.1	232.88
29705	22.254	5.8182	0.1	209.93
29706	22.161	5.9091	0.1	233.2
29707	22.346	0.27273	0.1	191.89
29708	22.438	0.18182	0.1	151.02
29709	22.346	9.0909e-002	0.1	173.44
29710	22.346	0.45455	0.1	220.81
29711	22.438	0.36364	0.1	175.83
29712	22.346	0.63636	0.1	259.5
29713	22.438	0.54545	0.1	212.05
29714	22.346	0.81818	0.1	307.46
29715	22.438	0.72727	0.1	258.43
29716	22.346	1.	0.1	364.11
29717	22.438	0.90909	0.1	314.
29718	22.346	1.1818	0.1	428.94
29719	22.438	1.0909	0.1	378.73
29720	22.346	1.3636	0.1	500.83
29721	22.438	1.2727	0.1	453.42
29722	22.346	1.5455	0.1	574.57
29723	22.438	1.4545	0.1	537.93
29724	22.346	1.7273	0.1	637.25
29725	22.438	1.6364	0.1	630.92
29726	22.346	1.9091	0.1	671.61
29727	22.438	1.8182	0.1	706.28
29728	22.346	2.0909	0.1	669.83
29729	22.438	2.	0.1	726.24
29730	22.346	2.2727	0.1	645.26
29731	22.438	2.1818	0.1	690.45
29732	22.346	2.4545	0.1	617.71
29733	22.438	2.3636	0.1	641.75
29734	22.346	2.6364	0.1	597.2
29735	22.438	2.5455	0.1	606.34
29736	22.346	2.8182	0.1	585.56
29737	22.438	2.7273	0.1	585.71
29738	22.346	3.	0.1	581.86
29739	22.438	2.9091	0.1	576.19
29740	22.346	3.1818	0.1	585.56
29741	22.438	3.0909	0.1	576.19
29742	22.346	3.3636	0.1	597.2
29743	22.438	3.2727	0.1	585.71
29744	22.346	3.5455	0.1	617.71
29745	22.438	3.4545	0.1	606.34
29746	22.346	3.7273	0.1	645.26
29747	22.438	3.6364	0.1	641.75
29748	22.346	3.9091	0.1	669.83
29749	22.438	3.8182	0.1	690.45
29750	22.346	4.0909	0.1	671.61
29751	22.438	4.	0.1	726.24
29752	22.346	4.2727	0.1	637.25
29753	22.438	4.1818	0.1	706.28
29754	22.346	4.4545	0.1	574.57
29755	22.438	4.3636	0.1	630.92
29756	22.346	4.6364	0.1	500.83
29757	22.438	4.5455	0.1	537.93
29758	22.346	4.8182	0.1	428.94
29759	22.438	4.7273	0.1	453.42
29760	22.346	5.	0.1	364.11
29761	22.438	4.9091	0.1	378.73
29762	22.346	5.1818	0.1	307.46
29763	22.438	5.0909	0.1	314.
29764	22.346	5.3636	0.1	259.5
29765	22.438	5.2727	0.1	258.43
29766	22.346	5.5455	0.1	220.81
29767	22.438	5.4545	0.1	212.05
29768	22.346	5.7273	0.1	191.89
29769	22.438	5.6364	0.1	175.83
29770	22.438	5.8182	0.1	151.02
29771	22.346	5.9091	0.1	173.44
29772	22.531	0.27273	0.1	135.5
29773	22.623	0.18182	0.1	95.228
29774	22.531	9.0909e-002	0.1	114.45
29775	22.531	0.45455	0.1	169.18
29776	22.623	0.36364	0.1	127.1
29777	22.531	0.63636	0.1	214.43
29778	22.623	0.54545	0.1	172.39
29779	22.531	0.81818	0.1	269.34
29780	22.623	0.72727	0.1	227.
29781	22.531	1.	0.1	333.69
29782	22.623	0.90909	0.1	290.23
29783	22.531	1.1818	0.1	408.9
29784	22.623	1.0909	0.1	363.25
29785	22.531	1.3636	0.1	496.66
29786	22.623	1.2727	0.1	449.11
29787	22.531	1.5455	0.1	599.5
29788	22.623	1.4545	0.1	552.83
29789	22.531	1.7273	0.1	701.63
29790	22.623	1.6364	0.1	682.55
29791	22.531	1.9091	0.1	756.22
29792	22.623	1.8182	0.1	849.37
29793	22.531	2.0909	0.1	742.96
29794	22.623	2.	0.1	911.52
29795	22.531	2.2727	0.1	685.77
29796	22.623	2.1818	0.1	786.21
29797	22.531	2.4545	0.1	630.21
29798	22.623	2.3636	0.1	671.97
29799	22.531	2.6364	0.1	594.81
29800	22.623	2.5455	0.1	609.33
29801	22.531	2.8182	0.1	576.27
29802	22.623	2.7273	0.1	576.44
29803	22.531	3.	0.1	570.43
29804	22.623	2.9091	0.1	561.63
29805	22.531	3.1818	0.1	576.27
29806	22.623	3.0909	0.1	561.63
29807	22.531	3.3636	0.1	594.81
29808	22.623	3.2727	0.1	576.44
29809	22.531	3.5455	0.1	630.21
29810	22.623	3.4545	0.1	609.33
29811	22.531	3.7273	0.1	685.77
29812	22.623	3.6364	0.1	671.97
29813	22.531	3.9091	0.1	742.96
29814	22.623	3.8182	0.1	786.21
29815	22.531	4.0909	0.1	756.22
29816	22.623	4.	0.1	911.52
29817	22.531	4.2727	0.1	701.63
29818	22.623	4.1818	0.1	849.37
29819	22.531	4.4545	0.1	599.5
29820	22.623	4.3636	0.1	682.55
29821	22.531	4.6364	0.1	496.66
29822	22.623	4.5455	0.1	552.83
29823	22.531	4.8182	0.1	408.9
29824	22.623	4.7273	0.1	449.11
29825	22.531	5.	0.1	333.69
29826	22.623	4.9091	0.1	363.25
29827	22.531	5.1818	0.1	269.34
29828	22.623	5.0909	0.1	290.23
29829	22.531	5.3636	0.1	214.43
29830	22.623	5.2727	0.1	227.
29831	22.531	5.5455	0.1	169.18
29832	22.623	5.4545	0.1	172.39
29833	22.531	5.7273	0.1	135.5
29834	22.623	5.6364	0.1	127.1
29835	22.623	5.8182	0.1	95.228
29836	22.531	5.9091	0.1	114.46
29837	22.715	0.27273	0.1	91.422
29838	22.808	0.18182	0.1	48.353
29839	22.715	9.0909e-002	0.1	58.729
29840	22.715	0.45455	0.1	137.24
29841	22.808	0.36364	0.1	84.689
29842	22.715	0.63636	0.1	192.52
29843	22.808	0.54545	0.1	128.38
29844	22.715	0.81818	0.1	255.67
29845	22.808	0.72727	0.1	178.34
29846	22.715	1.	0.1	327.99
29847	22.808	0.90909	0.1	235.55
29848	22.715	1.1818	0.1	412.64
29849	22.808	1.0909	0.1	302.35
29850	22.715	1.3636	0.1	516.27
29851	22.808	1.2727	0.1	382.89
29852	22.715	1.5455	0.1	651.21
29853	22.808	1.4545	0.1	487.43
29854	22.715	1.7273	0.1	841.67
29855	22.808	1.6364	0.1	625.39
29856	22.715	1.9091	0.1	991.26
29857	22.808	1.8182	0.1	904.34
29858	22.715	2.0909	0.1	932.87
29859	22.808	2.	0.1	1464.5
29860	22.715	2.2727	0.1	771.88
29861	22.808	2.1818	0.1	955.51
29862	22.715	2.4545	0.1	651.7
29863	22.808	2.3636	0.1	702.6
29864	22.715	2.6364	0.1	591.19
29865	22.808	2.5455	0.1	605.66
29866	22.715	2.8182	0.1	561.68
29867	22.808	2.7273	0.1	556.83
29868	22.715	3.	0.1	552.6
29869	22.808	2.9091	0.1	535.84
29870	22.715	3.1818	0.1	561.68
29871	22.808	3.0909	0.1	535.84
29872	22.715	3.3636	0.1	591.19
29873	22.808	3.2727	0.1	556.83
29874	22.715	3.5455	0.1	651.7
29875	22.808	3.4545	0.1	605.66
29876	22.715	3.7273	0.1	771.88
29877	22.808	3.6364	0.1	702.6
29878	22.715	3.9091	0.1	932.87
29879	22.808	3.8182	0.1	955.51
29880	22.715	4.0909	0.1	991.26
29881	22.808	4.	0.1	1464.5
29882	22.715	4.2727	0.1	841.67
29883	22.808	4.1818	0.1	904.34
29884	22.715	4.4545	0.1	651.21
29885	22.808	4.3636	0.1	625.39
29886	22.715	4.6364	0.1	516.27
29887	22.808	4.5455	0.1	487.43
29888	22.715	4.8182	0.1	412.64
29889	22.808	4.7273	0.1	382.89
29890	22.715	5.	0.1	327.99
29891	22.808	4.9091	0.1	302.35
29892	22.715	5.1818	0.1	255.67
29893	22.808	5.0909	0.1	235.55
29894	22.715	5.3636	0.1	192.52
29895	22.808	5.2727	0.1	178.34
29896	22.715	5.5455	0.1	137.24
29897	22.808	5.4545	0.1	128.38
29898	22.715	5.7273	0.1	91.422
29899	22.808	5.6364	0.1	84.689
29900	22.808	5.8182	0.1	48.353
29901	22.715	5.9091	0.1	58.729
29902	23.3	4.	0.1	656.53
29903	23.144	4.	0.1	1201.2
29904	23.456	4.	0.1	487.39
29905	23.611	4.	0.1	398.74
29906	23.767	4.	0.1	358.9
29907	23.922	4.	0.1	308.52
29908	23.767	2.	0.1	358.9
29909	23.922	2.	0.1	308.52
29910	23.611	2.	0.1	398.74
29911	23.456	2.	0.1	487.39
29912	23.3	2.	0.1	656.53
29913	23.144	2.	0.1	1201.2
29914	22.9	3.7273	0.1	908.37
29915	22.9	3.9091	0.1	1456.5
29916	22.9	3.5455	0.1	660.74
29917	22.9	3.3636	0.1	572.08
29918	22.9	3.1818	0.1	530.62
29919	22.9	3.	0.1	518.4
29920	22.9	2.8182	0.1	530.62
29921	22.9	2.6364	0.1	572.08
29922	22.9	2.4545	0.1	660.74
29923	22.9	2.2727	0.1	908.37
29924	22.9	2.0909	0.1	1456.5
29925	23.067	5.7273	0.1	24.806
29926	23.067	5.9091	0.1	7.9849
29927	23.067	5.8182	5.e-002	1.9978
29928	23.067	5.5455	0.1	45.042
29929	23.067	5.6364	5.e-002	4.9054
29930	23.067	5.3636	0.1	70.314
29931	23.067	5.4545	5.e-002	7.4408
29932	23.067	5.1818	0.1	102.33
29933	23.067	5.2727	5.e-002	10.18
29934	23.067	5.	0.1	142.54
29935	23.067	5.0909	5.e-002	13.333
29936	23.067	4.8182	0.1	192.94
29937	23.067	4.9091	5.e-002	17.276
29938	23.067	4.6364	0.1	258.3
29939	23.067	4.7273	5.e-002	22.561
29940	23.067	4.4545	0.1	344.91
29941	23.067	4.5455	5.e-002	31.129
29942	23.067	4.2727	0.1	500.96
29943	23.067	4.3636	5.e-002	42.54
29944	23.067	4.0909	0.1	1002.2
29945	23.067	4.1818	5.e-002	101.86
29946	22.983	4.	0.1	1266.
29947	23.067	4.	5.e-002	342.78
29948	22.9	4.0909	0.1	1265.
29949	22.9	4.	5.e-002	517.17
29950	22.9	4.2727	0.1	742.76
29951	22.9	4.1818	5.e-002	384.78
29952	22.9	4.4545	0.1	496.77
29953	22.9	4.3636	5.e-002	259.63
29954	22.9	4.6364	0.1	382.6
29955	22.9	4.5455	5.e-002	198.2
29956	22.9	4.8182	0.1	296.79
29957	22.9	4.7273	5.e-002	159.8
29958	22.9	5.	0.1	230.27
29959	22.9	4.9091	5.e-002	128.89
29960	22.9	5.1818	0.1	175.32
29961	22.9	5.0909	5.e-002	102.73
29962	22.9	5.3636	0.1	128.6
29963	22.9	5.2727	5.e-002	79.469
29964	22.9	5.5455	0.1	88.19
29965	22.9	5.4545	5.e-002	58.141
29966	22.9	5.7273	0.1	52.418
29967	22.9	5.6364	5.e-002	38.132
29968	22.9	5.9091	0.1	18.363
29969	22.9	5.8182	5.e-002	18.548
29970	23.067	0.27273	0.1	24.806
29971	23.067	9.0909e-002	0.1	7.9848
29972	23.067	0.18182	5.e-002	1.9978
29973	23.067	0.45455	0.1	45.042
29974	23.067	0.36364	5.e-002	4.9054
29975	23.067	0.63636	0.1	70.314
29976	23.067	0.54545	5.e-002	7.4408
29977	23.067	0.81818	0.1	102.33
29978	23.067	0.72727	5.e-002	10.18
29979	23.067	1.	0.1	142.54
29980	23.067	0.90909	5.e-002	13.333
29981	23.067	1.1818	0.1	192.94
29982	23.067	1.0909	5.e-002	17.276
29983	23.067	1.3636	0.1	258.3
29984	23.067	1.2727	5.e-002	22.561
29985	23.067	1.5455	0.1	344.91
29986	23.067	1.4545	5.e-002	31.129
29987	23.067	1.7273	0.1	500.96
29988	23.067	1.6364	5.e-002	42.54
29989	23.067	1.9091	0.1	1002.2
29990	23.067	1.8182	5.e-002	101.86
29991	22.983	2.	0.1	1266.
29992	23.067	2.	5.e-002	342.78
29993	22.9	1.9091	0.1	1265.
29994	22.9	2.	5.e-002	517.17
29995	22.9	1.7273	0.1	742.76
29996	22.9	1.8182	5.e-002	384.78
29997	22.9	1.5455	0.1	496.77
29998	22.9	1.6364	5.e-002	259.63
29999	22.9	1.3636	0.1	382.6
30000	22.9	1.4545	5.e-002	198.2
30001	22.9	1.1818	0.1	296.79
30002	22.9	1.2727	5.e-002	159.8
30003	22.9	1.	0.1	230.27
30004	22.9	1.0909	5.e-002	128.89
30005	22.9	0.81818	0.1	175.32
30006	22.9	0.90909	5.e-002	102.73
30007	22.9	0.63636	0.1	128.6
30008	22.9	0.72727	5.e-002	79.469
30009	22.9	0.45455	0.1	88.19
30010	22.9	0.54545	5.e-002	58.141
30011	22.9	0.27273	0.1	52.418
30012	22.9	0.36364	5.e-002	38.132
30013	22.9	9.0909e-002	0.1	18.363
30014	22.9	0.18182	5.e-002	18.548
30015	23.144	6.	0.1	5.7302
30016	23.067	6.	5.e-002	1.4335
30017	23.3	6.	0.1	15.446
30018	23.222	6.	5.e-002	3.666
30019	23.456	6.	0.1	21.401
30020	23.378	6.	5.e-002	7.5501
30021	23.611	6.	0.1	23.544
30022	23.533	6.	5.e-002	10.208
30023	23.767	6.	0.1	21.495
30024	23.689	6.	5.e-002	11.452
30025	23.922	6.	0.1	12.813
30026	23.844	6.	5.e-002	9.942
30027	24.	5.9091	0.1	15.838
30028	24.	6.	5.e-002	6.1735
30029	24.	5.7273	0.1	32.122
30030	24.	5.8182	5.e-002	11.247
30031	24.	5.5455	0.1	44.064
30032	24.	5.6364	5.e-002	22.515
30033	24.	5.3636	0.1	60.017
30034	24.	5.4545	5.e-002	33.287
30035	24.	5.1818	0.1	83.861
30036	24.	5.2727	5.e-002	43.9
30037	24.	5.	0.1	115.51
30038	24.	5.0909	5.e-002	54.251
30039	24.	4.8182	0.1	153.45
30040	24.	4.9091	5.e-002	64.162
30041	24.	4.6364	0.1	194.97
30042	24.	4.7273	5.e-002	73.346
30043	24.	4.4545	0.1	235.47
30044	24.	4.5455	5.e-002	81.361
30045	24.	4.2727	0.1	267.76
30046	24.	4.3636	5.e-002	87.547
30047	24.	4.0909	0.1	283.34
30048	24.	4.1818	5.e-002	90.903
30049	24.	3.9091	0.1	276.39
30050	24.	4.	5.e-002	90.036
30051	24.	3.7273	0.1	247.88
30052	24.	3.8182	5.e-002	83.626
30053	24.	3.5455	0.1	205.81
30054	24.	3.6364	5.e-002	71.382
30055	24.	3.3636	0.1	161.4
30056	24.	3.4545	5.e-002	54.484
30057	24.	3.1818	0.1	126.14
30058	24.	3.2727	5.e-002	35.005
30059	24.	3.	0.1	112.08
30060	24.	3.0909	5.e-002	16.396
30061	24.	2.8182	0.1	126.14
30062	24.	2.9091	5.e-002	16.396
30063	24.	2.6364	0.1	161.4
30064	24.	2.7273	5.e-002	35.005
30065	24.	2.4545	0.1	205.81
30066	24.	2.5455	5.e-002	54.484
30067	24.	2.2727	0.1	247.88
30068	24.	2.3636	5.e-002	71.382
30069	24.	2.0909	0.1	276.39
30070	24.	2.1818	5.e-002	83.626
30071	24.	1.9091	0.1	283.34
30072	24.	2.	5.e-002	90.036
30073	24.	1.7273	0.1	267.76
30074	24.	1.8182	5.e-002	90.903
30075	24.	1.5455	0.1	235.47
30076	24.	1.6364	5.e-002	87.547
30077	24.	1.3636	0.1	194.97
30078	24.	1.4545	5.e-002	81.361
30079	24.	1.1818	0.1	153.45
30080	24.	1.2727	5.e-002	73.346
30081	24.	1.	0.1	115.51
30082	24.	1.0909	5.e-002	64.162
30083	24.	0.81818	0.1	83.861
30084	24.	0.90909	5.e-002	54.251
30085	24.	0.63636	0.1	60.017
30086	24.	0.72727	5.e-002	43.9
30087	24.	0.45455	0.1	44.064
30088	24.	0.54545	5.e-002	33.287
30089	24.	0.27273	0.1	32.122
30090	24.	0.36364	5.e-002	22.515
30091	24.	9.0909e-002	0.1	15.838
30092	24.	0.18182	5.e-002	11.247
30093	2.3842e-015	0.27273	0.1	1830.1
30094	7.9472e-016	9.0909e-002	0.1	1395.6
30095	1.6109e-015	0.18182	5.e-002	166.15
30096	3.9736e-015	0.45455	0.1	2620.7
30097	3.2219e-015	0.36364	5.e-002	85.78
30098	5.563e-015	0.63636	0.1	3045.1
30099	4.8328e-015	0.54545	5.e-002	77.373
30100	7.1525e-015	0.81818	0.1	3319.1
30101	6.4438e-015	0.72727	5.e-002	67.923
30102	8.7419e-015	1.	0.1	3507.
30103	8.0547e-015	0.90909	5.e-002	57.69
30104	1.0331e-014	1.1818	0.1	3643.2
30105	9.6657e-015	1.0909	5.e-002	48.876
30106	1.1921e-014	1.3636	0.1	3745.
30107	1.1277e-014	1.2727	5.e-002	41.728
30108	1.351e-014	1.5455	0.1	3822.7
30109	1.2888e-014	1.4545	5.e-002	35.921
30110	1.51e-014	1.7273	0.1	3882.7
30111	1.4498e-014	1.6364	5.e-002	31.218
30112	1.6689e-014	1.9091	0.1	3929.2
30113	1.6109e-014	1.8182	5.e-002	27.425
30114	1.8279e-014	2.0909	0.1	3965.1
30115	1.772e-014	2.	5.e-002	24.392
30116	1.9868e-014	2.2727	0.1	3992.3
30117	1.9331e-014	2.1818	5.e-002	22.007
30118	2.1457e-014	2.4545	0.1	4012.3
30119	2.0942e-014	2.3636	5.e-002	20.185
30120	2.3047e-014	2.6364	0.1	4025.9
30121	2.2553e-014	2.5455	5.e-002	18.867
30122	2.4636e-014	2.8182	0.1	4033.9
30123	2.4164e-014	2.7273	5.e-002	18.01
30124	2.6226e-014	3.	0.1	4036.5
30125	2.5775e-014	2.9091	5.e-002	17.587
30126	2.7815e-014	3.1818	0.1	4033.9
30127	2.7386e-014	3.0909	5.e-002	17.587
30128	2.9405e-014	3.3636	0.1	4025.9
30129	2.8997e-014	3.2727	5.e-002	18.01
30130	3.0994e-014	3.5455	0.1	4012.3
30131	3.0608e-014	3.4545	5.e-002	18.867
30132	3.2583e-014	3.7273	0.1	3992.3
30133	3.2219e-014	3.6364	5.e-002	20.185
30134	3.4173e-014	3.9091	0.1	3965.1
30135	3.383e-014	3.8182	5.e-002	22.007
30136	3.5762e-014	4.0909	0.1	3929.2
30137	3.5441e-014	4.	5.e-002	24.392
30138	3.7352e-014	4.2727	0.1	3882.7
30139	3.7052e-014	4.1818	5.e-002	27.425
30140	3.8941e-014	4.4545	0.1	3822.7
30141	3.8663e-014	4.3636	5.e-002	31.218
30142	4.0531e-014	4.6364	0.1	3745.
30143	4.0274e-014	4.5455	5.e-002	35.921
30144	4.212e-014	4.8182	0.1	3643.2
30145	4.1885e-014	4.7273	5.e-002	41.728
30146	4.371e-014	5.	0.1	3507.
30147	4.3495e-014	4.9091	5.e-002	48.876
30148	4.5299e-014	5.1818	0.1	3319.1
30149	4.5106e-014	5.0909	5.e-002	57.69
30150	4.6888e-014	5.3636	0.1	3045.1
30151	4.6717e-014	5.2727	5.e-002	67.923
30152	4.8478e-014	5.5455	0.1	2620.7
30153	4.8328e-014	5.4545	5.e-002	77.373
30154	5.0067e-014	5.7273	0.1	1830.1
30155	4.9939e-014	5.6364	5.e-002	85.78
30156	5.1657e-014	5.9091	0.1	1395.6
30157	5.155e-014	5.8182	5.e-002	166.15
30158	23.922	0.	0.1	12.813
30159	24.	0.	5.e-002	6.1735
30160	23.767	0.	0.1	21.495
30161	23.844	0.	5.e-002	9.942
30162	23.611	0.	0.1	23.544
30163	23.689	0.	5.e-002	11.452
30164	23.456	0.	0.1	21.401
30165	23.533	0.	5.e-002	10.208
30166	23.3	0.	0.1	15.446
30167	23.378	0.	5.e-002	7.5501
30168	23.144	0.	0.1	5.7302
30169	23.222	0.	5.e-002	3.666
30170	23.067	0.	5.e-002	1.4335
30171	22.808	1.4983e-029	0.1	26.075
30172	22.9	1.5043e-029	5.e-002	4.3233
30173	22.623	1.4862e-029	0.1	79.35
30174	22.715	0.	5.e-002	3.8716
30175	22.438	1.474e-029	0.1	137.99
30176	22.531	0.	5.e-002	5.2328
30177	22.254	1.4619e-029	0.1	197.27
30178	22.346	0.	5.e-002	9.5452
30179	22.069	1.4498e-029	0.1	256.58
30180	22.161	0.	5.e-002	15.1
30181	21.884	1.4376e-029	0.1	315.11
30182	21.977	0.	5.e-002	21.434
30183	21.7	1.4255e-029	0.1	372.27
30184	21.792	0.	5.e-002	28.119
30185	21.515	1.4134e-029	0.1	427.78
30186	21.607	0.	5.e-002	34.863
30187	21.33	1.4012e-029	0.1	481.51
30188	21.423	0.	5.e-002	41.458
30189	21.146	1.3891e-029	0.1	533.54
30190	21.238	0.	5.e-002	47.767
30191	20.961	1.377e-029	0.1	583.99
30192	21.053	0.	5.e-002	53.71
30193	20.776	1.3648e-029	0.1	633.05
30194	20.869	0.	5.e-002	59.249
30195	20.592	1.3527e-029	0.1	680.93
30196	20.684	0.	5.e-002	64.374
30197	20.407	1.3406e-029	0.1	727.82
30198	20.499	0.	5.e-002	69.096
30199	20.222	1.3284e-029	0.1	773.91
30200	20.315	0.	5.e-002	73.436
30201	20.038	1.3163e-029	0.1	819.35
30202	20.13	0.	5.e-002	77.42
30203	19.853	1.3042e-029	0.1	864.29
30204	19.945	0.	5.e-002	81.079
30205	19.668	1.292e-029	0.1	908.84
30206	19.76	0.	5.e-002	84.443
30207	19.483	1.2799e-029	0.1	953.1
30208	19.576	0.	5.e-002	87.539
30209	19.299	1.2678e-029	0.1	997.16
30210	19.391	0.	5.e-002	90.395
30211	19.114	1.2556e-029	0.1	1041.1
30212	19.206	0.	5.e-002	93.034
30213	18.929	1.2435e-029	0.1	1084.9
30214	19.022	0.	5.e-002	95.479
30215	18.745	1.2314e-029	0.1	1128.7
30216	18.837	0.	5.e-002	97.749
30217	18.56	1.2193e-029	0.1	1172.5
30218	18.652	0.	5.e-002	99.862
30219	18.375	1.2071e-029	0.1	1216.4
30220	18.468	0.	5.e-002	101.83
30221	18.191	1.195e-029	0.1	1260.2
30222	18.283	0.	5.e-002	103.67
30223	18.006	1.1829e-029	0.1	1304.2
30224	18.098	0.	5.e-002	105.4
30225	17.821	1.1707e-029	0.1	1348.3
30226	17.914	0.	5.e-002	107.02
30227	17.637	1.1586e-029	0.1	1392.5
30228	17.729	0.	5.e-002	108.54
30229	17.452	1.1465e-029	0.1	1436.8
30230	17.544	0.	5.e-002	109.97
30231	17.267	1.1343e-029	0.1	1481.2
30232	17.36	0.	5.e-002	111.32
30233	17.083	1.1222e-029	0.1	1525.8
30234	17.175	0.	5.e-002	112.6
30235	16.898	1.1101e-029	0.1	1570.6
30236	16.99	0.	5.e-002	113.81
30237	16.713	1.0979e-029	0.1	1615.5
30238	16.806	0.	5.e-002	114.96
30239	16.529	1.0858e-029	0.1	1660.5
30240	16.621	0.	5.e-002	116.04
30241	16.344	1.0737e-029	0.1	1705.8
30242	16.436	0.	5.e-002	117.07
30243	16.159	1.0615e-029	0.1	1751.2
30244	16.252	0.	5.e-002	118.05
30245	15.975	1.0494e-029	0.1	1796.8
30246	16.067	0.	5.e-002	118.98
30247	15.79	1.0373e-029	0.1	1842.5
30248	15.882	0.	5.e-002	119.86
30249	15.605	1.0251e-029	0.1	1888.5
30250	15.698	0.	5.e-002	120.7
30251	15.421	1.013e-029	0.1	1934.6
30252	15.513	0.	5.e-002	121.5
30253	15.236	1.0009e-029	0.1	1980.9
30254	15.328	0.	5.e-002	122.26
30255	15.051	9.8875e-030	0.1	2027.4
30256	15.144	0.	5.e-002	122.98
30257	14.867	9.7661e-030	0.1	2074.1
30258	14.959	0.	5.e-002	123.66
30259	14.682	9.6448e-030	0.1	2121.
30260	14.774	0.	5.e-002	124.31
30261	14.497	9.5235e-030	0.1	2168.1
30262	14.59	0.	5.e-002	124.92
30263	14.312	9.4022e-030	0.1	2215.4
30264	14.405	0.	5.e-002	125.49
30265	14.128	9.2809e-030	0.1	2262.9
30266	14.22	0.	5.e-002	126.03
30267	13.943	9.1595e-030	0.1	2310.6
30268	14.035	0.	5.e-002	126.54
30269	13.758	9.0382e-030	0.1	2358.4
30270	13.851	0.	5.e-002	127.01
30271	13.574	8.9169e-030	0.1	2406.5
30272	13.666	0.	5.e-002	127.44
30273	13.389	8.7956e-030	0.1	2454.8
30274	13.481	0.	5.e-002	127.84
30275	13.204	8.6743e-030	0.1	2503.3
30276	13.297	0.	5.e-002	128.2
30277	13.02	8.5529e-030	0.1	2552.
30278	13.112	0.	5.e-002	128.52
30279	12.835	8.4316e-030	0.1	2601.
30280	12.927	0.	5.e-002	128.8
30281	12.65	8.3103e-030	0.1	2650.1
30282	12.743	0.	5.e-002	129.04
30283	12.466	8.189e-030	0.1	2699.5
30284	12.558	0.	5.e-002	129.23
30285	12.281	8.0677e-030	0.1	2749.
30286	12.373	0.	5.e-002	129.38
30287	12.096	7.9464e-030	0.1	2798.8
30288	12.189	0.	5.e-002	129.48
30289	11.912	7.825e-030	0.1	2848.8
30290	12.004	0.	5.e-002	129.53
30291	11.727	7.7037e-030	0.1	2899.
30292	11.819	0.	5.e-002	129.52
30293	11.542	7.5824e-030	0.1	2949.5
30294	11.635	0.	5.e-002	129.45
30295	11.358	7.4611e-030	0.1	3000.1
30296	11.45	0.	5.e-002	129.32
30297	11.173	7.3398e-030	0.1	3051.
30298	11.265	0.	5.e-002	129.12
30299	10.988	7.2184e-030	0.1	3102.2
30300	11.081	0.	5.e-002	128.84
30301	10.804	7.0971e-030	0.1	3153.6
30302	10.896	0.	5.e-002	128.49
30303	10.619	6.9758e-030	0.1	3205.2
30304	10.711	0.	5.e-002	128.06
30305	10.434	6.8545e-030	0.1	3257.
30306	10.527	0.	5.e-002	127.54
30307	10.25	6.7332e-030	0.1	3309.1
30308	10.342	0.	5.e-002	126.92
30309	10.065	6.6119e-030	0.1	3361.5
30310	10.157	0.	5.e-002	126.19
30311	9.8802	6.4905e-030	0.1	3414.1
30312	9.9726	0.	5.e-002	125.36
30313	9.6956	6.3692e-030	0.1	3466.9
30314	9.7879	0.	5.e-002	124.4
30315	9.5109	6.2479e-030	0.1	3520.1
30316	9.6032	0.	5.e-002	123.3
30317	9.3262	6.1266e-030	0.1	3573.5
30318	9.4185	0.	5.e-002	122.07
30319	9.1415	6.0053e-030	0.1	3627.1
30320	9.2339	0.	5.e-002	120.68
30321	8.9569	5.8839e-030	0.1	3681.1
30322	9.0492	0.	5.e-002	119.13
30323	8.7722	5.7626e-030	0.1	3735.4
30324	8.8645	0.	5.e-002	117.4
30325	8.5875	5.6413e-030	0.1	3789.9
30326	8.6798	0.	5.e-002	115.47
30327	8.4028	5.52e-030	0.1	3844.8
30328	8.4952	0.	5.e-002	113.33
30329	8.2181	5.3987e-030	0.1	3900.
30330	8.3105	0.	5.e-002	110.97
30331	8.0335	5.2774e-030	0.1	3955.5
30332	8.1258	0.	5.e-002	108.36
30333	7.8488	5.156e-030	0.1	4011.4
30334	7.9411	0.	5.e-002	105.48
30335	7.6641	5.0347e-030	0.1	4067.6
30336	7.7565	0.	5.e-002	102.31
30337	7.4794	4.9134e-030	0.1	4124.2
30338	7.5718	0.	5.e-002	98.836
30339	7.2948	4.7921e-030	0.1	4181.2
30340	7.3871	0.	5.e-002	95.02
30341	7.1101	4.6708e-030	0.1	4238.6
30342	7.2024	0.	5.e-002	90.839
30343	6.9254	4.5494e-030	0.1	4296.4
30344	7.0177	0.	5.e-002	86.263
30345	6.7407	4.4281e-030	0.1	4354.6
30346	6.8331	0.	5.e-002	81.26
30347	6.556	4.3068e-030	0.1	4413.3
30348	6.6484	0.	5.e-002	75.795
30349	6.3714	4.1855e-030	0.1	4472.4
30350	6.4637	0.	5.e-002	69.83
30351	6.1867	4.0642e-030	0.1	4532.1
30352	6.279	0.	5.e-002	63.327
30353	6.002	3.9428e-030	0.1	4592.2
30354	6.0944	0.	5.e-002	56.241
30355	5.8173	3.8215e-030	0.1	4652.9
30356	5.9097	0.	5.e-002	48.528
30357	5.6327	3.7002e-030	0.1	4714.2
30358	5.725	0.	5.e-002	40.14
30359	5.448	3.5789e-030	0.1	4776.
30360	5.5403	0.	5.e-002	31.032
30361	5.2633	3.4576e-030	0.1	4838.4
30362	5.3556	0.	5.e-002	21.173
30363	5.0786	3.3363e-030	0.1	4901.4
30364	5.171	0.	5.e-002	10.65
30365	4.894	3.2149e-030	0.1	4965.1
30366	4.9863	0.	5.e-002	3.8032
30367	4.7093	3.0936e-030	0.1	5029.4
30368	4.8016	0.	5.e-002	14.799
30369	4.5246	2.9723e-030	0.1	5094.3
30370	4.6169	0.	5.e-002	28.43
30371	4.3399	2.851e-030	0.1	5159.8
30372	4.4323	0.	5.e-002	43.353
30373	4.1552	2.7297e-030	0.1	5225.9
30374	4.2476	0.	5.e-002	59.572
30375	3.9706	2.6083e-030	0.1	5292.5
30376	4.0629	0.	5.e-002	77.167
30377	3.7859	2.487e-030	0.1	5359.6
30378	3.8782	0.	5.e-002	96.241
30379	3.6012	2.3657e-030	0.1	5426.9
30380	3.6935	0.	5.e-002	116.91
30381	3.4165	2.2444e-030	0.1	5494.4
30382	3.5089	0.	5.e-002	139.3
30383	3.2319	2.1231e-030	0.1	5561.8
30384	3.3242	0.	5.e-002	163.55
30385	3.0472	2.0018e-030	0.1	5628.7
30386	3.1395	0.	5.e-002	189.83
30387	2.8625	1.8804e-030	0.1	5694.8
30388	2.9548	0.	5.e-002	218.3
30389	2.6778	1.7591e-030	0.1	5759.4
30390	2.7702	0.	5.e-002	249.17
30391	2.4931	1.6378e-030	0.1	5821.7
30392	2.5855	0.	5.e-002	282.68
30393	2.3085	1.5165e-030	0.1	5880.6
30394	2.4008	0.	5.e-002	319.08
30395	2.1238	1.3952e-030	0.1	5934.8
30396	2.2161	0.	5.e-002	358.7
30397	1.9391	1.2738e-030	0.1	5982.
30398	2.0315	0.	5.e-002	401.91
30399	1.7544	1.1525e-030	0.1	6019.7
30400	1.8468	0.	5.e-002	449.19
30401	1.5698	1.0312e-030	0.1	6043.9
30402	1.6621	0.	5.e-002	501.14
30403	1.3851	9.0989e-031	0.1	6049.
30404	1.4774	0.	5.e-002	558.54
30405	1.2004	7.8857e-031	0.1	6026.4
30406	1.2927	0.	5.e-002	622.45
30407	1.0157	6.6725e-031	0.1	5962.8
30408	1.1081	0.	5.e-002	694.39
30409	0.83105	5.4593e-031	0.1	5835.8
30410	0.92339	0.	5.e-002	776.53
30411	0.64637	4.2461e-031	0.1	5603.5
30412	0.73871	0.	5.e-002	873.18
30413	0.46169	3.033e-031	0.1	5187.4
30414	0.55403	0.	5.e-002	990.24
30415	0.27702	1.8198e-031	0.1	4334.7
30416	0.36935	0.	5.e-002	1148.3
30417	9.2339e-002	6.0659e-032	0.1	2562.5
30418	0.18468	0.	5.e-002	1462.
30419	0.	0.	5.e-002	1938.2
30420	9.2339e-002	6.	0.1	2562.5
30421	5.2451e-014	6.	5.e-002	1938.2
30422	0.27702	6.	0.1	4334.7
30423	0.18468	6.	5.e-002	1462.
30424	0.46169	6.	0.1	5187.4
30425	0.36935	6.	5.e-002	1148.3
30426	0.64637	6.	0.1	5603.5
30427	0.55403	6.	5.e-002	990.24
30428	0.83105	6.	0.1	5835.8
30429	0.73871	6.	5.e-002	873.18
30430	1.0157	6.	0.1	5962.8
30431	0.92339	6.	5.e-002	776.53
30432	1.2004	6.	0.1	6026.4
30433	1.1081	6.	5.e-002	694.39
30434	1.3851	6.	0.1	6049.
30435	1.2927	6.	5.e-002	622.45
30436	1.5698	6.	0.1	6043.9
30437	1.4774	6.	5.e-002	558.54
30438	1.7544	6.	0.1	6019.7
30439	1.6621	6.	5.e-002	501.14
30440	1.9391	6.	0.1	5982.
30441	1.8468	6.	5.e-002	449.19
30442	2.1238	6.	0.1	5934.7
30443	2.0315	6.	5.e-002	401.91
30444	2.3085	6.	0.1	5880.6
30445	2.2161	6.	5.e-002	358.7
30446	2.4931	6.	0.1	5821.7
30447	2.4008	6.	5.e-002	319.08
30448	2.6778	6.	0.1	5759.4
30449	2.5855	6.	5.e-002	282.68
30450	2.8625	6.	0.1	5694.8
30451	2.7702	6.	5.e-002	249.17
30452	3.0472	6.	0.1	5628.7
30453	2.9548	6.	5.e-002	218.3
30454	3.2319	6.	0.1	5561.8
30455	3.1395	6.	5.e-002	189.83
30456	3.4165	6.	0.1	5494.4
30457	3.3242	6.	5.e-002	163.55
30458	3.6012	6.	0.1	5426.9
30459	3.5089	6.	5.e-002	139.3
30460	3.7859	6.	0.1	5359.6
30461	3.6935	6.	5.e-002	116.91
30462	3.9706	6.	0.1	5292.5
30463	3.8782	6.	5.e-002	96.241
30464	4.1552	6.	0.1	5225.9
30465	4.0629	6.	5.e-002	77.168
30466	4.3399	6.	0.1	5159.8
30467	4.2476	6.	5.e-002	59.572
30468	4.5246	6.	0.1	5094.3
30469	4.4323	6.	5.e-002	43.353
30470	4.7093	6.	0.1	5029.4
30471	4.6169	6.	5.e-002	28.43
30472	4.894	6.	0.1	4965.1
30473	4.8016	6.	5.e-002	14.799
30474	5.0786	6.	0.1	4901.4
30475	4.9863	6.	5.e-002	3.8032
30476	5.2633	6.	0.1	4838.4
30477	5.171	6.	5.e-002	10.65
30478	5.448	6.	0.1	4776.
30479	5.3556	6.	5.e-002	21.173
30480	5.6327	6.	0.1	4714.2
30481	5.5403	6.	5.e-002	31.032
30482	5.8173	6.	0.1	4652.9
30483	5.725	6.	5.e-002	40.14
30484	6.002	6.	0.1	4592.2
30485	5.9097	6.	5.e-002	48.528
30486	6.1867	6.	0.1	4532.1
30487	6.0944	6.	5.e-002	56.241
30488	6.3714	6.	0.1	4472.4
30489	6.279	6.	5.e-002	63.327
30490	6.556	6.	0.1	4413.3
30491	6.4637	6.	5.e-002	69.83
30492	6.7407	6.	0.1	4354.6
30493	6.6484	6.	5.e-002	75.794
30494	6.9254	6.	0.1	4296.4
30495	6.8331	6.	5.e-002	81.26
30496	7.1101	6.	0.1	4238.6
30497	7.0177	6.	5.e-002	86.263
30498	7.2948	6.	0.1	4181.2
30499	7.2024	6.	5.e-002	90.839
30500	7.4794	6.	0.1	4124.2
30501	7.3871	6.	5.e-002	95.02
30502	7.6641	6.	0.1	4067.6
30503	7.5718	6.	5.e-002	98.836
30504	7.8488	6.	0.1	4011.4
30505	7.7565	6.	5.e-002	102.31
30506	8.0335	6.	0.1	3955.5
30507	7.9411	6.	5.e-002	105.48
30508	8.2181	6.	0.1	3900.
30509	8.1258	6.	5.e-002	108.36
30510	8.4028	6.	0.1	3844.8
30511	8.3105	6.	5.e-002	110.97
30512	8.5875	6.	0.1	3789.9
30513	8.4952	6.	5.e-002	113.33
30514	8.7722	6.	0.1	3735.4
30515	8.6798	6.	5.e-002	115.47
30516	8.9569	6.	0.1	3681.1
30517	8.8645	6.	5.e-002	117.4
30518	9.1415	6.	0.1	3627.1
30519	9.0492	6.	5.e-002	119.13
30520	9.3262	6.	0.1	3573.5
30521	9.2339	6.	5.e-002	120.68
30522	9.5109	6.	0.1	3520.1
30523	9.4185	6.	5.e-002	122.07
30524	9.6956	6.	0.1	3466.9
30525	9.6032	6.	5.e-002	123.3
30526	9.8802	6.	0.1	3414.1
30527	9.7879	6.	5.e-002	124.4
30528	10.065	6.	0.1	3361.5
30529	9.9726	6.	5.e-002	125.36
30530	10.25	6.	0.1	3309.1
30531	10.157	6.	5.e-002	126.19
30532	10.434	6.	0.1	3257.
30533	10.342	6.	5.e-002	126.92
30534	10.619	6.	0.1	3205.2
30535	10.527	6.	5.e-002	127.54
30536	10.804	6.	0.1	3153.6
30537	10.711	6.	5.e-002	128.06
30538	10.988	6.	0.1	3102.2
30539	10.896	6.	5.e-002	128.49
30540	11.173	6.	0.1	3051.
30541	11.081	6.	5.e-002	128.84
30542	11.358	6.	0.1	3000.1
30543	11.265	6.	5.e-002	129.12
30544	11.542	6.	0.1	2949.5
30545	11.45	6.	5.e-002	129.32
30546	11.727	6.	0.1	2899.
30547	11.635	6.	5.e-002	129.45
30548	11.912	6.	0.1	2848.8
30549	11.819	6.	5.e-002	129.52
30550	12.096	6.	0.1	2798.8
30551	12.004	6.	5.e-002	129.53
30552	12.281	6.	0.1	2749.
30553	12.189	6.	5.e-002	129.48
30554	12.466	6.	0.1	2699.5
30555	12.373	6.	5.e-002	129.38
30556	12.65	6.	0.1	2650.1
30557	12.558	6.	5.e-002	129.23
30558	12.835	6.	0.1	2601.
30559	12.743	6.	5.e-002	129.04
30560	13.02	6.	0.1	2552.
30561	12.927	6.	5.e-002	128.8
30562	13.204	6.	0.1	2503.3
30563	13.112	6.	5.e-002	128.52
30564	13.389	6.	0.1	2454.8
30565	13.297	6.	5.e-002	128.2
30566	13.574	6.	0.1	2406.5
30567	13.481	6.	5.e-002	127.84
30568	13.758	6.	0.1	2358.4
30569	13.666	6.	5.e-002	127.44
30570	13.943	6.	0.1	2310.6
30571	13.851	6.	5.e-002	127.01
30572	14.128	6.	0.1	2262.9
30573	14.035	6.	5.e-002	126.54
30574	14.312	6.	0.1	2215.4
30575	14.22	6.	5.e-002	126.03
30576	14.497	6.	0.1	2168.1
30577	14.405	6.	5.e-002	125.49
30578	14.682	6.	0.1	2121.
30579	14.59	6.	5.e-002	124.92
30580	14.867	6.	0.1	2074.1
30581	14.774	6.	5.e-002	124.31
30582	15.051	6.	0.1	2027.4
30583	14.959	6.	5.e-002	123.66
30584	15.236	6.	0.1	1980.9
30585	15.144	6.	5.e-002	122.98
30586	15.421	6.	0.1	1934.6
30587	15.328	6.	5.e-002	122.26
30588	15.605	6.	0.1	1888.5
30589	15.513	6.	5.e-002	121.5
30590	15.79	6.	0.1	1842.5
30591	15.698	6.	5.e-002	120.7
30592	15.975	6.	0.1	1796.8
30593	15.882	6.	5.e-002	119.86
30594	16.159	6.	0.1	1751.2
30595	16.067	6.	5.e-002	118.98
30596	16.344	6.	0.1	1705.8
30597	16.252	6.	5.e-002	118.05
30598	16.529	6.	0.1	1660.5
30599	16.436	6.	5.e-002	117.07
30600	16.713	6.	0.1	1615.5
30601	16.621	6.	5.e-002	116.04
30602	16.898	6.	0.1	1570.6
30603	16.806	6.	5.e-002	114.96
30604	17.083	6.	0.1	1525.8
30605	16.99	6.	5.e-002	113.81
30606	17.267	6.	0.1	1481.2
30607	17.175	6.	5.e-002	112.6
30608	17.452	6.	0.1	1436.8
30609	17.36	6.	5.e-002	111.32
30610	17.637	6.	0.1	1392.5
30611	17.544	6.	5.e-002	109.97
30612	17.821	6.	0.1	1348.3
30613	17.729	6.	5.e-002	108.54
30614	18.006	6.	0.1	1304.2
30615	17.914	6.	5.e-002	107.02
30616	18.191	6.	0.1	1260.2
30617	18.098	6.	5.e-002	105.4
30618	18.375	6.	0.1	1216.4
30619	18.283	6.	5.e-002	103.67
30620	18.56	6.	0.1	1172.5
30621	18.468	6.	5.e-002	101.83
30622	18.745	6.	0.1	1128.7
30623	18.652	6.	5.e-002	99.862
30624	18.929	6.	0.1	1084.9
30625	18.837	6.	5.e-002	97.749
30626	19.114	6.	0.1	1041.1
30627	19.022	6.	5.e-002	95.479
30628	19.299	6.	0.1	997.16
30629	19.206	6.	5.e-002	93.034
30630	19.483	6.	0.1	953.1
30631	19.391	6.	5.e-002	90.395
30632	19.668	6.	0.1	908.84
30633	19.576	6.	5.e-002	87.539
30634	19.853	6.	0.1	864.29
30635	19.76	6.	5.e-002	84.443
30636	20.038	6.	0.1	819.35
30637	19.945	6.	5.e-002	81.079
30638	20.222	6.	0.1	773.91
30639	20.13	6.	5.e-002	77.42
30640	20.407	6.	0.1	727.82
30641	20.315	6.	5.e-002	73.436
30642	20.592	6.	0.1	680.93
30643	20.499	6.	5.e-002	69.096
30644	20.776	6.	0.1	633.05
30645	20.684	6.	5.e-002	64.374
30646	20.961	6.	0.1	583.99
30647	20.869	6.	5.e-002	59.249
30648	21.146	6.	0.1	533.54
30649	21.053	6.	5.e-002	53.71
30650	21.33	6.	0.1	481.51
30651	21.238	6.	5.e-002	47.766
30652	21.515	6.	0.1	427.78
30653	21.423	6.	5.e-002	41.458
30654	21.7	6.	0.1	372.27
30655	21.607	6.	5.e-002	34.863
30656	21.884	6.	0.1	315.11
30657	21.792	6.	5.e-002	28.119
30658	22.069	6.	0.1	256.58
30659	21.977	6.	5.e-002	21.434
30660	22.254	6.	0.1	197.27
30661	22.161	6.	5.e-002	15.1
30662	22.438	6.	0.1	137.99
30663	22.346	6.	5.e-002	9.5452
30664	22.623	6.	0.1	79.35
30665	22.531	6.	5.e-002	5.2328
30666	22.808	6.	0.1	26.075
30667	22.715	6.	5.e-002	3.8716
30668	22.9	6.	5.e-002	4.3233
30669	22.623	6.	0.	79.35
30670	22.808	6.	0.	26.075
30671	22.438	6.	0.	137.99
30672	22.254	6.	0.	197.27
30673	22.069	6.	0.	256.58
30674	21.884	6.	0.	315.11
30675	21.7	6.	0.	372.27
30676	21.515	6.	0.	427.78
30677	21.33	6.	0.	481.51
30678	21.146	6.	0.	533.54
30679	20.961	6.	0.	583.99
30680	20.776	6.	0.	633.05
30681	20.592	6.	0.	680.93
30682	20.407	6.	0.	727.82
30683	20.222	6.	0.	773.91
30684	20.038	6.	0.	819.35
30685	19.853	6.	0.	864.29
30686	19.668	6.	0.	908.84
30687	19.483	6.	0.	953.1
30688	19.299	6.	0.	997.16
30689	19.114	6.	0.	1041.1
30690	18.929	6.	0.	1084.9
30691	18.745	6.	0.	1128.7
30692	18.56	6.	0.	1172.5
30693	18.375	6.	0.	1216.4
30694	18.191	6.	0.	1260.2
30695	18.006	6.	0.	1304.2
30696	17.821	6.	0.	1348.3
30697	17.637	6.	0.	1392.5
30698	17.452	6.	0.	1436.8
30699	17.267	6.	0.	1481.2
30700	17.083	6.	0.	1525.8
30701	16.898	6.	0.	1570.6
30702	16.713	6.	0.	1615.5
30703	16.529	6.	0.	1660.5
30704	16.344	6.	0.	1705.8
30705	16.159	6.	0.	1751.2
30706	15.975	6.	0.	1796.8
30707	15.79	6.	0.	1842.5
30708	15.605	6.	0.	1888.5
30709	15.421	6.	0.	1934.6
30710	15.236	6.	0.	1980.9
30711	15.051	6.	0.	2027.4
30712	14.867	6.	0.	2074.1
30713	14.682	6.	0.	2121.
30714	14.497	6.	0.	2168.1
30715	14.312	6.	0.	2215.4
30716	14.128	6.	0.	2262.9
30717	13.943	6.	0.	2310.6
30718	13.758	6.	0.	2358.4
30719	13.574	6.	0.	2406.5
30720	13.389	6.	0.	2454.8
30721	13.204	6.	0.	2503.3
30722	13.02	6.	0.	2552.
30723	12.835	6.	0.	2601.
30724	12.65	6.	0.	2650.1
30725	12.466	6.	0.	2699.5
30726	12.281	6.	0.	2749.
30727	12.096	6.	0.	2798.8
30728	11.912	6.	0.	2848.8
30729	11.727	6.	0.	2899.
30730	11.542	6.	0.	2949.5
30731	11.358	6.	0.	3000.1
30732	11.173	6.	0.	3051.
30733	10.988	6.	0.	3102.2
30734	10.804	6.	0.	3153.6
30735	10.619	6.	0.	3205.2
30736	10.434	6.	0.	3257.
30737	10.25	6.	0.	3309.1
30738	10.065	6.	0.	3361.5
30739	9.8802	6.	0.	3414.1
30740	9.6956	6.	0.	3466.9
30741	9.5109	6.	0.	3520.1
30742	9.3262	6.	0.	3573.5
30743	9.1415	6.	0.	3627.1
30744	8.9569	6.	0.	3681.1
30745	8.7722	6.	0.	3735.4
30746	8.5875	6.	0.	3789.9
30747	8.4028	6.	0.	3844.8
30748	8.2181	6.	0.	3900.
30749	8.0335	6.	0.	3955.5
30750	7.8488	6.	0.	4011.4
30751	7.6641	6.	0.	4067.6
30752	7.4794	6.	0.	4124.2
30753	7.2948	6.	0.	4181.2
30754	7.1101	6.	0.	4238.6
30755	6.9254	6.	0.	4296.4
30756	6.7407	6.	0.	4354.6
30757	6.556	6.	0.	4413.3
30758	6.3714	6.	0.	4472.4
30759	6.1867	6.	0.	4532.1
30760	6.002	6.	0.	4592.2
30761	5.8173	6.	0.	4652.9
30762	5.6327	6.	0.	4714.2
30763	5.448	6.	0.	4776.
30764	5.2633	6.	0.	4838.4
30765	5.0786	6.	0.	4901.4
30766	4.894	6.	0.	4965.1
30767	4.7093	6.	0.	5029.4
30768	4.5246	6.	0.	5094.3
30769	4.3399	6.	0.	5159.8
30770	4.1552	6.	0.	5225.9
30771	3.9706	6.	0.	5292.5
30772	3.7859	6.	0.	5359.6
30773	3.6012	6.	0.	5426.9
30774	3.4165	6.	0.	5494.4
30775	3.2319	6.	0.	5561.8
30776	3.0472	6.	0.	5628.7
30777	2.8625	6.	0.	5694.8
30778	2.6778	6.	0.	5759.4
30779	2.4931	6.	0.	5821.7
30780	2.3085	6.	0.	5880.6
30781	2.1238	6.	0.	5934.7
30782	1.9391	6.	0.	5982.
30783	1.7544	6.	0.	6019.7
30784	1.5698	6.	0.	6043.9
30785	1.3851	6.	0.	6049.
30786	1.2004	6.	0.	6026.4
30787	1.0157	6.	0.	5962.8
30788	0.83105	6.	0.	5835.8
30789	0.64637	6.	0.	5603.5
30790	0.46169	6.	0.	5187.4
30791	0.27702	6.	0.	4334.7
30792	9.2339e-002	6.	0.	2562.5
30793	22.9	5.9091	0.	18.363
30794	5.1657e-014	5.9091	0.	1395.6
30795	0.27702	1.8198e-031	0.	4334.7
30796	9.2339e-002	6.0659e-032	0.	2562.5
30797	0.46169	3.033e-031	0.	5187.4
30798	0.64637	4.2461e-031	0.	5603.5
30799	0.83105	5.4593e-031	0.	5835.8
30800	1.0157	6.6725e-031	0.	5962.8
30801	1.2004	7.8857e-031	0.	6026.4
30802	1.3851	9.0989e-031	0.	6049.
30803	1.5698	1.0312e-030	0.	6043.9
30804	1.7544	1.1525e-030	0.	6019.7
30805	1.9391	1.2738e-030	0.	5982.
30806	2.1238	1.3952e-030	0.	5934.7
30807	2.3085	1.5165e-030	0.	5880.6
30808	2.4931	1.6378e-030	0.	5821.7
30809	2.6778	1.7591e-030	0.	5759.4
30810	2.8625	1.8804e-030	0.	5694.8
30811	3.0472	2.0018e-030	0.	5628.7
30812	3.2319	2.1231e-030	0.	5561.8
30813	3.4165	2.2444e-030	0.	5494.4
30814	3.6012	2.3657e-030	0.	5426.9
30815	3.7859	2.487e-030	0.	5359.6
30816	3.9706	2.6083e-030	0.	5292.5
30817	4.1552	2.7297e-030	0.	5225.9
30818	4.3399	2.851e-030	0.	5159.8
30819	4.5246	2.9723e-030	0.	5094.3
30820	4.7093	3.0936e-030	0.	5029.4
30821	4.894	3.2149e-030	0.	4965.1
30822	5.0786	3.3363e-030	0.	4901.4
30823	5.2633	3.4576e-030	0.	4838.4
30824	5.448	3.5789e-030	0.	4776.
30825	5.6327	3.7002e-030	0.	4714.2
30826	5.8173	3.8215e-030	0.	4652.9
30827	6.002	3.9428e-030	0.	4592.2
30828	6.1867	4.0642e-030	0.	4532.1
30829	6.3714	4.1855e-030	0.	4472.4
30830	6.556	4.3068e-030	0.	4413.3
30831	6.7407	4.4281e-030	0.	4354.6
30832	6.9254	4.5494e-030	0.	4296.4
30833	7.1101	4.6708e-030	0.	4238.6
30834	7.2948	4.7921e-030	0.	4181.2
30835	7.4794	4.9134e-030	0.	4124.2
30836	7.6641	5.0347e-030	0.	4067.6
30837	7.8488	5.156e-030	0.	4011.4
30838	8.0335	5.2774e-030	0.	3955.5
30839	8.2181	5.3987e-030	0.	3900.
30840	8.4028	5.52e-030	0.	3844.8
30841	8.5875	5.6413e-030	0.	3789.9
30842	8.7722	5.7626e-030	0.	3735.4
30843	8.9569	5.8839e-030	0.	3681.1
30844	9.1415	6.0053e-030	0.	3627.1
30845	9.3262	6.1266e-030	0.	3573.5
30846	9.5109	6.2479e-030	0.	3520.1
30847	9.6956	6.3692e-030	0.	3466.9
30848	9.8802	6.4905e-030	0.	3414.1
30849	10.065	6.6119e-030	0.	3361.5
30850	10.25	6.7332e-030	0.	3309.1
30851	10.434	6.8545e-030	0.	3257.
30852	10.619	6.9758e-030	0.	3205.2
30853	10.804	7.0971e-030	0.	3153.6
30854	10.988	7.2184e-030	0.	3102.2
30855	11.173	7.3398e-030	0.	3051.
30856	11.358	7.4611e-030	0.	3000.1
30857	11.542	7.5824e-030	0.	2949.5
30858	11.727	7.7037e-030	0.	2899.
30859	11.912	7.825e-030	0.	2848.8
30860	12.096	7.9464e-030	0.	2798.8
30861	12.281	8.0677e-030	0.	2749.
30862	12.466	8.189e-030	0.	2699.5
30863	12.65	8.3103e-030	0.	2650.1
30864	12.835	8.4316e-030	0.	2601.
30865	13.02	8.5529e-030	0.	2552.
30866	13.204	8.6743e-030	0.	2503.3
30867	13.389	8.7956e-030	0.	2454.8
30868	13.574	8.9169e-030	0.	2406.5
30869	13.758	9.0382e-030	0.	2358.4
30870	13.943	9.1595e-030	0.	2310.6
30871	14.128	9.2809e-030	0.	2262.9
30872	14.312	9.4022e-030	0.	2215.4
30873	14.497	9.5235e-030	0.	2168.1
30874	14.682	9.6448e-030	0.	2121.
30875	14.867	9.7661e-030	0.	2074.1
30876	15.051	9.8875e-030	0.	2027.4
30877	15.236	1.0009e-029	0.	1980.9
30878	15.421	1.013e-029	0.	1934.6
30879	15.605	1.0251e-029	0.	1888.5
30880	15.79	1.0373e-029	0.	1842.5
30881	15.975	1.0494e-029	0.	1796.8
30882	16.159	1.0615e-029	0.	1751.2
30883	16.344	1.0737e-029	0.	1705.8
30884	16.529	1.0858e-029	0.	1660.5
30885	16.713	1.0979e-029	0.	1615.5
30886	16.898	1.1101e-029	0.	1570.6
30887	17.083	1.1222e-029	0.	1525.8
30888	17.267	1.1343e-029	0.	1481.2
30889	17.452	1.1465e-029	0.	1436.8
30890	17.637	1.1586e-029	0.	1392.5
30891	17.821	1.1707e-029	0.	1348.3
30892	18.006	1.1829e-029	0.	1304.2
30893	18.191	1.195e-029	0.	1260.2
30894	18.375	1.2071e-029	0.	1216.4
30895	18.56	1.2193e-029	0.	1172.5
30896	18.745	1.2314e-029	0.	1128.7
30897	18.929	1.2435e-029	0.	1084.9
30898	19.114	1.2556e-029	0.	1041.1
30899	19.299	1.2678e-029	0.	997.16
30900	19.483	1.2799e-029	0.	953.1
30901	19.668	1.292e-029	0.	908.84
30902	19.853	1.3042e-029	0.	864.29
30903	20.038	1.3163e-029	0.	819.35
30904	20.222	1.3284e-029	0.	773.91
30905	20.407	1.3406e-029	0.	727.82
30906	20.592	1.3527e-029	0.	680.93
30907	20.776	1.3648e-029	0.	633.05
30908	20.961	1.377e-029	0.	583.99
30909	21.146	1.3891e-029	0.	533.54
30910	21.33	1.4012e-029	0.	481.51
30911	21.515	1.4134e-029	0.	427.78
30912	21.7	1.4255e-029	0.	372.27
30913	21.884	1.4376e-029	0.	315.11
30914	22.069	1.4498e-029	0.	256.58
30915	22.254	1.4619e-029	0.	197.27
30916	22.438	1.474e-029	0.	137.99
30917	22.623	1.4862e-029	0.	79.35
30918	22.808	1.4983e-029	0.	26.075
30919	22.9	9.0909e-002	0.	18.363
30920	7.9472e-016	9.0909e-002	0.	1395.6
30921	23.3	0.	0.	15.446
30922	23.144	0.	0.	5.7301
30923	23.456	0.	0.	21.401
30924	23.611	0.	0.	23.544
30925	23.767	0.	0.	21.495
30926	23.922	0.	0.	12.813
30927	23.067	9.0909e-002	0.	7.9849
30928	24.	9.0909e-002	0.	15.838
30929	5.0067e-014	5.7273	0.	1830.1
30930	4.8478e-014	5.5455	0.	2620.7
30931	4.6888e-014	5.3636	0.	3045.1
30932	4.5299e-014	5.1818	0.	3319.1
30933	4.371e-014	5.	0.	3507.
30934	4.212e-014	4.8182	0.	3643.2
30935	4.0531e-014	4.6364	0.	3745.
30936	3.8941e-014	4.4545	0.	3822.7
30937	3.7352e-014	4.2727	0.	3882.7
30938	3.5762e-014	4.0909	0.	3929.2
30939	3.4173e-014	3.9091	0.	3965.1
30940	3.2583e-014	3.7273	0.	3992.3
30941	3.0994e-014	3.5455	0.	4012.3
30942	2.9405e-014	3.3636	0.	4025.9
30943	2.7815e-014	3.1818	0.	4033.9
30944	2.6226e-014	3.	0.	4036.5
30945	2.4636e-014	2.8182	0.	4033.9
30946	2.3047e-014	2.6364	0.	4025.9
30947	2.1457e-014	2.4545	0.	4012.3
30948	1.9868e-014	2.2727	0.	3992.3
30949	1.8279e-014	2.0909	0.	3965.1
30950	1.6689e-014	1.9091	0.	3929.2
30951	1.51e-014	1.7273	0.	3882.7
30952	1.351e-014	1.5455	0.	3822.7
30953	1.1921e-014	1.3636	0.	3745.
30954	1.0331e-014	1.1818	0.	3643.2
30955	8.7419e-015	1.	0.	3507.
30956	7.1525e-015	0.81818	0.	3319.1
30957	5.563e-015	0.63636	0.	3045.1
30958	3.9736e-015	0.45455	0.	2620.7
30959	2.3842e-015	0.27273	0.	1830.1
30960	24.	0.27273	0.	32.122
30961	24.	0.45455	0.	44.064
30962	24.	0.63636	0.	60.017
30963	24.	0.81818	0.	83.861
30964	24.	1.	0.	115.51
30965	24.	1.1818	0.	153.45
30966	24.	1.3636	0.	194.97
30967	24.	1.5455	0.	235.47
30968	24.	1.7273	0.	267.76
30969	24.	1.9091	0.	283.34
30970	24.	2.0909	0.	276.39
30971	24.	2.2727	0.	247.88
30972	24.	2.4545	0.	205.81
30973	24.	2.6364	0.	161.4
30974	24.	2.8182	0.	126.14
30975	24.	3.	0.	112.08
30976	24.	3.1818	0.	126.14
30977	24.	3.3636	0.	161.4
30978	24.	3.5455	0.	205.81
30979	24.	3.7273	0.	247.88
30980	24.	3.9091	0.	276.39
30981	24.	4.0909	0.	283.34
30982	24.	4.2727	0.	267.76
30983	24.	4.4545	0.	235.47
30984	24.	4.6364	0.	194.97
30985	24.	4.8182	0.	153.45
30986	24.	5.	0.	115.51
30987	24.	5.1818	0.	83.861
30988	24.	5.3636	0.	60.017
30989	24.	5.5455	0.	44.064
30990	24.	5.7273	0.	32.122
30991	24.	5.9091	0.	15.838
30992	23.922	6.	0.	12.813
30993	23.767	6.	0.	21.495
30994	23.611	6.	0.	23.544
30995	23.456	6.	0.	21.401
30996	23.3	6.	0.	15.446
30997	23.144	6.	0.	5.7302
30998	23.067	5.9091	0.	7.9849
30999	22.9	1.7273	0.	742.76
31000	22.9	1.9091	0.	1265.
31001	22.9	1.5455	0.	496.77
31002	22.9	1.3636	0.	382.6
31003	22.9	1.1818	0.	296.79
31004	22.9	1.	0.	230.27
31005	22.9	0.81818	0.	175.32
31006	22.9	0.63636	0.	128.6
31007	22.9	0.45455	0.	88.19
31008	22.9	0.27273	0.	52.418
31009	22.983	2.	0.	1266.
31010	23.067	0.27273	0.	24.806
31011	23.067	0.45455	0.	45.042
31012	23.067	0.63636	0.	70.314
31013	23.067	0.81818	0.	102.33
31014	23.067	1.	0.	142.54
31015	23.067	1.1818	0.	192.94
31016	23.067	1.3636	0.	258.3
31017	23.067	1.5455	0.	344.91
31018	23.067	1.7273	0.	500.96
31019	23.067	1.9091	0.	1002.2
31020	22.9	4.2727	0.	742.76
31021	22.9	4.0909	0.	1265.
31022	22.9	4.4545	0.	496.77
31023	22.9	4.6364	0.	382.6
31024	22.9	4.8182	0.	296.79
31025	22.9	5.	0.	230.27
31026	22.9	5.1818	0.	175.32
31027	22.9	5.3636	0.	128.6
31028	22.9	5.5455	0.	88.19
31029	22.9	5.7273	0.	52.418
31030	22.983	4.	0.	1266.
31031	23.067	5.7273	0.	24.806
31032	23.067	5.5455	0.	45.042
31033	23.067	5.3636	0.	70.314
31034	23.067	5.1818	0.	102.33
31035	23.067	5.	0.	142.54
31036	23.067	4.8182	0.	192.94
31037	23.067	4.6364	0.	258.3
31038	23.067	4.4545	0.	344.91
31039	23.067	4.2727	0.	500.96
31040	23.067	4.0909	0.	1002.2
