Node Number	X Location (in)	Y Location (in)	Z Location (in)	Maximum Principal Stress (psi)
1	2.6714	3.4538	0.	1924.7
2	1.9134	2.9888	0.	114.97
3	0.98749	3.7241	0.	854.08
4	3.7318	3.4562	0.	-12.497
5	3.2068	2.1433	0.	122.04
6	2.5024	2.194	0.	2850.8
7	2.3736	3.127	0.	942.72
8	17.752	2.9352	0.	125.89
9	10.169	3.2834	0.	-34.982
10	6.7156	1.6718	0.	288.25
11	4.9306	4.5735	0.	346.24
12	4.9306	4.5735	0.1	3684.2
13	6.7156	1.6718	0.1	3572.2
14	10.169	3.2834	0.1	2506.6
15	17.752	2.9352	0.1	1333.9
16	2.3736	3.127	0.1	10546
17	2.5024	2.194	0.1	7054.9
18	3.2068	2.1433	0.1	5607.5
19	3.7318	3.4562	0.1	5236.6
20	0.98749	3.7241	0.1	6936.5
21	1.9134	2.9888	0.1	11301
22	2.6714	3.4538	0.1	6434.4
23	2.1667	1.	0.1	4974.4
24	2.1667	1.5	0.1	2433.1
25	2.1667	2.	0.1	19816
26	2.	2.	0.1	23824
27	2.	1.5	0.1	11569
28	2.	1.	0.1	7672.3
29	2.1667	5.	0.1	5800.3
30	2.1667	4.5	0.1	11716
31	2.1667	4.	0.1	23904
32	2.	4.	0.1	16588
33	2.	4.5	0.1	13181
34	2.	5.	0.1	6398.6
35	2.1667	6.	0.1	3883.7
36	5.5781	6.	0.1	3202.7
37	10.354	6.	0.1	2284.1
38	17.177	6.	0.1	1456.9
39	24.	6.	0.1	984.18
40	24.	3.	0.1	806.34
41	2.6226e-014	3.	0.1	7227.5
42	3.937e-014	6.	0.1	3783.
43	1.	6.	0.1	3416.8
44	2.	6.	0.1	4480.8
45	24.	0.	0.1	681.56
46	18.542	0.	0.1	1234.7
47	13.083	0.	0.1	1946.2
48	7.625	0.	0.1	3303.2
49	4.8958	0.	0.1	3563.4
50	2.1667	0.	0.1	3553.3
51	2.	0.	0.1	3716.1
52	0.	0.	0.1	5313.7
53	2.	0.	0.	1369.8
54	0.	0.	0.	-2340.3
55	4.8958	0.	0.	556.88
56	7.625	0.	0.	377.
57	13.083	0.	0.	132.95
58	18.542	0.	0.	9.3049
59	2.1667	0.	0.	890.27
60	24.	0.	0.	565.21
61	1.	6.	0.	1161.1
62	2.	6.	0.	-912.69
63	3.937e-014	6.	0.	-1837.6
64	2.6226e-014	3.	0.	-3430.7
65	24.	3.	0.	249.44
66	24.	6.	0.	-50.562
67	17.177	6.	0.	54.878
68	10.354	6.	0.	138.31
69	5.5781	6.	0.	363.52
70	2.1667	6.	0.	206.99
71	2.	4.5	0.	1361.4
72	2.	5.	0.	-596.85
73	2.	4.	0.	-179.06
74	2.1667	5.	0.	-159.63
75	2.1667	4.5	0.	-787.97
76	2.1667	4.	0.	-170.11
77	2.	1.5	0.	340.8
78	2.	1.	0.	1763.3
79	2.	2.	0.	-1531.3
80	2.1667	1.	0.	-38.891
81	2.1667	1.5	0.	4798.9
82	2.1667	2.	0.	8530.1
83	3.2016	3.455	0.	874.7
84	2.5225	3.2904	0.	1422.5
85	2.6714	3.4538	5.e-002	538.86
86	2.419	3.7269	0.	-5.0104
87	1.4505	3.3564	0.	-32.103
88	2.2079	2.5914	0.	1460.2
89	2.1435	3.0579	0.	497.07
90	1.9134	2.9888	5.e-002	210.33
91	1.9567	2.4944	0.	-1226.9
92	0.98749	3.7241	5.e-002	361.6
93	0.99374	4.862	0.	1002.9
94	0.49374	3.362	0.	-1360.7
95	1.4937	4.112	0.	1052.5
96	1.4937	4.362	0.	84.55
97	1.4937	3.862	0.	-201.65
98	1.4937	2.612	0.	597.17
99	1.4937	2.862	0.	-359.31
100	3.4693	2.7997	0.	-270.25
101	5.2237	2.564	0.	93.509
102	4.3312	4.0148	0.	-140.91
103	3.7318	3.4562	5.e-002	465.
104	2.9492	3.9781	0.	-707.25
105	2.8546	2.1686	0.	1480.5
106	2.7902	2.6351	0.	459.19
107	3.2068	2.1433	5.e-002	358.43
108	4.0513	1.0716	0.	289.5
109	2.6867	1.5716	0.	-303.62
110	2.5024	2.194	5.e-002	944.62
111	2.3345	1.847	0.	2350.2
112	2.3345	2.097	0.	5288.8
113	2.3736	3.127	5.e-002	82.496
114	2.1868	3.5635	0.	238.13
115	13.961	3.1093	0.	-9.5827
116	17.752	2.9352	5.e-002	47.098
117	18.147	1.4676	0.	50.149
118	20.876	2.9676	0.	182.26
119	17.465	4.4676	0.	82.825
120	8.4421	2.4776	0.	-8.8394
121	7.5496	3.9285	0.	95.129
122	10.169	3.2834	5.e-002	97.421
123	11.626	1.6417	0.	-10.415
124	10.261	4.6417	0.	14.
125	6.7156	1.6718	5.e-002	167.67
126	5.8057	0.83592	0.	395.07
127	7.1703	0.83592	0.	325.41
128	4.9306	4.5735	5.e-002	389.39
129	5.2544	5.2868	0.	350.39
130	3.5486	4.7868	0.	43.586
131	7.5496	3.9285	0.1	3074.9
132	4.3312	4.0148	0.1	4459.2
133	3.5486	4.7868	0.1	4639.9
134	5.2544	5.2868	0.1	3441.2
135	8.4421	2.4776	0.1	3037.9
136	5.2237	2.564	0.1	4364.6
137	7.1703	0.83592	0.1	3429.5
138	5.8057	0.83592	0.1	3556.4
139	13.961	3.1093	0.1	1919.7
140	10.261	4.6417	0.1	2394.9
141	11.626	1.6417	0.1	2224.6
142	17.465	4.4676	0.1	1394.
143	20.876	2.9676	0.1	1068.
144	18.147	1.4676	0.1	1273.8
145	2.7902	2.6351	0.1	8061.7
146	2.1435	3.0579	0.1	10903
147	2.5225	3.2904	0.1	8470.
148	2.1868	3.5635	0.1	13471
149	2.8546	2.1686	0.1	6323.2
150	2.2079	2.5914	0.1	9150.7
151	2.3345	1.847	0.1	3438.2
152	2.3345	2.097	0.1	13209
153	3.4693	2.7997	0.1	5364.7
154	2.6867	1.5716	0.1	5253.2
155	4.0513	1.0716	0.1	4570.3
156	3.2016	3.455	0.1	5814.6
157	2.9492	3.9781	0.1	8333.7
158	1.4505	3.3564	0.1	9096.4
159	1.4937	2.862	0.1	14726
160	1.4937	2.612	0.1	8575.8
161	1.4937	3.862	0.1	11761
162	1.4937	4.112	0.1	9572.4
163	1.4937	4.362	0.1	6459.6
164	0.49374	3.362	0.1	7021.
165	0.99374	4.862	0.1	5126.6
166	1.9567	2.4944	0.1	16937
167	2.419	3.7269	0.1	15078
168	2.1667	1.25	0.1	3125.3
169	2.1667	0.5	0.1	4259.3
170	2.1667	1.	5.e-002	617.76
171	2.1667	1.75	0.1	9838.1
172	2.1667	1.5	5.e-002	533.19
173	2.0833	2.	0.1	19989
174	2.1667	2.	5.e-002	4138.
175	2.	1.75	0.1	17674
176	2.	2.	5.e-002	658.52
177	2.	1.25	0.1	9602.3
178	2.	1.5	5.e-002	435.81
179	1.	2.	0.1	7347.1
180	2.	0.5	0.1	5667.3
181	2.	1.	5.e-002	250.66
182	2.1667	4.75	0.1	8753.8
183	2.1667	5.5	0.1	4828.1
184	2.1667	5.	5.e-002	440.18
185	2.1667	4.25	0.1	17722
186	2.1667	4.5	5.e-002	530.46
187	2.0833	4.	0.1	19463
188	2.1667	4.	5.e-002	457.53
189	2.	4.25	0.1	14106
190	2.	4.	5.e-002	1208.6
191	2.	4.75	0.1	9769.5
192	2.	4.5	5.e-002	1139.9
193	2.	5.5	0.1	5310.1
194	2.	5.	5.e-002	488.4
195	3.8724	6.	0.1	3520.4
196	2.1667	6.	5.e-002	192.92
197	7.9661	6.	0.1	2702.7
198	5.5781	6.	5.e-002	375.57
199	13.766	6.	0.1	1869.
200	10.354	6.	5.e-002	196.12
201	20.589	6.	0.1	1217.2
202	17.177	6.	5.e-002	66.421
203	24.	4.5	0.1	892.7
204	24.	6.	5.e-002	43.348
205	24.	1.5	0.1	735.34
206	24.	3.	5.e-002	27.989
207	3.9339e-014	4.5	0.1	5504.6
208	1.3113e-014	1.5	0.1	6239.2
209	2.6581e-014	3.	5.e-002	214.66
210	0.5	6.	0.1	3503.3
211	5.2451e-014	6.	5.e-002	55.796
212	1.5	6.	0.1	3913.5
213	1.	6.	5.e-002	123.96
214	2.	6.	5.e-002	248.55
215	21.271	0.	0.1	951.91
216	24.	0.	5.e-002	108.09
217	15.813	0.	0.1	1575.7
218	18.542	0.	5.e-002	94.677
219	10.354	0.	0.1	2620.8
220	13.083	0.	5.e-002	106.89
221	6.2604	0.	0.1	3404.4
222	7.625	0.	5.e-002	288.69
223	3.5313	0.	0.1	3465.4
224	4.8958	0.	5.e-002	9.165
225	2.1667	0.	5.e-002	565.87
226	1.	1.8804e-030	0.1	4474.3
227	2.	3.7609e-030	5.e-002	305.34
228	0.	0.	5.e-002	435.35
229	1.	1.8804e-030	0.	-609.24
230	2.	0.5	0.	1561.4
231	1.3113e-014	1.5	0.	-3004.5
232	6.2604	0.	0.	419.13
233	3.5313	0.	0.	610.41
234	10.354	0.	0.	241.85
235	15.813	0.	0.	57.542
236	21.271	0.	0.	282.1
237	2.1667	0.5	0.	384.22
238	24.	1.5	0.	404.31
239	1.5	6.	0.	113.37
240	0.5	6.	0.	-352.22
241	2.	5.5	0.	-786.52
242	3.9339e-014	4.5	0.	-2634.8
243	1.	2.	0.	-882.96
244	24.	4.5	0.	92.179
245	20.589	6.	0.	-0.92729
246	13.766	6.	0.	94.605
247	7.9661	6.	0.	226.28
248	3.8724	6.	0.	266.45
249	2.1667	5.5	0.	18.381
250	2.	4.75	0.	377.38
251	2.	4.25	0.	-756.3
252	2.0833	4.	0.	-1198.8
253	2.1667	4.75	0.	-474.39
254	2.1667	4.25	0.	-528.38
255	2.	1.25	0.	1027.2
256	2.	1.75	0.	-613.75
257	2.0833	2.	0.	1328.6
258	2.1667	1.25	0.	1702.8
259	2.1667	1.75	0.	5286.8
