Node Number	X Location (in)	Y Location (in)	Z Location (in)	Maximum Principal Stress (psi)
1	3.2322	2.9913	0.	1276.9
2	5.4852	3.5247	0.	130.78
3	5.1826	1.841	0.	-52.285
4	2.4373	2.5916	0.	802.03
5	5.2662	4.2366	0.	-100.
6	2.3703	1.5083	0.	-568.37
7	2.234	0.82659	0.	-244.82
8	4.5143	0.59877	0.	401.16
9	2.2271	4.1348	0.	-433.62
10	4.3518	5.0863	0.	438.73
11	5.4666	2.5835	0.	-21.946
12	4.5905	1.261	0.	358.02
13	4.8165	4.7286	0.	292.64
14	5.4448	0.76506	0.	22.37
15	4.5783	5.4746	0.	304.66
16	1.2894	2.3106	0.	1100.7
17	1.0985	1.0924	0.	977.98
18	1.2944	4.7954	0.	973.24
19	6.4517	1.216	0.	153.81
20	7.9249	1.2204	0.	-24.899
21	9.1679	1.2218	0.	-9.7538
22	10.367	1.2192	0.	5.0106
23	11.541	1.2148	0.	8.2112e-002
24	12.693	1.1941	0.	0.42519
25	13.831	1.2127	0.	3.9748
26	14.956	1.2098	0.	10.409
27	16.085	1.2002	0.	14.947
28	17.219	1.1922	0.	18.798
29	18.348	1.194	0.	23.928
30	19.477	1.1908	0.	31.011
31	20.606	1.1914	0.	41.193
32	21.736	1.1925	0.	57.083
33	22.867	1.1954	0.	84.566
34	1.1333	3.5309	0.	1322.
35	22.858	2.3937	0.	124.08
36	22.854	3.6007	0.	124.1
37	22.861	4.7959	0.	84.852
38	21.729	4.7988	0.	57.163
39	20.598	4.7986	0.	41.208
40	19.461	4.7938	0.	31.165
41	18.335	4.7905	0.	24.027
42	17.207	4.787	0.	18.618
43	16.083	4.7965	0.	13.55
44	14.96	4.8258	0.	9.4507
45	13.822	4.8203	0.	5.3683
46	12.683	4.814	0.	0.84826
47	11.535	4.8046	0.	0.54934
48	10.369	4.8013	0.	2.9779
49	9.1786	4.7944	0.	-12.486
50	7.9402	4.7906	0.	-2.1843
51	6.5347	4.803	0.	182.29
52	5.5574	5.2712	0.	-50.77
53	6.6546	2.4456	0.	-71.811
54	6.6422	3.5963	0.	-75.857
55	7.8475	2.4045	0.	29.9
56	9.0955	2.4193	0.	-6.0532
57	10.314	2.4187	0.	4.6124
58	11.513	2.4175	0.	-1.3715
59	12.669	2.4196	0.	0.78119
60	13.803	2.425	0.	0.73541
61	14.937	2.4182	0.	7.1774
62	16.072	2.4023	0.	12.877
63	17.204	2.3858	0.	19.048
64	18.329	2.3883	0.	26.69
65	19.455	2.3915	0.	37.523
66	20.585	2.3891	0.	54.647
67	21.72	2.3907	0.	81.497
68	21.715	3.5992	0.	81.67
69	20.586	3.5987	0.	54.7
70	19.458	3.5939	0.	37.585
71	18.329	3.5896	0.	26.611
72	17.194	3.5879	0.	19.028
73	16.061	3.5988	0.	13.272
74	14.94	3.6162	0.	6.7105
75	13.809	3.6217	0.	0.68466
76	12.664	3.6165	0.	5.2608e-002
77	11.508	3.6157	0.	-1.29
78	10.316	3.6056	0.	0.74822
79	9.0938	3.6135	0.	3.889
80	7.8678	3.6186	0.	21.427
81	2.6885	1.8983	0.	294.1
82	2.2905	3.4111	0.	-814.4
83	3.15	4.233	0.	1742.9
84	4.3782	2.7331	0.	597.56
85	3.0979	3.6465	0.	1057.1
86	4.3549	3.4728	0.	1529.9
87	4.3103	0.94174	0.	792.54
88	3.8973	3.5359	0.	2840.1
89	3.7285	3.3784	0.	554.82
90	3.4655	3.9406	0.	5367.1
91	2.6942	4.6919	0.	370.1
92	2.3853	5.2999	0.	-10.478
93	2.3853	5.2999	0.1	5178.
94	2.6942	4.6919	0.1	5418.2
95	3.4655	3.9406	0.1	15114
96	3.7285	3.3784	0.1	13027
97	3.8973	3.5359	0.1	8343.3
98	4.3103	0.94174	0.1	3281.8
99	4.3549	3.4728	0.1	4826.2
100	3.0979	3.6465	0.1	9463.5
101	4.3782	2.7331	0.1	6628.9
102	3.15	4.233	0.1	8695.5
103	2.2905	3.4111	0.1	8230.3
104	2.6885	1.8983	0.1	9160.3
105	7.8678	3.6186	0.1	3999.7
106	9.0938	3.6135	0.1	3617.3
107	10.316	3.6056	0.1	3279.4
108	11.508	3.6157	0.1	2949.8
109	12.664	3.6165	0.1	2641.3
110	13.809	3.6217	0.1	2340.9
111	14.94	3.6162	0.1	2052.7
112	16.061	3.5988	0.1	1773.9
113	17.194	3.5879	0.1	1499.
114	18.329	3.5896	0.1	1231.3
115	19.458	3.5939	0.1	973.38
116	20.586	3.5987	0.1	723.73
117	21.715	3.5992	0.1	481.54
118	21.72	2.3907	0.1	480.28
119	20.585	2.3891	0.1	723.82
120	19.455	2.3915	0.1	974.31
121	18.329	2.3883	0.1	1231.7
122	17.204	2.3858	0.1	1496.4
123	16.072	2.4023	0.1	1770.6
124	14.937	2.4182	0.1	2053.4
125	13.803	2.425	0.1	2343.
126	12.669	2.4196	0.1	2639.5
127	11.513	2.4175	0.1	2947.6
128	10.314	2.4187	0.1	3280.5
129	9.0955	2.4193	0.1	3615.3
130	7.8475	2.4045	0.1	4032.3
131	6.6422	3.5963	0.1	4407.3
132	6.6546	2.4456	0.1	4379.7
133	5.5574	5.2712	0.1	4561.
134	6.5347	4.803	0.1	4030.7
135	7.9402	4.7906	0.1	4012.1
136	9.1786	4.7944	0.1	3606.
137	10.369	4.8013	0.1	3269.3
138	11.535	4.8046	0.1	2949.2
139	12.683	4.814	0.1	2641.1
140	13.822	4.8203	0.1	2343.5
141	14.96	4.8258	0.1	2052.1
142	16.083	4.7965	0.1	1772.3
143	17.207	4.787	0.1	1499.5
144	18.335	4.7905	0.1	1233.4
145	19.461	4.7938	0.1	974.86
146	20.598	4.7986	0.1	720.41
147	21.729	4.7988	0.1	474.41
148	22.861	4.7959	0.1	237.18
149	22.854	3.6007	0.1	242.85
150	22.858	2.3937	0.1	242.24
151	1.1333	3.5309	0.1	5739.2
152	22.867	1.1954	0.1	235.97
153	21.736	1.1925	0.1	473.14
154	20.606	1.1914	0.1	719.09
155	19.477	1.1908	0.1	971.13
156	18.348	1.194	0.1	1230.5
157	17.219	1.1922	0.1	1497.
158	16.085	1.2002	0.1	1772.3
159	14.956	1.2098	0.1	2053.2
160	13.831	1.2127	0.1	2340.8
161	12.693	1.1941	0.1	2639.2
162	11.541	1.2148	0.1	2948.5
163	10.367	1.2192	0.1	3271.2
164	9.1679	1.2218	0.1	3604.2
165	7.9249	1.2204	0.1	4050.6
166	6.4517	1.216	0.1	4182.4
167	1.2944	4.7954	0.1	5268.1
168	1.0985	1.0924	0.1	5374.5
169	1.2894	2.3106	0.1	5881.4
170	4.5783	5.4746	0.1	3272.4
171	5.4448	0.76506	0.1	4006.7
172	4.8165	4.7286	0.1	5531.6
173	4.5905	1.261	0.1	6314.
174	5.4666	2.5835	0.1	6065.
175	4.3518	5.0863	0.1	3639.2
176	2.2271	4.1348	0.1	6992.1
177	4.5143	0.59877	0.1	3580.9
178	2.234	0.82659	0.1	5243.
179	2.3703	1.5083	0.1	6920.6
180	5.2662	4.2366	0.1	5182.1
181	2.4373	2.5916	0.1	6207.4
182	5.1826	1.841	0.1	4726.1
183	5.4852	3.5247	0.1	5439.9
184	3.2322	2.9913	0.1	10721
185	3.7067	4.	0.1	14481
186	3.7067	4.5	0.1	3162.9
187	3.7067	5.	0.1	2402.
188	3.7067	5.5	0.1	1157.
189	3.54	5.5	0.1	1770.9
190	3.54	5.	0.1	4202.1
191	3.54	4.5	0.1	4514.6
192	3.54	4.	0.1	23612
193	3.7067	2.	0.1	13847
194	3.7067	1.5	0.1	2672.1
195	3.7067	1.	0.1	2408.4
196	3.7067	0.5	0.1	1063.4
197	3.54	0.5	0.1	2111.2
198	3.54	1.	0.1	3412.
199	3.54	1.5	0.1	6021.7
200	3.54	2.	0.1	18261
201	3.7067	6.	0.1	586.67
202	4.8341	6.	0.1	3324.6
203	5.9615	6.	0.1	4314.4
204	7.0889	6.	0.1	4177.4
205	8.2163	6.	0.1	3835.9
206	9.3437	6.	0.1	3580.9
207	10.471	6.	0.1	3256.9
208	11.599	6.	0.1	2945.5
209	12.726	6.	0.1	2638.2
210	13.853	6.	0.1	2339.2
211	14.981	6.	0.1	2049.7
212	16.108	6.	0.1	1767.5
213	17.236	6.	0.1	1493.6
214	18.363	6.	0.1	1226.9
215	19.49	6.	0.1	966.51
216	20.618	6.	0.1	713.07
217	21.745	6.	0.1	464.58
218	22.873	6.	0.1	218.01
219	24.	6.	0.1	13.523
220	24.	4.8	0.1	3.4259
221	24.	3.6	0.1	2.4643
222	24.	2.4	0.1	3.1172
223	24.	1.2	0.1	3.5908
224	0.	1.2	0.1	7524.8
225	0.	2.4	0.1	7402.7
226	0.	3.6	0.1	7802.
227	0.	4.8	0.1	7250.1
228	24.	0.	0.1	12.545
229	22.873	0.	0.1	218.08
230	21.745	0.	0.1	464.42
231	20.618	0.	0.1	712.69
232	19.49	0.	0.1	966.58
233	18.363	0.	0.1	1226.8
234	17.236	0.	0.1	1494.
235	16.108	0.	0.1	1768.
236	14.981	0.	0.1	2049.7
237	13.853	0.	0.1	2339.6
238	12.726	0.	0.1	2638.1
239	11.599	0.	0.1	2946.3
240	10.471	0.	0.1	3258.6
241	9.3437	0.	0.1	3592.6
242	8.2163	0.	0.1	3826.7
243	7.0889	0.	0.1	4240.3
244	5.9615	0.	0.1	4240.8
245	4.8341	0.	0.1	3349.
246	3.7067	0.	0.1	793.8
247	3.54	0.	0.1	190.22
248	2.36	0.	0.1	4448.5
249	1.18	0.	0.1	6184.1
250	0.	0.	0.1	2458.1
251	0.	6.	0.1	2771.3
252	1.18	6.	0.1	6123.7
253	2.36	6.	0.1	4306.8
254	3.54	6.	0.1	459.21
255	2.36	6.	0.	-188.25
256	1.18	6.	0.	497.98
257	3.54	6.	0.	445.47
258	0.	6.	0.	-1076.7
259	1.18	0.	0.	487.38
260	2.36	0.	0.	23.013
261	3.54	0.	0.	154.1
262	0.	0.	0.	-803.13
263	4.8341	0.	0.	8.801
264	5.9615	0.	0.	211.25
265	7.0889	0.	0.	-129.84
266	8.2163	0.	0.	118.65
267	9.3437	0.	0.	-1.4984
268	10.471	0.	0.	13.5
269	11.599	0.	0.	5.1227
270	12.726	0.	0.	8.0696
271	13.853	0.	0.	8.3023
272	14.981	0.	0.	10.015
273	16.108	0.	0.	10.687
274	17.236	0.	0.	11.665
275	18.363	0.	0.	12.864
276	19.49	0.	0.	14.355
277	20.618	0.	0.	15.219
278	21.745	0.	0.	15.075
279	22.873	0.	0.	14.67
280	3.7067	0.	0.	200.07
281	24.	0.	0.	21.877
282	0.	4.8	0.	-3569.7
283	0.	3.6	0.	-3739.7
284	0.	2.4	0.	-3531.2
285	0.	1.2	0.	-3681.8
286	24.	1.2	0.	144.39
287	24.	2.4	0.	184.42
288	24.	3.6	0.	184.23
289	24.	4.8	0.	144.22
290	24.	6.	0.	22.714
291	22.873	6.	0.	14.751
292	21.745	6.	0.	15.001
293	20.618	6.	0.	15.291
294	19.49	6.	0.	14.366
295	18.363	6.	0.	13.268
296	17.236	6.	0.	12.48
297	16.108	6.	0.	10.808
298	14.981	6.	0.	10.222
299	13.853	6.	0.	9.1859
300	12.726	6.	0.	8.1421
301	11.599	6.	0.	6.2176
302	10.471	6.	0.	13.654
303	9.3437	6.	0.	10.971
304	8.2163	6.	0.	76.833
305	7.0889	6.	0.	-94.242
306	5.9615	6.	0.	144.25
307	4.8341	6.	0.	57.919
308	3.7067	6.	0.	184.67
309	3.54	1.5	0.	6264.7
310	3.54	1.	0.	1967.7
311	3.54	0.5	0.	752.72
312	3.54	2.	0.	-775.13
313	3.7067	0.5	0.	698.16
314	3.7067	1.	0.	1318.3
315	3.7067	1.5	0.	5145.5
316	3.7067	2.	0.	1558.5
317	3.54	4.5	0.	3735.6
318	3.54	5.	0.	2116.7
319	3.54	5.5	0.	747.07
320	3.54	4.	0.	2570.6
321	3.7067	5.5	0.	281.07
322	3.7067	5.	0.	2977.6
323	3.7067	4.5	0.	3363.8
324	3.7067	4.	0.	1490.3
325	2.7614	3.2012	0.	-464.25
326	3.8052	2.8622	0.	824.21
327	3.165	3.3189	0.	951.04
328	3.2322	2.9913	5.e-002	225.31
329	3.3861	2.4956	0.	-442.43
330	5.3757	3.8807	0.	-5.3166
331	5.4759	3.0541	0.	42.854
332	6.0637	3.5605	0.	26.43
333	4.92	3.4988	0.	819.76
334	5.4852	3.5247	5.e-002	198.69
335	5.3246	2.2123	0.	-111.
336	4.8865	1.551	0.	100.06
337	5.8172	1.5285	0.	27.153
338	5.1826	1.841	5.e-002	102.99
339	4.4446	1.9205	0.	655.05
340	1.8634	2.4511	0.	438.64
341	2.5629	2.245	0.	82.826
342	2.3639	3.0013	0.	-499.6
343	2.4373	2.5916	5.e-002	279.79
344	2.9887	2.2958	0.	-516.33
345	5.0413	4.4826	0.	2.8035
346	5.9005	4.5198	0.	16.949
347	5.2662	4.2366	5.e-002	143.31
348	4.4864	4.1183	0.	193.73
349	2.3022	1.1675	0.	-461.27
350	1.8299	1.9094	0.	190.92
351	2.5294	1.7033	0.	-223.5
352	2.3703	1.5083	5.e-002	126.86
353	2.9552	1.2542	0.	-71.406
354	1.6662	0.95948	0.	352.67
355	2.234	0.82659	5.e-002	58.333
356	2.297	0.41329	0.	-166.26
357	2.887	0.66329	0.	14.302
358	4.9795	0.68192	0.	142.68
359	4.4123	0.77025	0.	523.1
360	4.5143	0.59877	5.e-002	94.569
361	4.6742	0.29939	0.	192.13
362	4.1105	0.54939	0.	169.51
363	1.7607	4.4651	0.	258.19
364	2.2588	3.7729	0.	-637.19
365	2.6625	3.8906	0.	187.39
366	2.4607	4.4133	0.	-54.18
367	2.2271	4.1348	5.e-002	276.92
368	4.5841	4.9074	0.	304.08
369	4.465	5.2804	0.	353.23
370	4.3518	5.0863	5.e-002	182.29
371	4.0292	5.0431	0.	1273.2
372	6.0606	2.5146	0.	-49.007
373	4.9224	2.6583	0.	235.53
374	5.4666	2.5835	5.e-002	163.43
375	5.0176	1.013	0.	14.526
376	4.4504	1.1014	0.	370.95
377	4.5905	1.261	5.e-002	330.79
378	4.1486	1.3805	0.	1807.2
379	5.1869	4.9999	0.	-16.637
380	4.8165	4.7286	5.e-002	241.44
381	4.2616	4.6143	0.	1297.4
382	5.9482	0.99052	0.	50.61
383	5.4448	0.76506	5.e-002	138.28
384	5.7031	0.38253	0.	79.683
385	5.0678	5.3729	0.	55.17
386	4.5783	5.4746	5.e-002	100.84
387	4.7062	5.7373	0.	144.15
388	4.1425	5.4873	0.	108.47
389	1.1939	1.7015	0.	1038.8
390	1.2114	2.9207	0.	1211.1
391	1.2894	2.3106	5.e-002	84.667
392	0.64472	2.3553	0.	-1269.9
393	1.0985	1.0924	5.e-002	10.14
394	1.1392	0.54618	0.	731.97
395	0.54923	1.1462	0.	-1369.9
396	1.2138	4.1631	0.	1147.2
397	1.8398	5.0476	0.	269.48
398	1.2944	4.7954	5.e-002	67.09
399	1.2372	5.3977	0.	735.18
400	0.64718	4.7977	0.	-1302.1
401	7.1883	1.2182	0.	59.003
402	6.5532	1.8308	0.	38.338
403	6.4517	1.216	5.e-002	34.014
404	6.7703	0.60799	0.	7.1271
405	8.5464	1.2211	0.	-17.563
406	7.8862	1.8124	0.	2.4986
407	7.9249	1.2204	5.e-002	9.9855
408	8.0706	0.61018	0.	12.428
409	9.7673	1.2205	0.	-2.5512
410	9.1317	1.8205	0.	-8.2655
411	9.1679	1.2218	5.e-002	4.4744
412	9.2558	0.61088	0.	-11.519
413	10.954	1.217	0.	2.545
414	10.341	1.8189	0.	4.7994
415	10.367	1.2192	5.e-002	1.8786
416	10.419	0.60958	0.	2.2267
417	12.117	1.2044	0.	0.25141
418	11.527	1.8161	0.	-0.66529
419	11.541	1.2148	5.e-002	1.5537
420	11.57	0.60741	0.	-0.46214
421	13.262	1.2034	0.	0.53116
422	12.681	1.8068	0.	0.58742
423	12.693	1.1941	5.e-002	1.2162
424	12.709	0.59704	0.	2.3879
425	14.394	1.2112	0.	7.1709
426	13.817	1.8188	0.	1.3404
427	13.831	1.2127	5.e-002	1.3994
428	13.842	0.60633	0.	6.002
429	15.521	1.205	0.	12.654
430	14.947	1.814	0.	8.0623
431	14.956	1.2098	5.e-002	1.3401
432	14.969	0.60491	0.	10.053
433	16.652	1.1962	0.	16.843
434	16.078	1.8012	0.	13.183
435	16.085	1.2002	5.e-002	1.1937
436	16.097	0.60009	0.	12.642
437	17.783	1.1931	0.	21.332
438	17.212	1.789	0.	18.138
439	17.219	1.1922	5.e-002	1.1428
440	17.227	0.59612	0.	15.028
441	18.912	1.1924	0.	27.434
442	18.338	1.7911	0.	24.46
443	18.348	1.194	5.e-002	1.1871
444	18.355	0.59699	0.	18.14
445	20.041	1.1911	0.	36.068
446	19.466	1.7911	0.	33.365
447	19.477	1.1908	5.e-002	1.1908
448	19.484	0.5954	0.	22.341
449	21.171	1.1919	0.	49.12
450	20.595	1.7902	0.	46.989
451	20.606	1.1914	5.e-002	1.3361
452	20.612	0.59568	0.	27.696
453	22.302	1.1939	0.	70.824
454	21.728	1.7916	0.	68.441
455	21.736	1.1925	5.e-002	1.627
456	21.741	0.59623	0.	35.207
457	22.862	1.7945	0.	103.8
458	22.867	1.1954	5.e-002	2.3169
459	22.87	0.59768	0.	48.028
460	23.434	1.1977	0.	114.29
461	1.7119	3.471	0.	253.66
462	1.1333	3.5309	5.e-002	35.491
463	0.56665	3.5655	0.	-1265.6
464	22.856	2.9972	0.	123.78
465	22.289	2.3922	0.	102.79
466	22.858	2.3937	5.e-002	2.4645
467	23.429	2.3968	0.	154.22
468	22.858	4.1983	0.	103.96
469	22.285	3.5999	0.	102.89
470	22.854	3.6007	5.e-002	2.3928
471	23.427	3.6003	0.	154.16
472	22.295	4.7974	0.	71.007
473	22.861	4.7959	5.e-002	2.3641
474	23.43	4.7979	0.	114.31
475	22.867	5.3979	0.	48.193
476	21.164	4.7987	0.	49.168
477	21.722	4.199	0.	68.581
478	21.729	4.7988	5.e-002	1.6736
479	21.737	5.3994	0.	35.192
480	20.03	4.7962	0.	36.151
481	20.592	4.1986	0.	47.046
482	20.598	4.7986	5.e-002	1.3478
483	20.608	5.3993	0.	27.723
484	18.898	4.7921	0.	27.561
485	19.459	4.1938	0.	33.504
486	19.461	4.7938	5.e-002	1.278
487	19.476	5.3969	0.	22.413
488	17.771	4.7888	0.	21.291
489	18.332	4.1901	0.	24.504
490	18.335	4.7905	5.e-002	1.2955
491	18.349	5.3953	0.	18.381
492	16.645	4.7918	0.	16.062
493	17.201	4.1875	0.	18.069
494	17.207	4.787	5.e-002	1.3634
495	17.221	5.3935	0.	15.329
496	15.521	4.8112	0.	11.479
497	16.072	4.1977	0.	12.711
498	16.083	4.7965	5.e-002	1.3559
499	16.095	5.3983	0.	12.008
500	14.391	4.8231	0.	7.3763
501	14.95	4.221	0.	7.4547
502	14.96	4.8258	5.e-002	1.1082
503	14.971	5.4129	0.	9.6904
504	13.253	4.8172	0.	1.8109
505	13.815	4.221	0.	1.6437
506	13.822	4.8203	5.e-002	1.3888
507	13.838	5.4101	0.	7.1101
508	12.109	4.8093	0.	0.64277
509	12.674	4.2153	0.	0.35158
510	12.683	4.814	5.e-002	1.6509
511	12.705	5.407	0.	2.6598
512	10.952	4.8029	0.	1.7631
513	11.521	4.2101	0.	-0.39442
514	11.535	4.8046	5.e-002	1.7743
515	11.567	5.4023	0.	-9.4725e-002
516	9.7738	4.7978	0.	-4.8605
517	10.343	4.2035	0.	1.8334
518	10.369	4.8013	5.e-002	2.6581
519	10.42	5.4006	0.	1.8496
520	8.5594	4.7925	0.	-7.3616
521	9.1362	4.204	0.	-4.304
522	9.1786	4.7944	5.e-002	1.5969
523	9.2612	5.3972	0.	-12.019
524	7.2374	4.7968	0.	67.504
525	7.904	4.2046	0.	9.6118
526	7.9402	4.7906	5.e-002	11.715
527	8.0782	5.3953	0.	17.644
528	6.0461	5.0371	0.	53.932
529	6.5884	4.1996	0.	33.4
530	6.5347	4.803	5.e-002	23.531
531	6.8118	5.4015	0.	21.38
532	5.5574	5.2712	5.e-002	122.39
533	5.7595	5.6356	0.	29.349
534	6.6484	3.0209	0.	-83.417
535	7.2511	2.425	0.	-22.659
536	6.6546	2.4456	5.e-002	41.743
537	7.255	3.6074	0.	-30.078
538	6.6422	3.5963	5.e-002	65.139
539	8.4715	2.4119	0.	11.864
540	7.8577	3.0115	0.	25.66
541	7.8475	2.4045	5.e-002	5.7535
542	9.7049	2.419	0.	-0.72685
543	9.0947	3.0164	0.	-1.1203
544	9.0955	2.4193	5.e-002	8.0431
545	10.914	2.4181	0.	1.6182
546	10.315	3.0122	0.	2.5134
547	10.314	2.4187	5.e-002	5.3802
548	12.091	2.4185	0.	-0.31142
549	11.51	3.0166	0.	-1.4056
550	11.513	2.4175	5.e-002	2.9935
551	13.236	2.4223	0.	0.29025
552	12.666	3.0181	0.	0.32986
553	12.669	2.4196	5.e-002	2.4849
554	14.37	2.4216	0.	3.562
555	13.806	3.0233	0.	0.20948
556	13.803	2.425	5.e-002	2.1462
557	15.504	2.4103	0.	9.9935
558	14.938	3.0172	0.	6.3114
559	14.937	2.4182	5.e-002	1.856
560	16.638	2.394	0.	15.953
561	16.066	3.0005	0.	12.422
562	16.072	2.4023	5.e-002	1.5648
563	17.767	2.387	0.	22.865
564	17.199	2.9869	0.	18.325
565	17.204	2.3858	5.e-002	1.4935
566	18.892	2.3899	0.	32.103
567	18.329	2.989	0.	25.882
568	18.329	2.3883	5.e-002	1.4703
569	20.02	2.3903	0.	46.082
570	19.456	2.9927	0.	36.759
571	19.455	2.3915	5.e-002	1.4539
572	21.152	2.3899	0.	68.072
573	20.586	2.9939	0.	53.933
574	20.585	2.3891	5.e-002	1.5254
575	21.717	2.9949	0.	81.009
576	21.72	2.3907	5.e-002	1.9833
577	21.151	3.5989	0.	68.185
578	21.715	3.5992	5.e-002	1.993
579	20.022	3.5963	0.	46.141
580	20.586	3.5987	5.e-002	1.5842
581	18.893	3.5917	0.	32.095
582	19.458	3.5939	5.e-002	1.4062
583	17.762	3.5888	0.	22.816
584	18.329	3.5896	5.e-002	1.2594
585	16.628	3.5934	0.	16.148
586	17.194	3.5879	5.e-002	1.2527
587	15.5	3.6075	0.	9.9899
588	16.061	3.5988	5.e-002	1.309
589	14.374	3.6189	0.	2.7399
590	14.94	3.6162	5.e-002	1.3894
591	13.236	3.6191	0.	0.36296
592	13.809	3.6217	5.e-002	1.3632
593	12.086	3.6161	0.	-0.61873
594	12.664	3.6165	5.e-002	1.5586
595	10.912	3.6106	0.	-0.27235
596	11.508	3.6157	5.e-002	1.8667
597	9.7051	3.6096	0.	2.2765
598	10.316	3.6056	5.e-002	3.1128
599	8.4808	3.616	0.	12.653
600	9.0938	3.6135	5.e-002	6.9453
601	7.8678	3.6186	5.e-002	3.5094
602	2.6885	1.8983	5.e-002	497.27
603	3.1142	1.6991	0.	1262.3
604	2.2905	3.4111	5.e-002	49.646
605	3.1239	3.9398	0.	1092.3
606	3.3078	4.0868	0.	3188.
607	2.9221	4.4625	0.	913.17
608	3.15	4.233	5.e-002	633.06
609	3.345	4.3665	0.	2186.4
610	4.3665	3.1029	0.	1019.6
611	4.0533	3.0558	0.	402.44
612	4.3782	2.7331	5.e-002	205.57
613	4.0424	2.3665	0.	966.82
614	3.4132	3.5125	0.	469.46
615	3.0979	3.6465	5.e-002	229.97
616	4.1261	3.5044	0.	1988.2
617	4.3549	3.4728	5.e-002	109.16
618	4.0308	3.7364	0.	1030.7
619	4.3103	0.94174	5.e-002	135.93
620	4.0085	0.97087	0.	931.79
621	3.8129	3.4572	0.	1602.8
622	3.8973	3.5359	5.e-002	119.85
623	3.7186	3.7679	0.	1682.
624	3.597	3.6595	0.	2389.2
625	3.7285	3.3784	5.e-002	441.05
626	3.4655	3.9406	5.e-002	866.79
627	3.5028	3.9703	0.	2481.1
628	2.5398	4.9959	0.	77.056
629	2.6942	4.6919	5.e-002	170.11
630	3.1171	4.846	0.	712.81
631	2.3853	5.2999	5.e-002	52.684
632	2.3726	5.6499	0.	-129.93
633	2.9626	5.3999	0.	-49.805
634	2.5398	4.9959	0.1	5285.7
635	1.8398	5.0476	0.1	5202.1
636	2.9626	5.3999	0.1	3055.1
637	2.3726	5.6499	0.1	4715.8
638	2.9221	4.4625	0.1	6969.2
639	2.4607	4.4133	0.1	6174.1
640	3.1171	4.846	0.1	4414.2
641	3.597	3.6595	0.1	13582
642	3.3078	4.0868	0.1	11583
643	3.5028	3.9703	0.1	19196
644	3.8129	3.4572	0.1	10647
645	3.4132	3.5125	0.1	11012
646	4.0533	3.0558	0.1	9742.3
647	4.1261	3.5044	0.1	6528.8
648	3.7186	3.7679	0.1	15621
649	4.4504	1.1014	0.1	4699.
650	4.4123	0.77025	0.1	3360.1
651	4.0085	0.97087	0.1	2719.6
652	4.3665	3.1029	0.1	5694.4
653	4.92	3.4988	0.1	5132.8
654	4.0308	3.7364	0.1	9304.8
655	3.1239	3.9398	0.1	8731.5
656	2.6625	3.8906	0.1	8227.8
657	3.165	3.3189	0.1	9916.
658	4.9224	2.6583	0.1	6327.
659	3.8052	2.8622	0.1	8617.3
660	4.0424	2.3665	0.1	10166
661	3.345	4.3665	0.1	6039.1
662	1.7119	3.471	0.1	6983.2
663	2.2588	3.7729	0.1	7596.
664	2.3639	3.0013	0.1	7187.3
665	2.7614	3.2012	0.1	9435.3
666	2.5294	1.7033	0.1	8038.
667	2.5629	2.245	0.1	7636.
668	3.1142	1.6991	0.1	7112.9
669	8.4808	3.616	0.1	3808.5
670	7.8577	3.0115	0.1	4015.9
671	7.255	3.6074	0.1	4203.4
672	7.904	4.2046	0.1	4005.8
673	9.7051	3.6096	0.1	3448.3
674	9.0947	3.0164	0.1	3616.3
675	9.1362	4.204	0.1	3611.5
676	10.912	3.6106	0.1	3114.6
677	10.315	3.0122	0.1	3279.8
678	10.343	4.2035	0.1	3274.1
679	12.086	3.6161	0.1	2795.6
680	11.51	3.0166	0.1	2948.4
681	11.521	4.2101	0.1	2949.1
682	13.236	3.6191	0.1	2491.1
683	12.666	3.0181	0.1	2640.
684	12.674	4.2153	0.1	2640.8
685	14.374	3.6189	0.1	2196.8
686	13.806	3.0233	0.1	2341.5
687	13.815	4.221	0.1	2341.7
688	15.5	3.6075	0.1	1913.3
689	14.938	3.0172	0.1	2052.5
690	14.95	4.221	0.1	2051.8
691	16.628	3.5934	0.1	1636.5
692	16.066	3.0005	0.1	1771.6
693	16.072	4.1977	0.1	1772.4
694	17.762	3.5888	0.1	1365.1
695	17.199	2.9869	0.1	1497.
696	17.201	4.1875	0.1	1498.5
697	18.893	3.5917	0.1	1102.3
698	18.329	2.989	0.1	1230.7
699	18.332	4.1901	0.1	1231.5
700	20.022	3.5963	0.1	848.56
701	19.456	2.9927	0.1	973.06
702	19.459	4.1938	0.1	973.25
703	21.151	3.5989	0.1	602.64
704	20.586	2.9939	0.1	723.04
705	20.592	4.1986	0.1	721.17
706	21.717	2.9949	0.1	480.34
707	21.722	4.199	0.1	477.14
708	22.285	3.5999	0.1	362.19
709	21.152	2.3899	0.1	602.05
710	22.289	2.3922	0.1	361.26
711	21.728	1.7916	0.1	475.86
712	20.02	2.3903	0.1	849.07
713	20.595	1.7902	0.1	720.53
714	18.892	2.3899	0.1	1103.
715	19.466	1.7911	0.1	971.82
716	17.767	2.387	0.1	1364.
717	18.338	1.7911	0.1	1230.2
718	16.638	2.394	0.1	1633.5
719	17.212	1.789	0.1	1495.9
720	15.504	2.4103	0.1	1912.
721	16.078	1.8012	0.1	1770.7
722	14.37	2.4216	0.1	2198.2
723	14.947	1.814	0.1	2052.6
724	13.236	2.4223	0.1	2491.2
725	13.817	1.8188	0.1	2341.2
726	12.091	2.4185	0.1	2793.5
727	12.681	1.8068	0.1	2638.8
728	10.914	2.4181	0.1	3114.1
729	11.527	1.8161	0.1	2947.6
730	9.7049	2.419	0.1	3447.9
731	10.341	1.8189	0.1	3275.6
732	8.4715	2.4119	0.1	3823.8
733	9.1317	1.8205	0.1	3609.5
734	7.2511	2.425	0.1	4205.8
735	7.8862	1.8124	0.1	4041.4
736	6.6484	3.0209	0.1	4393.4
737	6.5884	4.1996	0.1	4218.9
738	6.0637	3.5605	0.1	4921.9
739	6.5532	1.8308	0.1	4280.8
740	6.0606	2.5146	0.1	5221.1
741	6.0461	5.0371	0.1	4290.
742	5.0678	5.3729	0.1	3893.9
743	5.1869	4.9999	0.1	5026.7
744	5.7595	5.6356	0.1	4416.2
745	7.2374	4.7968	0.1	4021.3
746	5.9005	4.5198	0.1	4605.3
747	6.8118	5.4015	0.1	4100.1
748	8.5594	4.7925	0.1	3809.
749	8.0782	5.3953	0.1	3924.
750	9.7738	4.7978	0.1	3437.6
751	9.2612	5.3972	0.1	3593.3
752	10.952	4.8029	0.1	3109.2
753	10.42	5.4006	0.1	3262.9
754	12.109	4.8093	0.1	2795.1
755	11.567	5.4023	0.1	2947.2
756	13.253	4.8172	0.1	2492.3
757	12.705	5.407	0.1	2639.5
758	14.391	4.8231	0.1	2197.8
759	13.838	5.4101	0.1	2341.2
760	15.521	4.8112	0.1	1912.2
761	14.971	5.4129	0.1	2050.7
762	16.645	4.7918	0.1	1635.9
763	16.095	5.3983	0.1	1769.7
764	17.771	4.7888	0.1	1366.5
765	17.221	5.3935	0.1	1496.3
766	18.898	4.7921	0.1	1104.1
767	18.349	5.3953	0.1	1229.9
768	20.03	4.7962	0.1	847.6
769	19.476	5.3969	0.1	970.35
770	21.164	4.7987	0.1	597.4
771	20.608	5.3993	0.1	716.27
772	22.295	4.7974	0.1	355.79
773	21.737	5.3994	0.1	468.71
774	22.858	4.1983	0.1	239.5
775	22.867	5.3979	0.1	226.1
776	23.43	4.7979	0.1	118.69
777	22.856	2.9972	0.1	242.23
778	23.427	3.6003	0.1	121.35
779	22.862	1.7945	0.1	238.57
780	23.429	2.3968	0.1	121.47
781	1.2138	4.1631	0.1	5498.8
782	1.2114	2.9207	0.1	5791.8
783	0.56665	3.5655	0.1	6765.9
784	22.302	1.1939	0.1	354.55
785	23.434	1.1977	0.1	118.28
786	22.87	0.59768	0.1	225.55
787	21.171	1.1919	0.1	596.1
788	21.741	0.59623	0.1	468.02
789	20.041	1.1911	0.1	845.08
790	20.612	0.59568	0.1	715.45
791	18.912	1.1924	0.1	1100.8
792	19.484	0.5954	0.1	968.55
793	17.783	1.1931	0.1	1363.7
794	18.355	0.59699	0.1	1228.4
795	16.652	1.1962	0.1	1634.6
796	17.227	0.59612	0.1	1495.3
797	15.521	1.205	0.1	1912.8
798	16.097	0.60009	0.1	1770.
799	14.394	1.2112	0.1	2197.
800	14.969	0.60491	0.1	2051.3
801	13.262	1.2034	0.1	2489.9
802	13.842	0.60633	0.1	2340.
803	12.117	1.2044	0.1	2793.8
804	12.709	0.59704	0.1	2638.5
805	10.954	1.217	0.1	3109.8
806	11.57	0.60741	0.1	2947.3
807	9.7673	1.2205	0.1	3437.6
808	10.419	0.60958	0.1	3264.7
809	8.5464	1.2211	0.1	3827.3
810	9.2558	0.61088	0.1	3598.1
811	7.1883	1.2182	0.1	4116.5
812	8.0706	0.61018	0.1	3938.5
813	5.9482	0.99052	0.1	4086.5
814	5.8172	1.5285	0.1	4451.
815	6.7703	0.60799	0.1	4206.2
816	1.7607	4.4651	0.1	6122.3
817	0.64718	4.7977	0.1	6248.2
818	1.2372	5.3977	0.1	5685.
819	1.1939	1.7015	0.1	5618.
820	1.6662	0.95948	0.1	5303.8
821	0.54923	1.1462	0.1	6424.7
822	1.1392	0.54618	0.1	5775.1
823	1.8299	1.9094	0.1	6382.4
824	1.8634	2.4511	0.1	6042.2
825	0.64472	2.3553	0.1	6634.4
826	4.465	5.2804	0.1	3436.8
827	4.1425	5.4873	0.1	2019.1
828	4.7062	5.7373	0.1	3284.4
829	5.0176	1.013	0.1	5135.9
830	4.9795	0.68192	0.1	3769.
831	5.7031	0.38253	0.1	4077.4
832	4.5841	4.9074	0.1	4552.1
833	5.0413	4.4826	0.1	5304.8
834	4.2616	4.6143	0.1	3923.7
835	4.8865	1.551	0.1	5474.8
836	4.1486	1.3805	0.1	3774.3
837	5.3246	2.2123	0.1	5390.3
838	5.4759	3.0541	0.1	5751.6
839	4.0292	5.0431	0.1	2598.8
840	4.1105	0.54939	0.1	1915.
841	4.6742	0.29939	0.1	3451.3
842	2.3022	1.1675	0.1	6079.8
843	2.887	0.66329	0.1	3380.3
844	2.297	0.41329	0.1	4829.3
845	2.9552	1.2542	0.1	4413.5
846	5.3757	3.8807	0.1	5307.
847	4.4864	4.1183	0.1	9516.4
848	2.9887	2.2958	0.1	12139
849	4.4446	1.9205	0.1	9189.9
850	3.3861	2.4956	0.1	14361
851	3.7067	4.25	0.1	8597.8
852	3.6233	4.	0.1	17698
853	3.7067	4.	5.e-002	289.19
854	3.7067	4.75	0.1	2689.1
855	3.7067	4.5	5.e-002	189.32
856	3.7067	5.25	0.1	1771.4
857	3.7067	5.	5.e-002	661.25
858	3.7067	5.75	0.1	663.17
859	3.7067	5.5	5.e-002	253.63
860	3.54	5.25	0.1	2975.5
861	3.54	5.75	0.1	784.17
862	3.54	5.5	5.e-002	85.524
863	3.54	4.75	0.1	4282.1
864	3.54	5.	5.e-002	266.54
865	3.54	4.25	0.1	11831
866	3.54	4.5	5.e-002	960.82
867	3.54	4.	5.e-002	2295.4
868	3.7067	1.75	0.1	7349.2
869	3.6233	2.	0.1	15005
870	3.7067	2.	5.e-002	423.68
871	3.7067	1.25	0.1	2514.
872	3.7067	1.5	5.e-002	226.18
873	3.7067	0.75	0.1	1684.6
874	3.7067	1.	5.e-002	626.71
875	3.7067	0.25	0.1	512.47
876	3.7067	0.5	5.e-002	127.6
877	3.54	0.75	0.1	2748.1
878	3.54	0.25	0.1	1079.7
879	3.54	0.5	5.e-002	123.36
880	3.54	1.25	0.1	4606.1
881	3.54	1.	5.e-002	30.206
882	3.54	1.75	0.1	11453
883	3.54	1.5	5.e-002	527.59
884	3.54	2.	5.e-002	273.76
885	4.2704	6.	0.1	1940.5
886	3.7067	6.	5.e-002	16.503
887	5.3978	6.	0.1	3794.6
888	4.8341	6.	5.e-002	48.027
889	6.5252	6.	0.1	4228.9
890	5.9615	6.	5.e-002	50.734
891	7.6526	6.	0.1	4003.6
892	7.0889	6.	5.e-002	53.842
893	8.78	6.	0.1	3708.
894	8.2163	6.	5.e-002	4.5126
895	9.9074	6.	0.1	3418.8
896	9.3437	6.	5.e-002	8.549
897	11.035	6.	0.1	3101.2
898	10.471	6.	5.e-002	16.372
899	12.162	6.	0.1	2791.9
900	11.599	6.	5.e-002	16.787
901	13.29	6.	0.1	2488.7
902	12.726	6.	5.e-002	16.36
903	14.417	6.	0.1	2194.4
904	13.853	6.	5.e-002	16.538
905	15.544	6.	0.1	1908.6
906	14.981	6.	5.e-002	16.494
907	16.672	6.	0.1	1630.5
908	16.108	6.	5.e-002	15.393
909	17.799	6.	0.1	1360.2
910	17.236	6.	5.e-002	14.754
911	18.927	6.	0.1	1096.6
912	18.363	6.	5.e-002	14.377
913	20.054	6.	0.1	839.65
914	19.49	6.	5.e-002	13.66
915	21.181	6.	0.1	588.6
916	20.618	6.	5.e-002	12.609
917	22.309	6.	0.1	340.93
918	21.745	6.	5.e-002	10.578
919	23.436	6.	0.1	111.78
920	22.873	6.	5.e-002	7.8796
921	24.	5.4	0.1	4.0537
922	24.	6.	5.e-002	4.1532
923	24.	4.2	0.1	2.9356
924	24.	4.8	5.e-002	3.2618
925	24.	3.	0.1	2.7722
926	24.	3.6	5.e-002	2.9859
927	24.	1.8	0.1	3.3064
928	24.	2.4	5.e-002	3.056
929	24.	0.6	0.1	4.0617
930	24.	1.2	5.e-002	3.2794
931	0.	1.8	0.1	7461.9
932	0.	0.6	0.1	4878.6
933	0.	1.2	5.e-002	58.983
934	0.	3.	0.1	7599.5
935	0.	2.4	5.e-002	236.59
936	0.	4.2	0.1	7523.6
937	0.	3.6	5.e-002	129.35
938	0.	5.4	0.1	4910.6
939	0.	4.8	5.e-002	137.03
940	23.436	0.	0.1	111.49
941	24.	0.	5.e-002	4.1008
942	22.309	0.	0.1	340.88
943	22.873	0.	5.e-002	7.9214
944	21.181	0.	0.1	588.32
945	21.745	0.	5.e-002	10.629
946	20.054	0.	0.1	839.49
947	20.618	0.	5.e-002	12.657
948	18.927	0.	0.1	1096.6
949	19.49	0.	5.e-002	13.748
950	17.799	0.	0.1	1360.4
951	18.363	0.	5.e-002	14.436
952	16.672	0.	0.1	1631.
953	17.236	0.	5.e-002	15.193
954	15.544	0.	0.1	1908.8
955	16.108	0.	5.e-002	15.58
956	14.417	0.	0.1	2194.6
957	14.981	0.	5.e-002	15.693
958	13.29	0.	0.1	2488.8
959	13.853	0.	5.e-002	15.944
960	12.162	0.	0.1	2792.2
961	12.726	0.	5.e-002	16.634
962	11.035	0.	0.1	3102.5
963	11.599	0.	5.e-002	16.184
964	9.9074	0.	0.1	3425.5
965	10.471	0.	5.e-002	16.01
966	8.78	0.	0.1	3708.5
967	9.3437	0.	5.e-002	10.721
968	7.6526	0.	0.1	4027.5
969	8.2163	0.	5.e-002	8.2305
970	6.5252	0.	0.1	4202.
971	7.0889	0.	5.e-002	69.023
972	5.3978	0.	0.1	3737.1
973	5.9615	0.	5.e-002	60.757
974	4.2704	0.	0.1	2034.7
975	4.8341	0.	5.e-002	16.734
976	3.7067	0.	5.e-002	80.081
977	2.95	0.	0.1	2314.2
978	3.54	0.	5.e-002	38.241
979	1.77	0.	0.1	5301.
980	2.36	0.	5.e-002	85.264
981	0.59	0.	0.1	4268.4
982	1.18	0.	5.e-002	49.724
983	0.	0.	5.e-002	359.99
984	0.59	6.	0.1	4401.7
985	0.	6.	5.e-002	363.84
986	1.77	6.	0.1	5200.9
987	1.18	6.	5.e-002	44.646
988	2.95	6.	0.1	2330.5
989	2.36	6.	5.e-002	108.25
990	3.54	6.	5.e-002	167.73
991	1.77	6.	0.	119.31
992	2.95	6.	0.	40.377
993	0.59	6.	0.	-337.95
994	3.54	5.75	0.	330.32
995	0.	5.4	0.	-2386.4
996	1.77	0.	0.	180.47
997	0.59	0.	0.	-211.77
998	2.95	0.	0.	36.83
999	3.54	0.25	0.	353.74
1000	0.	0.6	0.	-2313.4
1001	5.3978	0.	0.	48.955
1002	4.2704	0.	0.	82.202
1003	6.5252	0.	0.	-35.483
1004	7.6526	0.	0.	-40.721
1005	8.78	0.	0.	56.333
1006	9.9074	0.	0.	5.7914
1007	11.035	0.	0.	9.2892
1008	12.162	0.	0.	6.5273
1009	13.29	0.	0.	8.1565
1010	14.417	0.	0.	9.123
1011	15.544	0.	0.	10.311
1012	16.672	0.	0.	11.125
1013	17.799	0.	0.	12.2
1014	18.927	0.	0.	13.513
1015	20.054	0.	0.	14.641
1016	21.181	0.	0.	14.914
1017	22.309	0.	0.	14.505
1018	23.436	0.	0.	14.623
1019	3.7067	0.25	0.	112.68
1020	24.	0.6	0.	76.711
1021	0.	4.2	0.	-3673.7
1022	0.	3.	0.	-3754.9
1023	0.	1.8	0.	-3655.
1024	24.	1.8	0.	164.33
1025	24.	3.	0.	184.3
1026	24.	4.2	0.	164.21
1027	24.	5.4	0.	76.602
1028	23.436	6.	0.	14.899
1029	22.309	6.	0.	14.509
1030	21.181	6.	0.	14.915
1031	20.054	6.	0.	14.683
1032	18.927	6.	0.	13.722
1033	17.799	6.	0.	12.806
1034	16.672	6.	0.	11.591
1035	15.544	6.	0.	10.477
1036	14.417	6.	0.	9.6622
1037	13.29	6.	0.	8.629
1038	12.162	6.	0.	7.0984
1039	11.035	6.	0.	9.9185
1040	9.9074	6.	0.	12.193
1041	8.78	6.	0.	43.322
1042	7.6526	6.	0.	-28.587
1043	6.5252	6.	0.	-27.567
1044	5.3978	6.	0.	32.113
1045	4.2704	6.	0.	60.692
1046	3.7067	5.75	0.	49.139
1047	3.54	1.25	0.	4011.7
1048	3.54	1.75	0.	1167.1
1049	3.54	0.75	0.	1340.2
1050	3.6233	2.	0.	-643.94
1051	3.7067	0.75	0.	910.34
1052	3.7067	1.25	0.	3197.2
1053	3.7067	1.75	0.	2436.5
1054	3.54	4.75	0.	2875.6
1055	3.54	4.25	0.	1117.6
1056	3.54	5.25	0.	1417.4
1057	3.6233	4.	0.	633.91
1058	3.7067	5.25	0.	1530.2
1059	3.7067	4.75	0.	3068.4
1060	3.7067	4.25	0.	2200.4
