Node Number	X Location (in)	Y Location (in)	Z Location (in)	Maximum Principal Stress (psi)
1	8.7	2.1818	0.	1623.1
2	8.7	2.3636	0.	1292.5
3	8.7	2.5455	0.	1079.9
4	8.7	2.7273	0.	966.86
5	8.7	2.9091	0.	915.69
6	8.7	3.0909	0.	915.69
7	8.7	3.2727	0.	966.86
8	8.7	3.4545	0.	1079.9
9	8.7	3.6364	0.	1292.5
10	8.7	3.8182	0.	1623.1
11	8.8667	2.1818	0.	1359.4
12	8.8667	2.3636	0.	1211.1
13	8.8667	2.5455	0.	1028.6
14	8.8667	2.7273	0.	928.27
15	8.8667	2.9091	0.	881.72
16	8.8667	3.0909	0.	881.72
17	8.8667	3.2727	0.	928.27
18	8.8667	3.4545	0.	1028.6
19	8.8667	3.6364	0.	1211.1
20	8.8667	3.8182	0.	1359.4
21	8.5188	5.8182	0.	127.51
22	8.5188	5.6364	0.	279.78
23	8.5188	5.4545	0.	512.97
24	8.5188	5.2727	0.	790.79
25	8.5188	5.0909	0.	1113.1
26	8.5188	4.9091	0.	1490.4
27	8.5188	4.7273	0.	1945.5
28	8.5188	4.5455	0.	2500.6
29	8.5188	4.3636	0.	3274.8
30	8.5188	4.1818	0.	3811.6
31	8.5188	4.	0.	2770.7
32	8.5188	3.8182	0.	1326.2
33	8.5188	3.6364	0.	1074.3
34	8.5188	3.4545	0.	917.58
35	8.5188	3.2727	0.	849.64
36	8.5188	3.0909	0.	816.25
37	8.5188	2.9091	0.	816.25
38	8.5188	2.7273	0.	849.64
39	8.5188	2.5455	0.	917.58
40	8.5188	2.3636	0.	1074.3
41	8.5188	2.1818	0.	1326.2
42	8.5188	2.	0.	2770.7
43	8.5188	1.8182	0.	3811.6
44	8.5188	1.6364	0.	3274.8
45	8.5188	1.4545	0.	2500.6
46	8.5188	1.2727	0.	1945.5
47	8.5188	1.0909	0.	1490.4
48	8.5188	0.90909	0.	1113.1
49	8.5188	0.72727	0.	790.79
50	8.5188	0.54545	0.	512.97
51	8.5188	0.36364	0.	279.78
52	8.5188	0.18182	0.	127.51
53	8.3375	5.8182	0.	92.405
54	8.3375	5.6364	0.	167.23
55	8.3375	5.4545	0.	324.74
56	8.3375	5.2727	0.	531.79
57	8.3375	5.0909	0.	775.09
58	8.3375	4.9091	0.	1049.7
59	8.3375	4.7273	0.	1352.8
60	8.3375	4.5455	0.	1655.5
61	8.3375	4.3636	0.	1897.3
62	8.3375	4.1818	0.	1879.1
63	8.3375	4.	0.	1331.8
64	8.3375	3.8182	0.	877.46
65	8.3375	3.6364	0.	701.13
66	8.3375	3.4545	0.	659.07
67	8.3375	3.2727	0.	635.36
68	8.3375	3.0909	0.	625.71
69	8.3375	2.9091	0.	625.71
70	8.3375	2.7273	0.	635.36
71	8.3375	2.5455	0.	659.07
72	8.3375	2.3636	0.	701.13
73	8.3375	2.1818	0.	877.46
74	8.3375	2.	0.	1331.8
75	8.3375	1.8182	0.	1879.1
76	8.3375	1.6364	0.	1897.3
77	8.3375	1.4545	0.	1655.5
78	8.3375	1.2727	0.	1352.8
79	8.3375	1.0909	0.	1049.7
80	8.3375	0.90909	0.	775.09
81	8.3375	0.72727	0.	531.79
82	8.3375	0.54545	0.	324.74
83	8.3375	0.36364	0.	167.23
84	8.3375	0.18182	0.	92.405
85	8.1563	5.8182	0.	91.483
86	8.1563	5.6364	0.	149.99
87	8.1563	5.4545	0.	262.34
88	8.1563	5.2727	0.	414.23
89	8.1563	5.0909	0.	593.36
90	8.1563	4.9091	0.	787.42
91	8.1563	4.7273	0.	978.
92	8.1563	4.5455	0.	1133.7
93	8.1563	4.3636	0.	1185.6
94	8.1563	4.1818	0.	1062.7
95	8.1563	4.	0.	804.34
96	8.1563	3.8182	0.	560.7
97	8.1563	3.6364	0.	447.07
98	8.1563	3.4545	0.	418.51
99	8.1563	3.2727	0.	414.71
100	8.1563	3.0909	0.	415.68
101	8.1563	2.9091	0.	415.68
102	8.1563	2.7273	0.	414.71
103	8.1563	2.5455	0.	418.51
104	8.1563	2.3636	0.	447.07
105	8.1563	2.1818	0.	560.7
106	8.1563	2.	0.	804.34
107	8.1563	1.8182	0.	1062.7
108	8.1563	1.6364	0.	1185.6
109	8.1563	1.4545	0.	1133.7
110	8.1563	1.2727	0.	978.
111	8.1563	1.0909	0.	787.41
112	8.1563	0.90909	0.	593.36
113	8.1563	0.72727	0.	414.23
114	8.1563	0.54545	0.	262.34
115	8.1563	0.36364	0.	149.99
116	8.1563	0.18182	0.	91.483
117	7.975	5.8182	0.	91.154
118	7.975	5.6364	0.	148.26
119	7.975	5.4545	0.	234.45
120	7.975	5.2727	0.	344.21
121	7.975	5.0909	0.	469.47
122	7.975	4.9091	0.	597.52
123	7.975	4.7273	0.	709.63
124	7.975	4.5455	0.	778.97
125	7.975	4.3636	0.	772.62
126	7.975	4.1818	0.	670.77
127	7.975	4.	0.	510.08
128	7.975	3.8182	0.	360.66
129	7.975	3.6364	0.	270.71
130	7.975	3.4545	0.	237.6
131	7.975	3.2727	0.	231.72
132	7.975	3.0909	0.	232.6
133	7.975	2.9091	0.	232.6
134	7.975	2.7273	0.	231.72
135	7.975	2.5455	0.	237.6
136	7.975	2.3636	0.	270.71
137	7.975	2.1818	0.	360.66
138	7.975	2.	0.	510.08
139	7.975	1.8182	0.	670.77
140	7.975	1.6364	0.	772.62
141	7.975	1.4545	0.	778.97
142	7.975	1.2727	0.	709.63
143	7.975	1.0909	0.	597.52
144	7.975	0.90909	0.	469.47
145	7.975	0.72727	0.	344.21
146	7.975	0.54545	0.	234.45
147	7.975	0.36364	0.	148.26
148	7.975	0.18182	0.	91.154
149	7.7937	5.8182	0.	87.202
150	7.7937	5.6364	0.	145.11
151	7.7937	5.4545	0.	214.89
152	7.7937	5.2727	0.	294.51
153	7.7937	5.0909	0.	379.02
154	7.7937	4.9091	0.	458.48
155	7.7937	4.7273	0.	518.59
156	7.7937	4.5455	0.	541.96
157	7.7937	4.3636	0.	513.38
158	7.7937	4.1818	0.	432.79
159	7.7937	4.	0.	322.02
160	7.7937	3.8182	0.	217.41
161	7.7937	3.6364	0.	145.29
162	7.7937	3.4545	0.	108.38
163	7.7937	3.2727	0.	94.839
164	7.7937	3.0909	0.	91.54
165	7.7937	2.9091	0.	91.54
166	7.7937	2.7273	0.	94.839
167	7.7937	2.5455	0.	108.38
168	7.7937	2.3636	0.	145.29
169	7.7937	2.1818	0.	217.41
170	7.7937	2.	0.	322.02
171	7.7937	1.8182	0.	432.79
172	7.7937	1.6364	0.	513.38
173	7.7937	1.4545	0.	541.96
174	7.7937	1.2727	0.	518.59
175	7.7937	1.0909	0.	458.48
176	7.7937	0.90909	0.	379.02
177	7.7937	0.72727	0.	294.51
178	7.7937	0.54545	0.	214.89
179	7.7937	0.36364	0.	145.11
180	7.7937	0.18182	0.	87.202
181	7.6125	5.8182	0.	80.517
182	7.6125	5.6364	0.	137.63
183	7.6125	5.4545	0.	195.58
184	7.6125	5.2727	0.	253.76
185	7.6125	5.0909	0.	309.25
186	7.6125	4.9091	0.	355.28
187	7.6125	4.7273	0.	382.51
188	7.6125	4.5455	0.	381.21
189	7.6125	4.3636	0.	345.54
190	7.6125	4.1818	0.	278.8
191	7.6125	4.	0.	195.6
192	7.6125	3.8182	0.	116.
193	7.6125	3.6364	0.	55.353
194	7.6125	3.4545	0.	18.381
195	7.6125	3.2727	0.	2.9252
196	7.6125	3.0909	0.	0.79341
197	7.6125	2.9091	0.	0.79341
198	7.6125	2.7273	0.	2.9252
199	7.6125	2.5455	0.	18.381
200	7.6125	2.3636	0.	55.353
201	7.6125	2.1818	0.	116.
202	7.6125	2.	0.	195.6
203	7.6125	1.8182	0.	278.8
204	7.6125	1.6364	0.	345.54
205	7.6125	1.4545	0.	381.21
206	7.6125	1.2727	0.	382.51
207	7.6125	1.0909	0.	355.28
208	7.6125	0.90909	0.	309.24
209	7.6125	0.72727	0.	253.76
210	7.6125	0.54545	0.	195.58
211	7.6125	0.36364	0.	137.63
212	7.6125	0.18182	0.	80.517
213	7.4313	5.8182	0.	72.063
214	7.4313	5.6364	0.	126.12
215	7.4313	5.4545	0.	174.44
216	7.4313	5.2727	0.	217.02
217	7.4313	5.0909	0.	252.3
218	7.4313	4.9091	0.	276.15
219	7.4313	4.7273	0.	283.14
220	7.4313	4.5455	0.	268.44
221	7.4313	4.3636	0.	230.44
222	7.4313	4.1818	0.	173.11
223	7.4313	4.	0.	106.24
224	7.4313	3.8182	0.	42.961
225	7.4313	3.6364	0.	5.74
226	7.4313	3.4545	0.	1.3927
227	7.4313	3.2727	0.	0.70565
228	7.4313	3.0909	0.	0.53202
229	7.4313	2.9091	0.	0.53202
230	7.4313	2.7273	0.	0.70565
231	7.4313	2.5455	0.	1.3927
232	7.4313	2.3636	0.	5.74
233	7.4313	2.1818	0.	42.961
234	7.4313	2.	0.	106.24
235	7.4313	1.8182	0.	173.11
236	7.4313	1.6364	0.	230.44
237	7.4313	1.4545	0.	268.44
238	7.4313	1.2727	0.	283.14
239	7.4313	1.0909	0.	276.15
240	7.4313	0.90909	0.	252.3
241	7.4313	0.72727	0.	217.02
242	7.4313	0.54545	0.	174.44
243	7.4313	0.36364	0.	126.12
244	7.4313	0.18182	0.	72.063
245	7.25	5.8182	0.	62.734
246	7.25	5.6364	0.	111.81
247	7.25	5.4545	0.	151.67
248	7.25	5.2727	0.	182.55
249	7.25	5.0909	0.	203.77
250	7.25	4.9091	0.	213.1
251	7.25	4.7273	0.	207.78
252	7.25	4.5455	0.	185.85
253	7.25	4.3636	0.	147.69
254	7.25	4.1818	0.	97.087
255	7.25	4.	0.	41.826
256	7.25	3.8182	0.	5.731
257	7.25	3.6364	0.	1.4987
258	7.25	3.4545	0.	0.72172
259	7.25	3.2727	0.	0.46713
260	7.25	3.0909	0.	0.38287
261	7.25	2.9091	0.	0.38287
262	7.25	2.7273	0.	0.46713
263	7.25	2.5455	0.	0.72172
264	7.25	2.3636	0.	1.4987
265	7.25	2.1818	0.	5.731
266	7.25	2.	0.	41.826
267	7.25	1.8182	0.	97.087
268	7.25	1.6364	0.	147.69
269	7.25	1.4545	0.	185.85
270	7.25	1.2727	0.	207.78
271	7.25	1.0909	0.	213.1
272	7.25	0.90909	0.	203.77
273	7.25	0.72727	0.	182.55
274	7.25	0.54545	0.	151.67
275	7.25	0.36364	0.	111.81
276	7.25	0.18182	0.	62.734
277	7.0687	5.8182	0.	53.18
278	7.0687	5.6364	0.	95.972
279	7.0687	5.4545	0.	128.09
280	7.0687	5.2727	0.	149.86
281	7.0687	5.0909	0.	161.14
282	7.0687	4.9091	0.	160.94
283	7.0687	4.7273	0.	148.18
284	7.0687	4.5455	0.	122.52
285	7.0687	4.3636	0.	85.296
286	7.0687	4.1818	0.	40.532
287	7.0687	4.	0.	6.2334
288	7.0687	3.8182	0.	1.5944
289	7.0687	3.6364	0.	0.76108
290	7.0687	3.4545	0.	0.45304
291	7.0687	3.2727	0.	0.32066
292	7.0687	3.0909	0.	0.27055
293	7.0687	2.9091	0.	0.27055
294	7.0687	2.7273	0.	0.32066
295	7.0687	2.5455	0.	0.45304
296	7.0687	2.3636	0.	0.76108
297	7.0687	2.1818	0.	1.5944
298	7.0687	2.	0.	6.2334
299	7.0687	1.8182	0.	40.532
300	7.0687	1.6364	0.	85.296
301	7.0687	1.4545	0.	122.52
302	7.0687	1.2727	0.	148.18
303	7.0687	1.0909	0.	160.94
304	7.0687	0.90909	0.	161.14
305	7.0687	0.72727	0.	149.86
306	7.0687	0.54545	0.	128.09
307	7.0687	0.36364	0.	95.972
308	7.0687	0.18182	0.	53.18
309	6.8875	5.8182	0.	43.836
310	6.8875	5.6364	0.	79.598
311	6.8875	5.4545	0.	104.53
312	6.8875	5.2727	0.	118.92
313	6.8875	5.0909	0.	122.96
314	6.8875	4.9091	0.	116.4
315	6.8875	4.7273	0.	99.158
316	6.8875	4.5455	0.	71.826
317	6.8875	4.3636	0.	36.585
318	6.8875	4.1818	0.	6.2532
319	6.8875	4.	0.	1.5751
320	6.8875	3.8182	0.	0.77092
321	6.8875	3.6364	0.	0.4545
322	6.8875	3.4545	0.	0.2988
323	6.8875	3.2727	0.	0.2211
324	6.8875	3.0909	0.	0.18884
325	6.8875	2.9091	0.	0.18884
326	6.8875	2.7273	0.	0.2211
327	6.8875	2.5455	0.	0.2988
328	6.8875	2.3636	0.	0.4545
329	6.8875	2.1818	0.	0.77092
330	6.8875	2.	0.	1.5751
331	6.8875	1.8182	0.	6.2532
332	6.8875	1.6364	0.	36.585
333	6.8875	1.4545	0.	71.826
334	6.8875	1.2727	0.	99.157
335	6.8875	1.0909	0.	116.4
336	6.8875	0.90909	0.	122.96
337	6.8875	0.72727	0.	118.92
338	6.8875	0.54545	0.	104.53
339	6.8875	0.36364	0.	79.598
340	6.8875	0.18182	0.	43.836
341	6.7063	5.8182	0.	34.956
342	6.7063	5.6364	0.	63.402
343	6.7063	5.4545	0.	81.617
344	6.7063	5.2727	0.	89.82
345	6.7063	5.0909	0.	88.345
346	6.7063	4.9091	0.	77.406
347	6.7063	4.7273	0.	57.504
348	6.7063	4.5455	0.	30.084
349	6.7063	4.3636	0.	5.2971
350	6.7063	4.1818	0.	1.3998
351	6.7063	4.	0.	0.72121
352	6.7063	3.8182	0.	0.44078
353	6.7063	3.6364	0.	0.28901
354	6.7063	3.4545	0.	0.20097
355	6.7063	3.2727	0.	0.15213
356	6.7063	3.0909	0.	0.13047
357	6.7063	2.9091	0.	0.13047
358	6.7063	2.7273	0.	0.15213
359	6.7063	2.5455	0.	0.20097
360	6.7063	2.3636	0.	0.28901
361	6.7063	2.1818	0.	0.44078
362	6.7063	2.	0.	0.72121
363	6.7063	1.8182	0.	1.3998
364	6.7063	1.6364	0.	5.297
365	6.7063	1.4545	0.	30.083
366	6.7063	1.2727	0.	57.504
367	6.7063	1.0909	0.	77.405
368	6.7063	0.90909	0.	88.345
369	6.7063	0.72727	0.	89.82
370	6.7063	0.54545	0.	81.617
371	6.7063	0.36364	0.	63.402
372	6.7063	0.18182	0.	34.956
373	6.525	5.8182	0.	26.669
374	6.525	5.6364	0.	47.833
375	6.525	5.4545	0.	59.762
376	6.525	5.2727	0.	62.599
377	6.525	5.0909	0.	56.741
378	6.525	4.9091	0.	42.682
379	6.525	4.7273	0.	21.642
380	6.525	4.5455	0.	3.5506
381	6.525	4.3636	0.	1.1081
382	6.525	4.1818	0.	0.61931
383	6.525	4.	0.	0.40132
384	6.525	3.8182	0.	0.27299
385	6.525	3.6364	0.	0.1899
386	6.525	3.4545	0.	0.13613
387	6.525	3.2727	0.	0.10399
388	6.525	3.0909	0.	8.903e-002
389	6.525	2.9091	0.	8.903e-002
390	6.525	2.7273	0.	0.10399
391	6.525	2.5455	0.	0.13613
392	6.525	2.3636	0.	0.1899
393	6.525	2.1818	0.	0.27299
394	6.525	2.	0.	0.40132
395	6.525	1.8182	0.	0.61931
396	6.525	1.6364	0.	1.1081
397	6.525	1.4545	0.	3.5506
398	6.525	1.2727	0.	21.641
399	6.525	1.0909	0.	42.682
400	6.525	0.90909	0.	56.74
401	6.525	0.72727	0.	62.599
402	6.525	0.54545	0.	59.761
403	6.525	0.36364	0.	47.833
404	6.525	0.18182	0.	26.669
405	6.3438	5.8182	0.	19.017
406	6.3438	5.6364	0.	33.137
407	6.3438	5.4545	0.	39.189
408	6.3438	5.2727	0.	37.26
409	6.3438	5.0909	0.	27.812
410	6.3438	4.9091	0.	12.118
411	6.3438	4.7273	0.	1.8755
412	6.3438	4.5455	0.	0.78326
413	6.3438	4.3636	0.	0.48923
414	6.3438	4.1818	0.	0.34086
415	6.3438	4.	0.	0.24499
416	6.3438	3.8182	0.	0.17657
417	6.3438	3.6364	0.	0.12687
418	6.3438	3.4545	0.	9.2118e-002
419	6.3438	3.2727	0.	7.0166e-002
420	6.3438	3.0909	0.	5.9582e-002
421	6.3438	2.9091	0.	5.9582e-002
422	6.3438	2.7273	0.	7.0166e-002
423	6.3438	2.5455	0.	9.2118e-002
424	6.3438	2.3636	0.	0.12687
425	6.3438	2.1818	0.	0.17657
426	6.3438	2.	0.	0.24499
427	6.3438	1.8182	0.	0.34086
428	6.3438	1.6364	0.	0.48923
429	6.3438	1.4545	0.	0.78326
430	6.3438	1.2727	0.	1.8755
431	6.3438	1.0909	0.	12.118
432	6.3438	0.90909	0.	27.812
433	6.3438	0.72727	0.	37.26
434	6.3438	0.54545	0.	39.189
435	6.3438	0.36364	0.	33.137
436	6.3438	0.18182	0.	19.017
437	6.1625	5.8182	0.	11.992
438	6.1625	5.6364	0.	19.427
439	6.1625	5.4545	0.	20.007
440	6.1625	5.2727	0.	13.899
441	6.1625	5.0909	0.	3.6365
442	6.1625	4.9091	0.	0.87834
443	6.1625	4.7273	0.	0.50799
444	6.1625	4.5455	0.	0.36109
445	6.1625	4.3636	0.	0.27286
446	6.1625	4.1818	0.	0.20873
447	6.1625	4.	0.	0.1581
448	6.1625	3.8182	0.	0.11736
449	6.1625	3.6364	0.	8.5361e-002
450	6.1625	3.4545	0.	6.173e-002
451	6.1625	3.2727	0.	4.6208e-002
452	6.1625	3.0909	0.	3.8536e-002
453	6.1625	2.9091	0.	3.8536e-002
454	6.1625	2.7273	0.	4.6208e-002
455	6.1625	2.5455	0.	6.173e-002
456	6.1625	2.3636	0.	8.5361e-002
457	6.1625	2.1818	0.	0.11736
458	6.1625	2.	0.	0.1581
459	6.1625	1.8182	0.	0.20873
460	6.1625	1.6364	0.	0.27286
461	6.1625	1.4545	0.	0.36109
462	6.1625	1.2727	0.	0.50799
463	6.1625	1.0909	0.	0.87834
464	6.1625	0.90909	0.	3.6365
465	6.1625	0.72727	0.	13.898
466	6.1625	0.54545	0.	20.007
467	6.1625	0.36364	0.	19.427
468	6.1625	0.18182	0.	11.992
469	5.9812	5.8182	0.	5.5724
470	5.9812	5.6364	0.	6.7906
471	5.9812	5.4545	0.	3.0118
472	5.9812	5.2727	0.	0.70994
473	5.9812	5.0909	0.	0.42134
474	5.9812	4.9091	0.	0.31756
475	5.9812	4.7273	0.	0.2562
476	5.9812	4.5455	0.	0.21002
477	5.9812	4.3636	0.	0.17104
478	5.9812	4.1818	0.	0.13654
479	5.9812	4.	0.	0.10587
480	5.9812	3.8182	0.	7.9268e-002
481	5.9812	3.6364	0.	5.7286e-002
482	5.9812	3.4545	0.	4.0439e-002
483	5.9812	3.2727	0.	2.9073e-002
484	5.9812	3.0909	0.	2.336e-002
485	5.9812	2.9091	0.	2.3361e-002
486	5.9812	2.7273	0.	2.9073e-002
487	5.9812	2.5455	0.	4.0439e-002
488	5.9812	2.3636	0.	5.7286e-002
489	5.9812	2.1818	0.	7.9268e-002
490	5.9812	2.	0.	0.10587
491	5.9812	1.8182	0.	0.13654
492	5.9812	1.6364	0.	0.17104
493	5.9812	1.4545	0.	0.21002
494	5.9812	1.2727	0.	0.2562
495	5.9812	1.0909	0.	0.31756
496	5.9812	0.90909	0.	0.42134
497	5.9812	0.72727	0.	0.70994
498	5.9812	0.54545	0.	3.0118
499	5.9812	0.36364	0.	6.7906
500	5.9812	0.18182	0.	5.5724
501	5.8	5.8182	0.	0.48002
502	5.8	5.6364	0.	0.30076
503	5.8	5.4545	0.	0.25618
504	5.8	5.2727	0.	0.22702
505	5.8	5.0909	0.	0.20403
506	5.8	4.9091	0.	0.18206
507	5.8	4.7273	0.	0.16014
508	5.8	4.5455	0.	0.1379
509	5.8	4.3636	0.	0.11554
510	5.8	4.1818	0.	9.3575e-002
511	5.8	4.	0.	7.2757e-002
512	5.8	3.8182	0.	5.3922e-002
513	5.8	3.6364	0.	3.7878e-002
514	5.8	3.4545	0.	2.53e-002
515	5.8	3.2727	0.	1.6671e-002
516	5.8	3.0909	0.	1.2288e-002
517	5.8	2.9091	0.	1.2288e-002
518	5.8	2.7273	0.	1.6671e-002
519	5.8	2.5455	0.	2.53e-002
520	5.8	2.3636	0.	3.7878e-002
521	5.8	2.1818	0.	5.3922e-002
522	5.8	2.	0.	7.2757e-002
523	5.8	1.8182	0.	9.3575e-002
524	5.8	1.6364	0.	0.11554
525	5.8	1.4545	0.	0.1379
526	5.8	1.2727	0.	0.16014
527	5.8	1.0909	0.	0.18206
528	5.8	0.90909	0.	0.20403
529	5.8	0.72727	0.	0.22702
530	5.8	0.54545	0.	0.25618
531	5.8	0.36364	0.	0.30077
532	5.8	0.18182	0.	0.48002
533	5.6188	5.8182	0.	0.1835
534	5.6188	5.6364	0.	0.16732
535	5.6188	5.4545	0.	0.14801
536	5.6188	5.2727	0.	0.14501
537	5.6188	5.0909	0.	0.13623
538	5.6188	4.9091	0.	0.12564
539	5.6188	4.7273	0.	0.11266
540	5.6188	4.5455	0.	9.8065e-002
541	5.6188	4.3636	0.	8.237e-002
542	5.6188	4.1818	0.	6.643e-002
543	5.6188	4.	0.	5.0885e-002
544	5.6188	3.8182	0.	3.6558e-002
545	5.6188	3.6364	0.	2.4178e-002
546	5.6188	3.4545	0.	1.436e-002
547	5.6188	3.2727	0.	7.5637e-003
548	5.6188	3.0909	0.	4.0919e-003
549	5.6188	2.9091	0.	4.0919e-003
550	5.6188	2.7273	0.	7.5639e-003
551	5.6188	2.5455	0.	1.436e-002
552	5.6188	2.3636	0.	2.4178e-002
553	5.6188	2.1818	0.	3.6558e-002
554	5.6188	2.	0.	5.0885e-002
555	5.6188	1.8182	0.	6.6431e-002
556	5.6188	1.6364	0.	8.237e-002
557	5.6188	1.4545	0.	9.8066e-002
558	5.6188	1.2727	0.	0.11266
559	5.6188	1.0909	0.	0.12564
560	5.6188	0.90909	0.	0.13623
561	5.6188	0.72727	0.	0.14501
562	5.6188	0.54545	0.	0.14801
563	5.6188	0.36364	0.	0.16732
564	5.6188	0.18182	0.	0.1835
565	5.4375	5.8182	0.	0.18608
566	5.4375	5.6364	0.	0.16427
567	5.4375	5.4545	0.	0.11768
568	5.4375	5.2727	0.	0.11499
569	5.4375	5.0909	0.	0.10546
570	5.4375	4.9091	0.	9.6536e-002
571	5.4375	4.7273	0.	8.5809e-002
572	5.4375	4.5455	0.	7.3994e-002
573	5.4375	4.3636	0.	6.1362e-002
574	5.4375	4.1818	0.	4.8477e-002
575	5.4375	4.	0.	3.5932e-002
576	5.4375	3.8182	0.	2.4344e-002
577	5.4375	3.6364	0.	1.4301e-002
578	5.4375	3.4545	0.	6.3095e-003
579	5.4375	3.2727	0.	7.5903e-004
580	5.4375	3.0909	0.	-2.0827e-003
581	5.4375	2.9091	0.	-2.0827e-003
582	5.4375	2.7273	0.	7.5925e-004
583	5.4375	2.5455	0.	6.3095e-003
584	5.4375	2.3636	0.	1.4302e-002
585	5.4375	2.1818	0.	2.4345e-002
586	5.4375	2.	0.	3.5932e-002
587	5.4375	1.8182	0.	4.8478e-002
588	5.4375	1.6364	0.	6.1362e-002
589	5.4375	1.4545	0.	7.3995e-002
590	5.4375	1.2727	0.	8.581e-002
591	5.4375	1.0909	0.	9.6536e-002
592	5.4375	0.90909	0.	0.10546
593	5.4375	0.72727	0.	0.11499
594	5.4375	0.54545	0.	0.11768
595	5.4375	0.36364	0.	0.16428
596	5.4375	0.18182	0.	0.18608
597	5.2562	5.8182	0.	0.20744
598	5.2562	5.6364	0.	0.17929
599	5.2562	5.4545	0.	0.1059
600	5.2562	5.2727	0.	0.10154
601	5.2562	5.0909	0.	8.9175e-002
602	5.2562	4.9091	0.	7.9787e-002
603	5.2562	4.7273	0.	6.9351e-002
604	5.2562	4.5455	0.	5.8542e-002
605	5.2562	4.3636	0.	4.7344e-002
606	5.2562	4.1818	0.	3.6155e-002
607	5.2562	4.	0.	2.5396e-002
608	5.2562	3.8182	0.	1.5533e-002
609	5.2562	3.6364	0.	7.0215e-003
610	5.2562	3.4545	0.	2.6185e-004
611	5.2562	3.2727	0.	-4.4294e-003
612	5.2562	3.0909	0.	-6.831e-003
613	5.2562	2.9091	0.	-6.831e-003
614	5.2562	2.7273	0.	-4.4291e-003
615	5.2562	2.5455	0.	2.6207e-004
616	5.2562	2.3636	0.	7.0216e-003
617	5.2562	2.1818	0.	1.5533e-002
618	5.2562	2.	0.	2.5396e-002
619	5.2562	1.8182	0.	3.6156e-002
620	5.2562	1.6364	0.	4.7345e-002
621	5.2562	1.4545	0.	5.8543e-002
622	5.2562	1.2727	0.	6.9352e-002
623	5.2562	1.0909	0.	7.9788e-002
624	5.2562	0.90909	0.	8.9177e-002
625	5.2562	0.72727	0.	0.10154
626	5.2562	0.54545	0.	0.1059
627	5.2562	0.36364	0.	0.17929
628	5.2562	0.18182	0.	0.20744
629	5.075	5.8182	0.	0.23598
630	5.075	5.6364	0.	0.20033
631	5.075	5.4545	0.	0.10172
632	5.075	5.2727	0.	9.5563e-002
633	5.075	5.0909	0.	8.005e-002
634	5.075	4.9091	0.	6.9614e-002
635	5.075	4.7273	0.	5.8773e-002
636	5.075	4.5455	0.	4.8213e-002
637	5.075	4.3636	0.	3.768e-002
638	5.075	4.1818	0.	2.7438e-002
639	5.075	4.	0.	1.7769e-002
640	5.075	3.8182	0.	9.0186e-003
641	5.075	3.6364	0.	1.5302e-003
642	5.075	3.4545	0.	-4.3847e-003
643	5.075	3.2727	0.	-8.4766e-003
644	5.075	3.0909	0.	-1.0568e-002
645	5.075	2.9091	0.	-1.0568e-002
646	5.075	2.7273	0.	-8.4764e-003
647	5.075	2.5455	0.	-4.3845e-003
648	5.075	2.3636	0.	1.5305e-003
649	5.075	2.1818	0.	9.019e-003
650	5.075	2.	0.	1.777e-002
651	5.075	1.8182	0.	2.7439e-002
652	5.075	1.6364	0.	3.768e-002
653	5.075	1.4545	0.	4.8214e-002
654	5.075	1.2727	0.	5.8773e-002
655	5.075	1.0909	0.	6.9615e-002
656	5.075	0.90909	0.	8.0052e-002
657	5.075	0.72727	0.	9.5564e-002
658	5.075	0.54545	0.	0.10172
659	5.075	0.36364	0.	0.20033
660	5.075	0.18182	0.	0.23598
661	4.8938	5.8182	0.	0.26976
662	4.8938	5.6364	0.	0.22444
663	4.8938	5.4545	0.	0.10165
664	4.8938	5.2727	0.	9.3744e-002
665	4.8938	5.0909	0.	7.507e-002
666	4.8938	4.9091	0.	6.3383e-002
667	4.8938	4.7273	0.	5.1833e-002
668	4.8938	4.5455	0.	4.1144e-002
669	4.8938	4.3636	0.	3.0854e-002
670	4.8938	4.1818	0.	2.1122e-002
671	4.8938	4.	0.	1.2119e-002
672	4.8938	3.8182	0.	4.0897e-003
673	4.8938	3.6364	0.	-2.7087e-003
674	4.8938	3.4545	0.	-8.0397e-003
675	4.8938	3.2727	0.	-1.171e-002
676	4.8938	3.0909	0.	-1.3581e-002
677	4.8938	2.9091	0.	-1.3581e-002
678	4.8938	2.7273	0.	-1.171e-002
679	4.8938	2.5455	0.	-8.0393e-003
680	4.8938	2.3636	0.	-2.7087e-003
681	4.8938	2.1818	0.	4.0901e-003
682	4.8938	2.	0.	1.2119e-002
683	4.8938	1.8182	0.	2.1123e-002
684	4.8938	1.6364	0.	3.0854e-002
685	4.8938	1.4545	0.	4.1145e-002
686	4.8938	1.2727	0.	5.1834e-002
687	4.8938	1.0909	0.	6.3384e-002
688	4.8938	0.90909	0.	7.5071e-002
689	4.8938	0.72727	0.	9.3745e-002
690	4.8938	0.54545	0.	0.10165
691	4.8938	0.36364	0.	0.22444
692	4.8938	0.18182	0.	0.26977
693	4.7125	5.8182	0.	0.30881
694	4.7125	5.6364	0.	0.25074
695	4.7125	5.4545	0.	0.10432
696	4.7125	5.2727	0.	9.4639e-002
697	4.7125	5.0909	0.	7.2802e-002
698	4.7125	4.9091	0.	5.9756e-002
699	4.7125	4.7273	0.	4.7326e-002
700	4.7125	4.5455	0.	3.628e-002
701	4.7125	4.3636	0.	2.597e-002
702	4.7125	4.1818	0.	1.6469e-002
703	4.7125	4.	0.	7.8511e-003
704	4.7125	3.8182	0.	2.8315e-004
705	4.7125	3.6364	0.	-6.0524e-003
706	4.7125	3.4545	0.	-1.0979e-002
707	4.7125	3.2727	0.	-1.4353e-002
708	4.7125	3.0909	0.	-1.6067e-002
709	4.7125	2.9091	0.	-1.6067e-002
710	4.7125	2.7273	0.	-1.4352e-002
711	4.7125	2.5455	0.	-1.0979e-002
712	4.7125	2.3636	0.	-6.052e-003
713	4.7125	2.1818	0.	2.8348e-004
714	4.7125	2.	0.	7.8514e-003
715	4.7125	1.8182	0.	1.6469e-002
716	4.7125	1.6364	0.	2.5971e-002
717	4.7125	1.4545	0.	3.6281e-002
718	4.7125	1.2727	0.	4.7327e-002
719	4.7125	1.0909	0.	5.9757e-002
720	4.7125	0.90909	0.	7.2804e-002
721	4.7125	0.72727	0.	9.464e-002
722	4.7125	0.54545	0.	0.10432
723	4.7125	0.36364	0.	0.25074
724	4.7125	0.18182	0.	0.30881
725	4.5313	5.8182	0.	0.35394
726	4.5313	5.6364	0.	0.27907
727	4.5313	5.4545	0.	0.10909
728	4.5313	5.2727	0.	9.7545e-002
729	4.5313	5.0909	0.	7.25e-002
730	4.5313	4.9091	0.	5.7999e-002
731	4.5313	4.7273	0.	4.4557e-002
732	4.5313	4.5455	0.	3.2993e-002
733	4.5313	4.3636	0.	2.2479e-002
734	4.5313	4.1818	0.	1.3012e-002
735	4.5313	4.	0.	4.5853e-003
736	4.5313	3.8182	0.	-2.7041e-003
737	4.5313	3.6364	0.	-8.735e-003
738	4.5313	3.4545	0.	-1.3385e-002
739	4.5313	3.2727	0.	-1.6549e-002
740	4.5313	3.0909	0.	-1.8152e-002
741	4.5313	2.9091	0.	-1.8152e-002
742	4.5313	2.7273	0.	-1.6549e-002
743	4.5313	2.5455	0.	-1.3384e-002
744	4.5313	2.3636	0.	-8.735e-003
745	4.5313	2.1818	0.	-2.7039e-003
746	4.5313	2.	0.	4.5858e-003
747	4.5313	1.8182	0.	1.3013e-002
748	4.5313	1.6364	0.	2.2479e-002
749	4.5313	1.4545	0.	3.2993e-002
750	4.5313	1.2727	0.	4.4558e-002
751	4.5313	1.0909	0.	5.8e-002
752	4.5313	0.90909	0.	7.2502e-002
753	4.5313	0.72727	0.	9.7545e-002
754	4.5313	0.54545	0.	0.10909
755	4.5313	0.36364	0.	0.27907
756	4.5313	0.18182	0.	0.35395
757	4.35	5.8182	0.	0.40649
758	4.35	5.6364	0.	0.30954
759	4.35	5.4545	0.	0.11566
760	4.35	5.2727	0.	0.1021
761	4.35	5.0909	0.	7.3749e-002
762	4.35	4.9091	0.	5.7684e-002
763	4.35	4.7273	0.	4.311e-002
764	4.35	4.5455	0.	3.0892e-002
765	4.35	4.3636	0.	2.0032e-002
766	4.35	4.1818	0.	1.0453e-002
767	4.35	4.	0.	2.0749e-003
768	4.35	3.8182	0.	-5.067e-003
769	4.35	3.6364	0.	-1.0907e-002
770	4.35	3.4545	0.	-1.537e-002
771	4.35	3.2727	0.	-1.8388e-002
772	4.35	3.0909	0.	-1.9911e-002
773	4.35	2.9091	0.	-1.9911e-002
774	4.35	2.7273	0.	-1.8388e-002
775	4.35	2.5455	0.	-1.5369e-002
776	4.35	2.3636	0.	-1.0907e-002
777	4.35	2.1818	0.	-5.0666e-003
778	4.35	2.	0.	2.0752e-003
779	4.35	1.8182	0.	1.0453e-002
780	4.35	1.6364	0.	2.0032e-002
781	4.35	1.4545	0.	3.0893e-002
782	4.35	1.2727	0.	4.3111e-002
783	4.35	1.0909	0.	5.7685e-002
784	4.35	0.90909	0.	7.375e-002
785	4.35	0.72727	0.	0.1021
786	4.35	0.54545	0.	0.11566
787	4.35	0.36364	0.	0.30954
788	4.35	0.18182	0.	0.40649
789	4.1687	5.8182	0.	0.46825
790	4.1687	5.6364	0.	0.34244
791	4.1687	5.4545	0.	0.12391
792	4.1687	5.2727	0.	0.10813
793	4.1687	5.0909	0.	7.6309e-002
794	4.1687	4.9091	0.	5.8554e-002
795	4.1687	4.7273	0.	4.2723e-002
796	4.1687	4.5455	0.	2.9731e-002
797	4.1687	4.3636	0.	1.8403e-002
798	4.1687	4.1818	0.	8.5987e-003
799	4.1687	4.	0.	1.6287e-004
800	4.1687	3.8182	0.	-6.9263e-003
801	4.1687	3.6364	0.	-1.2656e-002
802	4.1687	3.4545	0.	-1.6994e-002
803	4.1687	3.2727	0.	-1.9909e-002
804	4.1687	3.0909	0.	-2.1375e-002
805	4.1687	2.9091	0.	-2.1375e-002
806	4.1687	2.7273	0.	-1.9909e-002
807	4.1687	2.5455	0.	-1.6994e-002
808	4.1687	2.3636	0.	-1.2656e-002
809	4.1687	2.1818	0.	-6.926e-003
810	4.1687	2.	0.	1.6329e-004
811	4.1687	1.8182	0.	8.5992e-003
812	4.1687	1.6364	0.	1.8404e-002
813	4.1687	1.4545	0.	2.9731e-002
814	4.1687	1.2727	0.	4.2724e-002
815	4.1687	1.0909	0.	5.8554e-002
816	4.1687	0.90909	0.	7.631e-002
817	4.1687	0.72727	0.	0.10813
818	4.1687	0.54545	0.	0.12391
819	4.1687	0.36364	0.	0.34244
820	4.1687	0.18182	0.	0.46825
821	3.9875	5.8182	0.	0.5416
822	3.9875	5.6364	0.	0.37813
823	3.9875	5.4545	0.	0.13382
824	3.9875	5.2727	0.	0.11554
825	3.9875	5.0909	0.	8.0042e-002
826	3.9875	4.9091	0.	6.0445e-002
827	3.9875	4.7273	0.	4.3227e-002
828	3.9875	4.5455	0.	2.9344e-002
829	3.9875	4.3636	0.	1.7447e-002
830	3.9875	4.1818	0.	7.3258e-003
831	3.9875	4.	0.	-1.2462e-003
832	3.9875	3.8182	0.	-8.3488e-003
833	3.9875	3.6364	0.	-1.4021e-002
834	3.9875	3.4545	0.	-1.8275e-002
835	3.9875	3.2727	0.	-2.1114e-002
836	3.9875	3.0909	0.	-2.2535e-002
837	3.9875	2.9091	0.	-2.2535e-002
838	3.9875	2.7273	0.	-2.1114e-002
839	3.9875	2.5455	0.	-1.8275e-002
840	3.9875	2.3636	0.	-1.4021e-002
841	3.9875	2.1818	0.	-8.3484e-003
842	3.9875	2.	0.	-1.2457e-003
843	3.9875	1.8182	0.	7.3263e-003
844	3.9875	1.6364	0.	1.7448e-002
845	3.9875	1.4545	0.	2.9345e-002
846	3.9875	1.2727	0.	4.3228e-002
847	3.9875	1.0909	0.	6.0446e-002
848	3.9875	0.90909	0.	8.0043e-002
849	3.9875	0.72727	0.	0.11554
850	3.9875	0.54545	0.	0.13382
851	3.9875	0.36364	0.	0.37813
852	3.9875	0.18182	0.	0.5416
853	3.8063	5.8182	0.	0.62961
854	3.8063	5.6364	0.	0.41708
855	3.8063	5.4545	0.	0.14544
856	3.8063	5.2727	0.	0.12431
857	3.8063	5.0909	0.	8.4872e-002
858	3.8063	4.9091	0.	6.3257e-002
859	3.8063	4.7273	0.	4.4509e-002
860	3.8063	4.5455	0.	2.9623e-002
861	3.8063	4.3636	0.	1.7068e-002
862	3.8063	4.1818	0.	6.5593e-003
863	3.8063	4.	0.	-2.2021e-003
864	3.8063	3.8182	0.	-9.3579e-003
865	3.8063	3.6364	0.	-1.5002e-002
866	3.8063	3.4545	0.	-1.9191e-002
867	3.8063	3.2727	0.	-2.1967e-002
868	3.8063	3.0909	0.	-2.335e-002
869	3.8063	2.9091	0.	-2.335e-002
870	3.8063	2.7273	0.	-2.1967e-002
871	3.8063	2.5455	0.	-1.9191e-002
872	3.8063	2.3636	0.	-1.5002e-002
873	3.8063	2.1818	0.	-9.3574e-003
874	3.8063	2.	0.	-2.2017e-003
875	3.8063	1.8182	0.	6.5597e-003
876	3.8063	1.6364	0.	1.7068e-002
877	3.8063	1.4545	0.	2.9624e-002
878	3.8063	1.2727	0.	4.451e-002
879	3.8063	1.0909	0.	6.3258e-002
880	3.8063	0.90909	0.	8.4873e-002
881	3.8063	0.72727	0.	0.12431
882	3.8063	0.54545	0.	0.14544
883	3.8063	0.36364	0.	0.41708
884	3.8063	0.18182	0.	0.62962
885	3.625	5.8182	0.	0.73638
886	3.625	5.6364	0.	0.4598
887	3.625	5.4545	0.	0.15887
888	3.625	5.2727	0.	0.13448
889	3.625	5.0909	0.	9.0761e-002
890	3.625	4.9091	0.	6.6925e-002
891	3.625	4.7273	0.	4.6492e-002
892	3.625	4.5455	0.	3.0494e-002
893	3.625	4.3636	0.	1.7204e-002
894	3.625	4.1818	0.	6.2601e-003
895	3.625	4.	0.	-2.7186e-003
896	3.625	3.8182	0.	-9.9409e-003
897	3.625	3.6364	0.	-1.5561e-002
898	3.625	3.4545	0.	-1.9686e-002
899	3.625	3.2727	0.	-2.2395e-002
900	3.625	3.0909	0.	-2.3738e-002
901	3.625	2.9091	0.	-2.3738e-002
902	3.625	2.7273	0.	-2.2395e-002
903	3.625	2.5455	0.	-1.9685e-002
904	3.625	2.3636	0.	-1.556e-002
905	3.625	2.1818	0.	-9.9406e-003
906	3.625	2.	0.	-2.7182e-003
907	3.625	1.8182	0.	6.2605e-003
908	3.625	1.6364	0.	1.7204e-002
909	3.625	1.4545	0.	3.0494e-002
910	3.625	1.2727	0.	4.6493e-002
911	3.625	1.0909	0.	6.6925e-002
912	3.625	0.90909	0.	9.0762e-002
913	3.625	0.72727	0.	0.13448
914	3.625	0.54545	0.	0.15887
915	3.625	0.36364	0.	0.4598
916	3.625	0.18182	0.	0.73638
917	3.4437	5.8182	0.	0.86736
918	3.4437	5.6364	0.	0.50693
919	3.4437	5.4545	0.	0.17426
920	3.4437	5.2727	0.	0.1461
921	3.4437	5.0909	0.	9.7699e-002
922	3.4437	4.9091	0.	7.1406e-002
923	3.4437	4.7273	0.	4.9122e-002
924	3.4437	4.5455	0.	3.1905e-002
925	3.4437	4.3636	0.	1.7821e-002
926	3.4437	4.1818	0.	6.4189e-003
927	3.4437	4.	0.	-2.7767e-003
928	3.4437	3.8182	0.	-1.005e-002
929	3.4437	3.6364	0.	-1.5624e-002
930	3.4437	3.4545	0.	-1.9663e-002
931	3.4437	3.2727	0.	-2.229e-002
932	3.4437	3.0909	0.	-2.3583e-002
933	3.4437	2.9091	0.	-2.3583e-002
934	3.4437	2.7273	0.	-2.229e-002
935	3.4437	2.5455	0.	-1.9663e-002
936	3.4437	2.3636	0.	-1.5624e-002
937	3.4437	2.1818	0.	-1.005e-002
938	3.4437	2.	0.	-2.7764e-003
939	3.4437	1.8182	0.	6.4192e-003
940	3.4437	1.6364	0.	1.7822e-002
941	3.4437	1.4545	0.	3.1906e-002
942	3.4437	1.2727	0.	4.9122e-002
943	3.4437	1.0909	0.	7.1406e-002
944	3.4437	0.90909	0.	9.7701e-002
945	3.4437	0.72727	0.	0.1461
946	3.4437	0.54545	0.	0.17426
947	3.4437	0.36364	0.	0.50693
948	3.4437	0.18182	0.	0.86736
949	3.2625	5.8182	0.	1.0301
950	3.2625	5.6364	0.	0.5592
951	3.2625	5.4545	0.	0.1918
952	3.2625	5.2727	0.	0.15925
953	3.2625	5.0909	0.	0.1057
954	3.2625	4.9091	0.	7.6673e-002
955	3.2625	4.7273	0.	5.2358e-002
956	3.2625	4.5455	0.	3.3826e-002
957	3.2625	4.3636	0.	1.891e-002
958	3.2625	4.1818	0.	7.0536e-003
959	3.2625	4.	0.	-2.3255e-003
960	3.2625	3.8182	0.	-9.6029e-003
961	3.2625	3.6364	0.	-1.5081e-002
962	3.2625	3.4545	0.	-1.8989e-002
963	3.2625	3.2727	0.	-2.1501e-002
964	3.2625	3.0909	0.	-2.2728e-002
965	3.2625	2.9091	0.	-2.2728e-002
966	3.2625	2.7273	0.	-2.15e-002
967	3.2625	2.5455	0.	-1.8989e-002
968	3.2625	2.3636	0.	-1.5081e-002
969	3.2625	2.1818	0.	-9.6026e-003
970	3.2625	2.	0.	-2.325e-003
971	3.2625	1.8182	0.	7.0541e-003
972	3.2625	1.6364	0.	1.891e-002
973	3.2625	1.4545	0.	3.3827e-002
974	3.2625	1.2727	0.	5.2359e-002
975	3.2625	1.0909	0.	7.6674e-002
976	3.2625	0.90909	0.	0.1057
977	3.2625	0.72727	0.	0.15925
978	3.2625	0.54545	0.	0.1918
979	3.2625	0.36364	0.	0.5592
980	3.2625	0.18182	0.	1.0301
981	3.0812	5.8182	0.	1.235
982	3.0812	5.6364	0.	0.61746
983	3.0812	5.4545	0.	0.21175
984	3.0812	5.2727	0.	0.17405
985	3.0812	5.0909	0.	0.11477
986	3.0812	4.9091	0.	8.2708e-002
987	3.0812	4.7273	0.	5.6172e-002
988	3.0812	4.5455	0.	3.6239e-002
989	3.0812	4.3636	0.	2.048e-002
990	3.0812	4.1818	0.	8.2132e-003
991	3.0812	4.	0.	-1.2769e-003
992	3.0812	3.8182	0.	-8.4744e-003
993	3.0812	3.6364	0.	-1.3776e-002
994	3.0812	3.4545	0.	-1.7485e-002
995	3.0812	3.2727	0.	-1.9834e-002
996	3.0812	3.0909	0.	-2.0971e-002
997	3.0812	2.9091	0.	-2.0971e-002
998	3.0812	2.7273	0.	-1.9834e-002
999	3.0812	2.5455	0.	-1.7485e-002
1000	3.0812	2.3636	0.	-1.3775e-002
1001	3.0812	2.1818	0.	-8.4742e-003
1002	3.0812	2.	0.	-1.2765e-003
1003	3.0812	1.8182	0.	8.2137e-003
1004	3.0812	1.6364	0.	2.0481e-002
1005	3.0812	1.4545	0.	3.624e-002
1006	3.0812	1.2727	0.	5.6173e-002
1007	3.0812	1.0909	0.	8.2709e-002
1008	3.0812	0.90909	0.	0.11477
1009	3.0812	0.72727	0.	0.17405
1010	3.0812	0.54545	0.	0.21175
1011	3.0812	0.36364	0.	0.61747
1012	3.0812	0.18182	0.	1.235
1013	2.9	5.8182	0.	1.4973
1014	2.9	5.6364	0.	0.68277
1015	2.9	5.4545	0.	0.23441
1016	2.9	5.2727	0.	0.19064
1017	2.9	5.0909	0.	0.12496
1018	2.9	4.9091	0.	8.9494e-002
1019	2.9	4.7273	0.	6.0539e-002
1020	2.9	4.5455	0.	3.9142e-002
1021	2.9	4.3636	0.	2.257e-002
1022	2.9	4.1818	0.	9.9805e-003
1023	2.9	4.	0.	4.9751e-004
1024	2.9	3.8182	0.	-6.4965e-003
1025	2.9	3.6364	0.	-1.1508e-002
1026	2.9	3.4545	0.	-1.493e-002
1027	2.9	3.2727	0.	-1.7052e-002
1028	2.9	3.0909	0.	-1.8066e-002
1029	2.9	2.9091	0.	-1.8066e-002
1030	2.9	2.7273	0.	-1.7052e-002
1031	2.9	2.5455	0.	-1.4929e-002
1032	2.9	2.3636	0.	-1.1508e-002
1033	2.9	2.1818	0.	-6.4962e-003
1034	2.9	2.	0.	4.9776e-004
1035	2.9	1.8182	0.	9.9808e-003
1036	2.9	1.6364	0.	2.257e-002
1037	2.9	1.4545	0.	3.9142e-002
1038	2.9	1.2727	0.	6.0539e-002
1039	2.9	1.0909	0.	8.9495e-002
1040	2.9	0.90909	0.	0.12496
1041	2.9	0.72727	0.	0.19064
1042	2.9	0.54545	0.	0.23441
1043	2.9	0.36364	0.	0.68277
1044	2.9	0.18182	0.	1.4973
1045	2.7188	5.8182	0.	1.8396
1046	2.7188	5.6364	0.	0.75638
1047	2.7188	5.4545	0.	0.26014
1048	2.7188	5.2727	0.	0.20918
1049	2.7188	5.0909	0.	0.13629
1050	2.7188	4.9091	0.	9.7028e-002
1051	2.7188	4.7273	0.	6.5456e-002
1052	2.7188	4.5455	0.	4.2566e-002
1053	2.7188	4.3636	0.	2.5264e-002
1054	2.7188	4.1818	0.	1.2499e-002
1055	2.7188	4.	0.	3.1925e-003
1056	2.7188	3.8182	0.	-3.4326e-003
1057	2.7188	3.6364	0.	-8.0132e-003
1058	2.7188	3.4545	0.	-1.1036e-002
1059	2.7188	3.2727	0.	-1.2859e-002
1060	2.7188	3.0909	0.	-1.3713e-002
1061	2.7188	2.9091	0.	-1.3713e-002
1062	2.7188	2.7273	0.	-1.2859e-002
1063	2.7188	2.5455	0.	-1.1036e-002
1064	2.7188	2.3636	0.	-8.013e-003
1065	2.7188	2.1818	0.	-3.4324e-003
1066	2.7188	2.	0.	3.1928e-003
1067	2.7188	1.8182	0.	1.2499e-002
1068	2.7188	1.6364	0.	2.5265e-002
1069	2.7188	1.4545	0.	4.2567e-002
1070	2.7188	1.2727	0.	6.5456e-002
1071	2.7188	1.0909	0.	9.7029e-002
1072	2.7188	0.90909	0.	0.13629
1073	2.7188	0.72727	0.	0.20918
1074	2.7188	0.54545	0.	0.26014
1075	2.7188	0.36364	0.	0.75638
1076	2.7188	0.18182	0.	1.8396
1077	2.5375	5.8182	0.	2.2963
1078	2.5375	5.6364	0.	0.83983
1079	2.5375	5.4545	0.	0.28938
1080	2.5375	5.2727	0.	0.22984
1081	2.5375	5.0909	0.	0.14879
1082	2.5375	4.9091	0.	0.10527
1083	2.5375	4.7273	0.	7.09e-002
1084	2.5375	4.5455	0.	4.6546e-002
1085	2.5375	4.3636	0.	2.8666e-002
1086	2.5375	4.1818	0.	1.5938e-002
1087	2.5375	4.	0.	7.033e-003
1088	2.5375	3.8182	0.	9.7804e-004
1089	2.5375	3.6364	0.	-3.0075e-003
1090	2.5375	3.4545	0.	-5.5117e-003
1091	2.5375	3.2727	0.	-6.9579e-003
1092	2.5375	3.0909	0.	-7.6153e-003
1093	2.5375	2.9091	0.	-7.6154e-003
1094	2.5375	2.7273	0.	-6.9577e-003
1095	2.5375	2.5455	0.	-5.5116e-003
1096	2.5375	2.3636	0.	-3.0073e-003
1097	2.5375	2.1818	0.	9.7827e-004
1098	2.5375	2.	0.	7.0331e-003
1099	2.5375	1.8182	0.	1.5939e-002
1100	2.5375	1.6364	0.	2.8667e-002
1101	2.5375	1.4545	0.	4.6546e-002
1102	2.5375	1.2727	0.	7.09e-002
1103	2.5375	1.0909	0.	0.10527
1104	2.5375	0.90909	0.	0.14879
1105	2.5375	0.72727	0.	0.22984
1106	2.5375	0.54545	0.	0.28938
1107	2.5375	0.36364	0.	0.83983
1108	2.5375	0.18182	0.	2.2963
1109	2.3563	5.8182	0.	2.9228
1110	2.3563	5.6364	0.	0.93511
1111	2.3563	5.4545	0.	0.32276
1112	2.3563	5.2727	0.	0.25296
1113	2.3563	5.0909	0.	0.16263
1114	2.3563	4.9091	0.	0.11437
1115	2.3563	4.7273	0.	7.7055e-002
1116	2.3563	4.5455	0.	5.1351e-002
1117	2.3563	4.3636	0.	3.3141e-002
1118	2.3563	4.1818	0.	2.0742e-002
1119	2.3563	4.	0.	1.2511e-002
1120	2.3563	3.8182	0.	7.2521e-003
1121	2.3563	3.6364	0.	4.0297e-003
1122	2.3563	3.4545	0.	2.1578e-003
1123	2.3563	3.2727	0.	1.157e-003
1124	2.3563	3.0909	0.	7.282e-004
1125	2.3563	2.9091	0.	7.2826e-004
1126	2.3563	2.7273	0.	1.157e-003
1127	2.3563	2.5455	0.	2.158e-003
1128	2.3563	2.3636	0.	4.0298e-003
1129	2.3563	2.1818	0.	7.2523e-003
1130	2.3563	2.	0.	1.2511e-002
1131	2.3563	1.8182	0.	2.0742e-002
1132	2.3563	1.6364	0.	3.3142e-002
1133	2.3563	1.4545	0.	5.1352e-002
1134	2.3563	1.2727	0.	7.7056e-002
1135	2.3563	1.0909	0.	0.11437
1136	2.3563	0.90909	0.	0.16263
1137	2.3563	0.72727	0.	0.25296
1138	2.3563	0.54545	0.	0.32276
1139	2.3563	0.36364	0.	0.93511
1140	2.3563	0.18182	0.	2.9228
1141	2.175	5.8182	0.	3.8109
1142	2.175	5.6364	0.	1.0444
1143	2.175	5.4545	0.	0.36062
1144	2.175	5.2727	0.	0.2784
1145	2.175	5.0909	0.	0.17741
1146	2.175	4.9091	0.	0.12388
1147	2.175	4.7273	0.	8.3567e-002
1148	2.175	4.5455	0.	5.6738e-002
1149	2.175	4.3636	0.	3.8543e-002
1150	2.175	4.1818	0.	2.6825e-002
1151	2.175	4.	0.	1.9563e-002
1152	2.175	3.8182	0.	1.5314e-002
1153	2.175	3.6364	0.	1.2992e-002
1154	2.175	3.4545	0.	1.1829e-002
1155	2.175	3.2727	0.	1.1311e-002
1156	2.175	3.0909	0.	1.1126e-002
1157	2.175	2.9091	0.	1.1126e-002
1158	2.175	2.7273	0.	1.1311e-002
1159	2.175	2.5455	0.	1.1829e-002
1160	2.175	2.3636	0.	1.2992e-002
1161	2.175	2.1818	0.	1.5315e-002
1162	2.175	2.	0.	1.9563e-002
1163	2.175	1.8182	0.	2.6825e-002
1164	2.175	1.6364	0.	3.8544e-002
1165	2.175	1.4545	0.	5.6738e-002
1166	2.175	1.2727	0.	8.3567e-002
1167	2.175	1.0909	0.	0.12389
1168	2.175	0.90909	0.	0.17741
1169	2.175	0.72727	0.	0.2784
1170	2.175	0.54545	0.	0.36062
1171	2.175	0.36364	0.	1.0444
1172	2.175	0.18182	0.	3.8109
1173	1.9937	5.8182	0.	5.121
1174	1.9937	5.6364	0.	1.1718
1175	1.9937	5.4545	0.	0.40533
1176	1.9937	5.2727	0.	0.30824
1177	1.9937	5.0909	0.	0.19516
1178	1.9937	4.9091	0.	0.13597
1179	1.9937	4.7273	0.	9.2785e-002
1180	1.9937	4.5455	0.	6.5266e-002
1181	1.9937	4.3636	0.	4.7582e-002
1182	1.9937	4.1818	0.	3.6965e-002
1183	1.9937	4.	0.	3.0966e-002
1184	1.9937	3.8182	0.	2.7893e-002
1185	1.9937	3.6364	0.	2.6539e-002
1186	1.9937	3.4545	0.	2.6098e-002
1187	1.9937	3.2727	0.	2.605e-002
1188	1.9937	3.0909	0.	2.6094e-002
1189	1.9937	2.9091	0.	2.6094e-002
1190	1.9937	2.7273	0.	2.605e-002
1191	1.9937	2.5455	0.	2.6098e-002
1192	1.9937	2.3636	0.	2.654e-002
1193	1.9937	2.1818	0.	2.7893e-002
1194	1.9937	2.	0.	3.0966e-002
1195	1.9937	1.8182	0.	3.6966e-002
1196	1.9937	1.6364	0.	4.7582e-002
1197	1.9937	1.4545	0.	6.5266e-002
1198	1.9937	1.2727	0.	9.2786e-002
1199	1.9937	1.0909	0.	0.13597
1200	1.9937	0.90909	0.	0.19516
1201	1.9937	0.72727	0.	0.30824
1202	1.9937	0.54545	0.	0.40533
1203	1.9937	0.36364	0.	1.1718
1204	1.9937	0.18182	0.	5.121
1205	1.8125	5.8182	0.	7.1384
1206	1.8125	5.6364	0.	1.317
1207	1.8125	5.4545	0.	0.45216
1208	1.8125	5.2727	0.	0.33628
1209	1.8125	5.0909	0.	0.20893
1210	1.8125	4.9091	0.	0.14343
1211	1.8125	4.7273	0.	9.7493e-002
1212	1.8125	4.5455	0.	6.971e-002
1213	1.8125	4.3636	0.	5.2952e-002
1214	1.8125	4.1818	0.	4.3702e-002
1215	1.8125	4.	0.	3.9048e-002
1216	1.8125	3.8182	0.	3.7097e-002
1217	1.8125	3.6364	0.	3.6579e-002
1218	1.8125	3.4545	0.	3.6705e-002
1219	1.8125	3.2727	0.	3.7001e-002
1220	1.8125	3.0909	0.	3.7205e-002
1221	1.8125	2.9091	0.	3.7205e-002
1222	1.8125	2.7273	0.	3.7001e-002
1223	1.8125	2.5455	0.	3.6705e-002
1224	1.8125	2.3636	0.	3.6579e-002
1225	1.8125	2.1818	0.	3.7097e-002
1226	1.8125	2.	0.	3.9049e-002
1227	1.8125	1.8182	0.	4.3702e-002
1228	1.8125	1.6364	0.	5.2952e-002
1229	1.8125	1.4545	0.	6.971e-002
1230	1.8125	1.2727	0.	9.7494e-002
1231	1.8125	1.0909	0.	0.14344
1232	1.8125	0.90909	0.	0.20893
1233	1.8125	0.72727	0.	0.33628
1234	1.8125	0.54545	0.	0.45216
1235	1.8125	0.36364	0.	1.317
1236	1.8125	0.18182	0.	7.1384
1237	1.6313	5.8182	0.	10.388
1238	1.6313	5.6364	0.	1.5027
1239	1.6313	5.4545	0.	0.52655
1240	1.6313	5.2727	0.	0.39042
1241	1.6313	5.0909	0.	0.2485
1242	1.6313	4.9091	0.	0.17772
1243	1.6313	4.7273	0.	0.13043
1244	1.6313	4.5455	0.	0.1037
1245	1.6313	4.3636	0.	8.8798e-002
1246	1.6313	4.1818	0.	8.1413e-002
1247	1.6313	4.	0.	7.8257e-002
1248	1.6313	3.8182	0.	7.7354e-002
1249	1.6313	3.6364	0.	7.7492e-002
1250	1.6313	3.4545	0.	7.7986e-002
1251	1.6313	3.2727	0.	7.8464e-002
1252	1.6313	3.0909	0.	7.874e-002
1253	1.6313	2.9091	0.	7.874e-002
1254	1.6313	2.7273	0.	7.8464e-002
1255	1.6313	2.5455	0.	7.7986e-002
1256	1.6313	2.3636	0.	7.7492e-002
1257	1.6313	2.1818	0.	7.7354e-002
1258	1.6313	2.	0.	7.8257e-002
1259	1.6313	1.8182	0.	8.1413e-002
1260	1.6313	1.6364	0.	8.8798e-002
1261	1.6313	1.4545	0.	0.1037
1262	1.6313	1.2727	0.	0.13043
1263	1.6313	1.0909	0.	0.17772
1264	1.6313	0.90909	0.	0.2485
1265	1.6313	0.72727	0.	0.39042
1266	1.6313	0.54545	0.	0.52655
1267	1.6313	0.36364	0.	1.5027
1268	1.6313	0.18182	0.	10.388
1269	1.45	5.8182	0.	15.701
1270	1.45	5.6364	0.	1.6662
1271	1.45	5.4545	0.	0.53744
1272	1.45	5.2727	0.	0.36607
1273	1.45	5.0909	0.	0.20133
1274	1.45	4.9091	0.	0.12116
1275	1.45	4.7273	0.	7.0177e-002
1276	1.45	4.5455	0.	4.271e-002
1277	1.45	4.3636	0.	2.7924e-002
1278	1.45	4.1818	0.	2.0629e-002
1279	1.45	4.	0.	1.7246e-002
1280	1.45	3.8182	0.	1.5837e-002
1281	1.45	3.6364	0.	1.5333e-002
1282	1.45	3.4545	0.	1.5204e-002
1283	1.45	3.2727	0.	1.5199e-002
1284	1.45	3.0909	0.	1.5214e-002
1285	1.45	2.9091	0.	1.5215e-002
1286	1.45	2.7273	0.	1.5199e-002
1287	1.45	2.5455	0.	1.5204e-002
1288	1.45	2.3636	0.	1.5333e-002
1289	1.45	2.1818	0.	1.5837e-002
1290	1.45	2.	0.	1.7246e-002
1291	1.45	1.8182	0.	2.0629e-002
1292	1.45	1.6364	0.	2.7925e-002
1293	1.45	1.4545	0.	4.271e-002
1294	1.45	1.2727	0.	7.0177e-002
1295	1.45	1.0909	0.	0.12116
1296	1.45	0.90909	0.	0.20133
1297	1.45	0.72727	0.	0.36607
1298	1.45	0.54545	0.	0.53744
1299	1.45	0.36364	0.	1.6662
1300	1.45	0.18182	0.	15.701
1301	1.2687	5.8182	0.	24.279
1302	1.2687	5.6364	0.	2.0961
1303	1.2687	5.4545	0.	0.86337
1304	1.2687	5.2727	0.	0.68952
1305	1.2687	5.0909	0.	0.52471
1306	1.2687	4.9091	0.	0.4528
1307	1.2687	4.7273	0.	0.41112
1308	1.2687	4.5455	0.	0.39217
1309	1.2687	4.3636	0.	0.3838
1310	1.2687	4.1818	0.	0.38082
1311	1.2687	4.	0.	0.38008
1312	1.2687	3.8182	0.	0.38014
1313	1.2687	3.6364	0.	0.38037
1314	1.2687	3.4545	0.	0.38056
1315	1.2687	3.2727	0.	0.38067
1316	1.2687	3.0909	0.	0.38071
1317	1.2687	2.9091	0.	0.38071
1318	1.2687	2.7273	0.	0.38067
1319	1.2687	2.5455	0.	0.38056
1320	1.2687	2.3636	0.	0.38037
1321	1.2687	2.1818	0.	0.38014
1322	1.2687	2.	0.	0.38008
1323	1.2687	1.8182	0.	0.38082
1324	1.2687	1.6364	0.	0.3838
1325	1.2687	1.4545	0.	0.39217
1326	1.2687	1.2727	0.	0.41112
1327	1.2687	1.0909	0.	0.4528
1328	1.2687	0.90909	0.	0.52471
1329	1.2687	0.72727	0.	0.68952
1330	1.2687	0.54545	0.	0.86337
1331	1.2687	0.36364	0.	2.0961
1332	1.2687	0.18182	0.	24.279
1333	1.0875	5.8182	0.	36.733
1334	1.0875	5.6364	0.	1.7003
1335	1.0875	5.4545	0.	3.5623e-002
1336	1.0875	5.2727	0.	-0.29974
1337	1.0875	5.0909	0.	-0.56338
1338	1.0875	4.9091	0.	-0.69499
1339	1.0875	4.7273	0.	-0.77753
1340	1.0875	4.5455	0.	-0.82716
1341	1.0875	4.3636	0.	-0.86021
1342	1.0875	4.1818	0.	-0.88351
1343	1.0875	4.	0.	-0.90094
1344	1.0875	3.8182	0.	-0.91428
1345	1.0875	3.6364	0.	-0.92441
1346	1.0875	3.4545	0.	-0.93179
1347	1.0875	3.2727	0.	-0.93662
1348	1.0875	3.0909	0.	-0.93901
1349	1.0875	2.9091	0.	-0.93901
1350	1.0875	2.7273	0.	-0.93662
1351	1.0875	2.5455	0.	-0.93179
1352	1.0875	2.3636	0.	-0.92441
1353	1.0875	2.1818	0.	-0.91428
1354	1.0875	2.	0.	-0.90094
1355	1.0875	1.8182	0.	-0.88351
1356	1.0875	1.6364	0.	-0.86021
1357	1.0875	1.4545	0.	-0.82716
1358	1.0875	1.2727	0.	-0.77753
1359	1.0875	1.0909	0.	-0.69499
1360	1.0875	0.90909	0.	-0.56338
1361	1.0875	0.72727	0.	-0.29974
1362	1.0875	0.54545	0.	3.5623e-002
1363	1.0875	0.36364	0.	1.7003
1364	1.0875	0.18182	0.	36.733
1365	0.90625	5.8182	0.	54.466
1366	0.90625	5.6364	0.	4.9369
1367	0.90625	5.4545	0.	3.9646
1368	0.90625	5.2727	0.	4.0362
1369	0.90625	5.0909	0.	4.0419
1370	0.90625	4.9091	0.	4.109
1371	0.90625	4.7273	0.	4.1729
1372	0.90625	4.5455	0.	4.232
1373	0.90625	4.3636	0.	4.2802
1374	0.90625	4.1818	0.	4.3183
1375	0.90625	4.	0.	4.3474
1376	0.90625	3.8182	0.	4.3693
1377	0.90625	3.6364	0.	4.3853
1378	0.90625	3.4545	0.	4.3965
1379	0.90625	3.2727	0.	4.4035
1380	0.90625	3.0909	0.	4.407
1381	0.90625	2.9091	0.	4.407
1382	0.90625	2.7273	0.	4.4035
1383	0.90625	2.5455	0.	4.3965
1384	0.90625	2.3636	0.	4.3853
1385	0.90625	2.1818	0.	4.3693
1386	0.90625	2.	0.	4.3474
1387	0.90625	1.8182	0.	4.3183
1388	0.90625	1.6364	0.	4.2802
1389	0.90625	1.4545	0.	4.232
1390	0.90625	1.2727	0.	4.1729
1391	0.90625	1.0909	0.	4.109
1392	0.90625	0.90909	0.	4.0419
1393	0.90625	0.72727	0.	4.0362
1394	0.90625	0.54545	0.	3.9646
1395	0.90625	0.36364	0.	4.9369
1396	0.90625	0.18182	0.	54.466
1397	0.725	5.8182	0.	73.589
1398	0.725	5.6364	0.	-5.7585
1399	0.725	5.4545	0.	-10.628
1400	0.725	5.2727	0.	-12.422
1401	0.725	5.0909	0.	-13.659
1402	0.725	4.9091	0.	-14.448
1403	0.725	4.7273	0.	-15.015
1404	0.725	4.5455	0.	-15.431
1405	0.725	4.3636	0.	-15.75
1406	0.725	4.1818	0.	-15.996
1407	0.725	4.	0.	-16.187
1408	0.725	3.8182	0.	-16.333
1409	0.725	3.6364	0.	-16.443
1410	0.725	3.4545	0.	-16.521
1411	0.725	3.2727	0.	-16.571
1412	0.725	3.0909	0.	-16.596
1413	0.725	2.9091	0.	-16.596
1414	0.725	2.7273	0.	-16.571
1415	0.725	2.5455	0.	-16.521
1416	0.725	2.3636	0.	-16.443
1417	0.725	2.1818	0.	-16.333
1418	0.725	2.	0.	-16.187
1419	0.725	1.8182	0.	-15.996
1420	0.725	1.6364	0.	-15.75
1421	0.725	1.4545	0.	-15.431
1422	0.725	1.2727	0.	-15.015
1423	0.725	1.0909	0.	-14.448
1424	0.725	0.90909	0.	-13.659
1425	0.725	0.72727	0.	-12.422
1426	0.725	0.54545	0.	-10.628
1427	0.725	0.36364	0.	-5.7585
1428	0.725	0.18182	0.	73.589
1429	0.54375	5.8182	0.	105.
1430	0.54375	5.6364	0.	40.586
1431	0.54375	5.4545	0.	49.318
1432	0.54375	5.2727	0.	53.986
1433	0.54375	5.0909	0.	57.235
1434	0.54375	4.9091	0.	59.62
1435	0.54375	4.7273	0.	61.391
1436	0.54375	4.5455	0.	62.737
1437	0.54375	4.3636	0.	63.773
1438	0.54375	4.1818	0.	64.577
1439	0.54375	4.	0.	65.199
1440	0.54375	3.8182	0.	65.676
1441	0.54375	3.6364	0.	66.033
1442	0.54375	3.4545	0.	66.287
1443	0.54375	3.2727	0.	66.451
1444	0.54375	3.0909	0.	66.531
1445	0.54375	2.9091	0.	66.531
1446	0.54375	2.7273	0.	66.451
1447	0.54375	2.5455	0.	66.287
1448	0.54375	2.3636	0.	66.033
1449	0.54375	2.1818	0.	65.676
1450	0.54375	2.	0.	65.199
1451	0.54375	1.8182	0.	64.577
1452	0.54375	1.6364	0.	63.773
1453	0.54375	1.4545	0.	62.737
1454	0.54375	1.2727	0.	61.391
1455	0.54375	1.0909	0.	59.62
1456	0.54375	0.90909	0.	57.235
1457	0.54375	0.72727	0.	53.986
1458	0.54375	0.54545	0.	49.318
1459	0.54375	0.36364	0.	40.586
1460	0.54375	0.18182	0.	105.
1461	0.3625	5.8182	0.	92.364
1462	0.3625	5.6364	0.	-137.97
1463	0.3625	5.4545	0.	-183.73
1464	0.3625	5.2727	0.	-206.9
1465	0.3625	5.0909	0.	-221.85
1466	0.3625	4.9091	0.	-232.35
1467	0.3625	4.7273	0.	-240.02
1468	0.3625	4.5455	0.	-245.79
1469	0.3625	4.3636	0.	-250.22
1470	0.3625	4.1818	0.	-253.65
1471	0.3625	4.	0.	-256.29
1472	0.3625	3.8182	0.	-258.32
1473	0.3625	3.6364	0.	-259.83
1474	0.3625	3.4545	0.	-260.91
1475	0.3625	3.2727	0.	-261.6
1476	0.3625	3.0909	0.	-261.94
1477	0.3625	2.9091	0.	-261.94
1478	0.3625	2.7273	0.	-261.6
1479	0.3625	2.5455	0.	-260.91
1480	0.3625	2.3636	0.	-259.83
1481	0.3625	2.1818	0.	-258.32
1482	0.3625	2.	0.	-256.29
1483	0.3625	1.8182	0.	-253.65
1484	0.3625	1.6364	0.	-250.22
1485	0.3625	1.4545	0.	-245.79
1486	0.3625	1.2727	0.	-240.02
1487	0.3625	1.0909	0.	-232.35
1488	0.3625	0.90909	0.	-221.85
1489	0.3625	0.72727	0.	-206.9
1490	0.3625	0.54545	0.	-183.73
1491	0.3625	0.36364	0.	-137.97
1492	0.3625	0.18182	0.	92.365
1493	0.18125	5.8182	0.	314.5
1494	0.18125	5.6364	0.	611.1
1495	0.18125	5.4545	0.	743.41
1496	0.18125	5.2727	0.	828.84
1497	0.18125	5.0909	0.	883.62
1498	0.18125	4.9091	0.	923.19
1499	0.18125	4.7273	0.	952.25
1500	0.18125	4.5455	0.	974.31
1501	0.18125	4.3636	0.	991.27
1502	0.18125	4.1818	0.	1004.4
1503	0.18125	4.	0.	1014.6
1504	0.18125	3.8182	0.	1022.4
1505	0.18125	3.6364	0.	1028.2
1506	0.18125	3.4545	0.	1032.4
1507	0.18125	3.2727	0.	1035.1
1508	0.18125	3.0909	0.	1036.4
1509	0.18125	2.9091	0.	1036.4
1510	0.18125	2.7273	0.	1035.1
1511	0.18125	2.5455	0.	1032.4
1512	0.18125	2.3636	0.	1028.2
1513	0.18125	2.1818	0.	1022.4
1514	0.18125	2.	0.	1014.6
1515	0.18125	1.8182	0.	1004.4
1516	0.18125	1.6364	0.	991.27
1517	0.18125	1.4545	0.	974.31
1518	0.18125	1.2727	0.	952.25
1519	0.18125	1.0909	0.	923.19
1520	0.18125	0.90909	0.	883.62
1521	0.18125	0.72727	0.	828.84
1522	0.18125	0.54545	0.	743.41
1523	0.18125	0.36364	0.	611.1
1524	0.18125	0.18182	0.	314.5
1525	9.0512	5.8182	0.	105.99
1526	9.2358	5.8182	0.	78.488
1527	9.4203	5.8182	0.	79.152
1528	9.6049	5.8182	0.	79.591
1529	9.7894	5.8182	0.	76.247
1530	9.974	5.8182	0.	70.183
1531	10.159	5.8182	0.	62.511
1532	10.343	5.8182	0.	54.219
1533	10.528	5.8182	0.	46.008
1534	10.712	5.8182	0.	38.324
1535	10.897	5.8182	0.	31.413
1536	11.081	5.8182	0.	25.383
1537	11.266	5.8182	0.	20.248
1538	11.45	5.8182	0.	15.97
1539	11.635	5.8182	0.	12.48
1540	11.82	5.8182	0.	9.6964
1541	12.004	5.8182	0.	7.5343
1542	12.189	5.8182	0.	5.9099
1543	12.373	5.8182	0.	4.7452
1544	12.558	5.8182	0.	3.9674
1545	12.742	5.8182	0.	3.5109
1546	12.927	5.8182	0.	3.3177
1547	13.111	5.8182	0.	3.3387
1548	13.296	5.8182	0.	3.5332
1549	13.48	5.8182	0.	3.8675
1550	13.665	5.8182	0.	4.3131
1551	13.85	5.8182	0.	4.8458
1552	14.034	5.8182	0.	5.4449
1553	14.219	5.8182	0.	6.093
1554	14.403	5.8182	0.	6.7761
1555	14.588	5.8182	0.	7.4826
1556	14.772	5.8182	0.	8.2031
1557	14.957	5.8182	0.	8.9304
1558	15.141	5.8182	0.	9.6588
1559	15.326	5.8182	0.	10.384
1560	15.511	5.8182	0.	11.103
1561	15.695	5.8182	0.	11.814
1562	15.88	5.8182	0.	12.515
1563	16.064	5.8182	0.	13.205
1564	16.249	5.8182	0.	13.885
1565	16.433	5.8182	0.	14.553
1566	16.618	5.8182	0.	15.211
1567	16.802	5.8182	0.	15.86
1568	16.987	5.8182	0.	16.499
1569	17.172	5.8182	0.	17.129
1570	17.356	5.8182	0.	17.753
1571	17.541	5.8182	0.	18.37
1572	17.725	5.8182	0.	18.982
1573	17.91	5.8182	0.	19.59
1574	18.094	5.8182	0.	20.194
1575	18.279	5.8182	0.	20.796
1576	18.463	5.8182	0.	21.396
1577	18.648	5.8182	0.	21.995
1578	18.833	5.8182	0.	22.594
1579	19.017	5.8182	0.	23.193
1580	19.202	5.8182	0.	23.792
1581	19.386	5.8182	0.	24.393
1582	19.571	5.8182	0.	24.994
1583	19.755	5.8182	0.	25.595
1584	19.94	5.8182	0.	26.197
1585	20.124	5.8182	0.	26.797
1586	20.309	5.8182	0.	27.396
1587	20.493	5.8182	0.	27.992
1588	20.678	5.8182	0.	28.582
1589	20.863	5.8182	0.	29.166
1590	21.047	5.8182	0.	29.739
1591	21.232	5.8182	0.	30.299
1592	21.416	5.8182	0.	30.841
1593	21.601	5.8182	0.	31.36
1594	21.785	5.8182	0.	31.851
1595	21.97	5.8182	0.	32.307
1596	22.154	5.8182	0.	32.717
1597	22.339	5.8182	0.	33.073
1598	22.524	5.8182	0.	33.361
1599	22.708	5.8182	0.	33.566
1600	22.893	5.8182	0.	33.669
1601	23.077	5.8182	0.	33.649
1602	23.262	5.8182	0.	33.491
1603	23.446	5.8182	0.	33.196
1604	23.631	5.8182	0.	32.912
1605	23.815	5.8182	0.	33.927
1606	9.0512	5.6364	0.	212.75
1607	9.2358	5.6364	0.	115.12
1608	9.4203	5.6364	0.	99.621
1609	9.6049	5.6364	0.	98.342
1610	9.7894	5.6364	0.	96.456
1611	9.974	5.6364	0.	91.338
1612	10.159	5.6364	0.	83.263
1613	10.343	5.6364	0.	73.32
1614	10.528	5.6364	0.	62.591
1615	10.712	5.6364	0.	51.919
1616	10.897	5.6364	0.	41.871
1617	11.081	5.6364	0.	32.787
1618	11.266	5.6364	0.	24.828
1619	11.45	5.6364	0.	18.039
1620	11.635	5.6364	0.	12.388
1621	11.82	5.6364	0.	7.8004
1622	12.004	5.6364	0.	4.1852
1623	12.189	5.6364	0.	1.5034
1624	12.373	5.6364	0.	0.26716
1625	12.558	5.6364	0.	0.10832
1626	12.742	5.6364	0.	7.2235e-002
1627	12.927	5.6364	0.	5.7443e-002
1628	13.111	5.6364	0.	4.9387e-002
1629	13.296	5.6364	0.	4.4152e-002
1630	13.48	5.6364	0.	4.0281e-002
1631	13.665	5.6364	0.	3.7277e-002
1632	13.85	5.6364	0.	3.511e-002
1633	14.034	5.6364	0.	3.4444e-002
1634	14.219	5.6364	0.	4.1172e-002
1635	14.403	5.6364	0.	0.41178
1636	14.588	5.6364	0.	1.3316
1637	14.772	5.6364	0.	2.2813
1638	14.957	5.6364	0.	3.2384
1639	15.141	5.6364	0.	4.1931
1640	15.326	5.6364	0.	5.1385
1641	15.511	5.6364	0.	6.0701
1642	15.695	5.6364	0.	6.9846
1643	15.88	5.6364	0.	7.8802
1644	16.064	5.6364	0.	8.7557
1645	16.249	5.6364	0.	9.6111
1646	16.433	5.6364	0.	10.447
1647	16.618	5.6364	0.	11.264
1648	16.802	5.6364	0.	12.063
1649	16.987	5.6364	0.	12.847
1650	17.172	5.6364	0.	13.616
1651	17.356	5.6364	0.	14.373
1652	17.541	5.6364	0.	15.119
1653	17.725	5.6364	0.	15.857
1654	17.91	5.6364	0.	16.59
1655	18.094	5.6364	0.	17.317
1656	18.279	5.6364	0.	18.043
1657	18.463	5.6364	0.	18.769
1658	18.648	5.6364	0.	19.497
1659	18.833	5.6364	0.	20.228
1660	19.017	5.6364	0.	20.966
1661	19.202	5.6364	0.	21.711
1662	19.386	5.6364	0.	22.465
1663	19.571	5.6364	0.	23.23
1664	19.755	5.6364	0.	24.008
1665	19.94	5.6364	0.	24.799
1666	20.124	5.6364	0.	25.606
1667	20.309	5.6364	0.	26.43
1668	20.493	5.6364	0.	27.271
1669	20.678	5.6364	0.	28.13
1670	20.863	5.6364	0.	29.01
1671	21.047	5.6364	0.	29.911
1672	21.232	5.6364	0.	30.834
1673	21.416	5.6364	0.	31.78
1674	21.601	5.6364	0.	32.751
1675	21.785	5.6364	0.	33.75
1676	21.97	5.6364	0.	34.78
1677	22.154	5.6364	0.	35.846
1678	22.339	5.6364	0.	36.956
1679	22.524	5.6364	0.	38.124
1680	22.708	5.6364	0.	39.373
1681	22.893	5.6364	0.	40.742
1682	23.077	5.6364	0.	42.303
1683	23.262	5.6364	0.	44.199
1684	23.446	5.6364	0.	46.708
1685	23.631	5.6364	0.	50.53
1686	23.815	5.6364	0.	57.013
1687	9.0512	5.4545	0.	384.88
1688	9.2358	5.4545	0.	218.
1689	9.4203	5.4545	0.	161.84
1690	9.6049	5.4545	0.	138.12
1691	9.7894	5.4545	0.	123.46
1692	9.974	5.4545	0.	110.43
1693	10.159	5.4545	0.	96.931
1694	10.343	5.4545	0.	82.921
1695	10.528	5.4545	0.	68.93
1696	10.712	5.4545	0.	55.536
1697	10.897	5.4545	0.	43.175
1698	11.081	5.4545	0.	32.122
1699	11.266	5.4545	0.	22.509
1700	11.45	5.4545	0.	14.363
1701	11.635	5.4545	0.	7.6638
1702	11.82	5.4545	0.	2.5277
1703	12.004	5.4545	0.	0.42002
1704	12.189	5.4545	0.	0.15841
1705	12.373	5.4545	0.	9.0156e-002
1706	12.558	5.4545	0.	6.0619e-002
1707	12.742	5.4545	0.	4.4541e-002
1708	12.927	5.4545	0.	3.4532e-002
1709	13.111	5.4545	0.	2.773e-002
1710	13.296	5.4545	0.	2.2825e-002
1711	13.48	5.4545	0.	1.9075e-002
1712	13.665	5.4545	0.	1.6111e-002
1713	13.85	5.4545	0.	1.3726e-002
1714	14.034	5.4545	0.	1.176e-002
1715	14.219	5.4545	0.	1.0114e-002
1716	14.403	5.4545	0.	8.7588e-003
1717	14.588	5.4545	0.	7.7091e-003
1718	14.772	5.4545	0.	7.0247e-003
1719	14.957	5.4545	0.	7.4685e-003
1720	15.141	5.4545	0.	0.14141
1721	15.326	5.4545	0.	1.3485
1722	15.511	5.4545	0.	2.5494
1723	15.695	5.4545	0.	3.7219
1724	15.88	5.4545	0.	4.864
1725	16.064	5.4545	0.	5.9746
1726	16.249	5.4545	0.	7.0543
1727	16.433	5.4545	0.	8.1042
1728	16.618	5.4545	0.	9.126
1729	16.802	5.4545	0.	10.122
1730	16.987	5.4545	0.	11.094
1731	17.172	5.4545	0.	12.046
1732	17.356	5.4545	0.	12.98
1733	17.541	5.4545	0.	13.9
1734	17.725	5.4545	0.	14.808
1735	17.91	5.4545	0.	15.707
1736	18.094	5.4545	0.	16.602
1737	18.279	5.4545	0.	17.495
1738	18.463	5.4545	0.	18.39
1739	18.648	5.4545	0.	19.289
1740	18.833	5.4545	0.	20.197
1741	19.017	5.4545	0.	21.115
1742	19.202	5.4545	0.	22.049
1743	19.386	5.4545	0.	23.
1744	19.571	5.4545	0.	23.972
1745	19.755	5.4545	0.	24.968
1746	19.94	5.4545	0.	25.991
1747	20.124	5.4545	0.	27.046
1748	20.309	5.4545	0.	28.135
1749	20.493	5.4545	0.	29.261
1750	20.678	5.4545	0.	30.43
1751	20.863	5.4545	0.	31.645
1752	21.047	5.4545	0.	32.91
1753	21.232	5.4545	0.	34.232
1754	21.416	5.4545	0.	35.616
1755	21.601	5.4545	0.	37.071
1756	21.785	5.4545	0.	38.608
1757	21.97	5.4545	0.	40.239
1758	22.154	5.4545	0.	41.983
1759	22.339	5.4545	0.	43.866
1760	22.524	5.4545	0.	45.924
1761	22.708	5.4545	0.	48.212
1762	22.893	5.4545	0.	50.814
1763	23.077	5.4545	0.	53.862
1764	23.262	5.4545	0.	57.571
1765	23.446	5.4545	0.	62.274
1766	23.631	5.4545	0.	68.555
1767	23.815	5.4545	0.	77.009
1768	9.0512	5.2727	0.	590.55
1769	9.2358	5.2727	0.	358.03
1770	9.4203	5.2727	0.	251.81
1771	9.6049	5.2727	0.	191.9
1772	9.7894	5.2727	0.	153.33
1773	9.974	5.2727	0.	125.07
1774	10.159	5.2727	0.	102.01
1775	10.343	5.2727	0.	82.041
1776	10.528	5.2727	0.	64.349
1777	10.712	5.2727	0.	48.661
1778	10.897	5.2727	0.	34.895
1779	11.081	5.2727	0.	23.018
1780	11.266	5.2727	0.	13.021
1781	11.45	5.2727	0.	5.1158
1782	11.635	5.2727	0.	1.0847
1783	11.82	5.2727	0.	0.36503
1784	12.004	5.2727	0.	0.18717
1785	12.189	5.2727	0.	0.1154
1786	12.373	5.2727	0.	7.8946e-002
1787	12.558	5.2727	0.	5.7784e-002
1788	12.742	5.2727	0.	4.4344e-002
1789	12.927	5.2727	0.	3.5224e-002
1790	13.111	5.2727	0.	2.8724e-002
1791	13.296	5.2727	0.	2.3926e-002
1792	13.48	5.2727	0.	2.0228e-002
1793	13.665	5.2727	0.	1.7317e-002
1794	13.85	5.2727	0.	1.4996e-002
1795	14.034	5.2727	0.	1.312e-002
1796	14.219	5.2727	0.	1.1585e-002
1797	14.403	5.2727	0.	1.0356e-002
1798	14.588	5.2727	0.	9.4237e-003
1799	14.772	5.2727	0.	8.7568e-003
1800	14.957	5.2727	0.	8.4534e-003
1801	15.141	5.2727	0.	8.785e-003
1802	15.326	5.2727	0.	1.0709e-002
1803	15.511	5.2727	0.	2.1992e-002
1804	15.695	5.2727	0.	0.66006
1805	15.88	5.2727	0.	2.0401
1806	16.064	5.2727	0.	3.3882
1807	16.249	5.2727	0.	4.6948
1808	16.433	5.2727	0.	5.9609
1809	16.618	5.2727	0.	7.189
1810	16.802	5.2727	0.	8.3823
1811	16.987	5.2727	0.	9.5445
1812	17.172	5.2727	0.	10.679
1813	17.356	5.2727	0.	11.791
1814	17.541	5.2727	0.	12.884
1815	17.725	5.2727	0.	13.963
1816	17.91	5.2727	0.	15.031
1817	18.094	5.2727	0.	16.094
1818	18.279	5.2727	0.	17.156
1819	18.463	5.2727	0.	18.221
1820	18.648	5.2727	0.	19.294
1821	18.833	5.2727	0.	20.38
1822	19.017	5.2727	0.	21.483
1823	19.202	5.2727	0.	22.607
1824	19.386	5.2727	0.	23.759
1825	19.571	5.2727	0.	24.942
1826	19.755	5.2727	0.	26.161
1827	19.94	5.2727	0.	27.423
1828	20.124	5.2727	0.	28.731
1829	20.309	5.2727	0.	30.092
1830	20.493	5.2727	0.	31.513
1831	20.678	5.2727	0.	32.999
1832	20.863	5.2727	0.	34.558
1833	21.047	5.2727	0.	36.199
1834	21.232	5.2727	0.	37.932
1835	21.416	5.2727	0.	39.768
1836	21.601	5.2727	0.	41.721
1837	21.785	5.2727	0.	43.809
1838	21.97	5.2727	0.	46.055
1839	22.154	5.2727	0.	48.488
1840	22.339	5.2727	0.	51.147
1841	22.524	5.2727	0.	54.086
1842	22.708	5.2727	0.	57.379
1843	22.893	5.2727	0.	61.132
1844	23.077	5.2727	0.	65.49
1845	23.262	5.2727	0.	70.663
1846	23.446	5.2727	0.	76.907
1847	23.631	5.2727	0.	84.589
1848	23.815	5.2727	0.	93.913
1849	9.0512	5.0909	0.	829.17
1850	9.2358	5.0909	0.	522.39
1851	9.4203	5.0909	0.	358.08
1852	9.6049	5.0909	0.	252.43
1853	9.7894	5.0909	0.	181.92
1854	9.974	5.0909	0.	133.2
1855	10.159	5.0909	0.	97.809
1856	10.343	5.0909	0.	70.844
1857	10.528	5.0909	0.	49.516
1858	10.712	5.0909	0.	32.273
1859	10.897	5.0909	0.	18.315
1860	11.081	5.0909	0.	7.6395
1861	11.266	5.0909	0.	2.1074
1862	11.45	5.0909	0.	0.76626
1863	11.635	5.0909	0.	0.38475
1864	11.82	5.0909	0.	0.22721
1865	12.004	5.0909	0.	0.14756
1866	12.189	5.0909	0.	0.10216
1867	12.373	5.0909	0.	7.4172e-002
1868	12.558	5.0909	0.	5.5871e-002
1869	12.742	5.0909	0.	4.3335e-002
1870	12.927	5.0909	0.	3.443e-002
1871	13.111	5.0909	0.	2.7923e-002
1872	13.296	5.0909	0.	2.3076e-002
1873	13.48	5.0909	0.	1.9353e-002
1874	13.665	5.0909	0.	1.6456e-002
1875	13.85	5.0909	0.	1.4196e-002
1876	14.034	5.0909	0.	1.2412e-002
1877	14.219	5.0909	0.	1.0994e-002
1878	14.403	5.0909	0.	9.8924e-003
1879	14.588	5.0909	0.	9.0804e-003
1880	14.772	5.0909	0.	8.4943e-003
1881	14.957	5.0909	0.	8.1609e-003
1882	15.141	5.0909	0.	8.1514e-003
1883	15.326	5.0909	0.	8.6124e-003
1884	15.511	5.0909	0.	9.985e-003
1885	15.695	5.0909	0.	1.4021e-002
1886	15.88	5.0909	0.	3.7557e-002
1887	16.064	5.0909	0.	0.93407
1888	16.249	5.0909	0.	2.4533
1889	16.433	5.0909	0.	3.932
1890	16.618	5.0909	0.	5.3637
1891	16.802	5.0909	0.	6.7517
1892	16.987	5.0909	0.	8.1007
1893	17.172	5.0909	0.	9.4158
1894	17.356	5.0909	0.	10.702
1895	17.541	5.0909	0.	11.966
1896	17.725	5.0909	0.	13.212
1897	17.91	5.0909	0.	14.446
1898	18.094	5.0909	0.	15.674
1899	18.279	5.0909	0.	16.902
1900	18.463	5.0909	0.	18.135
1901	18.648	5.0909	0.	19.38
1902	18.833	5.0909	0.	20.642
1903	19.017	5.0909	0.	21.928
1904	19.202	5.0909	0.	23.243
1905	19.386	5.0909	0.	24.594
1906	19.571	5.0909	0.	25.988
1907	19.755	5.0909	0.	27.431
1908	19.94	5.0909	0.	28.93
1909	20.124	5.0909	0.	30.492
1910	20.309	5.0909	0.	32.127
1911	20.493	5.0909	0.	33.842
1912	20.678	5.0909	0.	35.647
1913	20.863	5.0909	0.	37.552
1914	21.047	5.0909	0.	39.57
1915	21.232	5.0909	0.	41.714
1916	21.416	5.0909	0.	44.
1917	21.601	5.0909	0.	46.449
1918	21.785	5.0909	0.	49.083
1919	21.97	5.0909	0.	51.932
1920	22.154	5.0909	0.	55.033
1921	22.339	5.0909	0.	58.434
1922	22.524	5.0909	0.	62.197
1923	22.708	5.0909	0.	66.402
1924	22.893	5.0909	0.	71.154
1925	23.077	5.0909	0.	76.585
1926	23.262	5.0909	0.	82.861
1927	23.446	5.0909	0.	90.146
1928	23.631	5.0909	0.	98.665
1929	23.815	5.0909	0.	108.43
1930	9.0512	4.9091	0.	1108.9
1931	9.2358	4.9091	0.	704.95
1932	9.4203	4.9091	0.	468.8
1933	9.6049	4.9091	0.	308.7
1934	9.7894	4.9091	0.	201.51
1935	9.974	4.9091	0.	130.32
1936	10.159	4.9091	0.	82.287
1937	10.343	4.9091	0.	49.066
1938	10.528	4.9091	0.	25.677
1939	10.712	4.9091	0.	10.133
1940	10.897	4.9091	0.	3.2086
1941	11.081	4.9091	0.	1.3274
1942	11.266	4.9091	0.	0.6953
1943	11.45	4.9091	0.	0.41349
1944	11.635	4.9091	0.	0.26568
1945	11.82	4.9091	0.	0.18013
1946	12.004	4.9091	0.	0.1272
1947	12.189	4.9091	0.	9.2789e-002
1948	12.373	4.9091	0.	6.9588e-002
1949	12.558	4.9091	0.	5.3445e-002
1950	12.742	4.9091	0.	4.1907e-002
1951	12.927	4.9091	0.	3.3472e-002
1952	13.111	4.9091	0.	2.7203e-002
1953	13.296	4.9091	0.	2.2494e-002
1954	13.48	4.9091	0.	1.887e-002
1955	13.665	4.9091	0.	1.606e-002
1956	13.85	4.9091	0.	1.3886e-002
1957	14.034	4.9091	0.	1.2189e-002
1958	14.219	4.9091	0.	1.0858e-002
1959	14.403	4.9091	0.	9.8372e-003
1960	14.588	4.9091	0.	9.0945e-003
1961	14.772	4.9091	0.	8.5492e-003
1962	14.957	4.9091	0.	8.2102e-003
1963	15.141	4.9091	0.	8.1045e-003
1964	15.326	4.9091	0.	8.2679e-003
1965	15.511	4.9091	0.	8.8139e-003
1966	15.695	4.9091	0.	1.0084e-002
1967	15.88	4.9091	0.	1.3156e-002
1968	16.064	4.9091	0.	2.4123e-002
1969	16.249	4.9091	0.	0.3909
1970	16.433	4.9091	0.	2.0235
1971	16.618	4.9091	0.	3.651
1972	16.802	4.9091	0.	5.2283
1973	16.987	4.9091	0.	6.759
1974	17.172	4.9091	0.	8.249
1975	17.356	4.9091	0.	9.7051
1976	17.541	4.9091	0.	11.134
1977	17.725	4.9091	0.	12.542
1978	17.91	4.9091	0.	13.937
1979	18.094	4.9091	0.	15.326
1980	18.279	4.9091	0.	16.715
1981	18.463	4.9091	0.	18.112
1982	18.648	4.9091	0.	19.524
1983	18.833	4.9091	0.	20.958
1984	19.017	4.9091	0.	22.422
1985	19.202	4.9091	0.	23.923
1986	19.386	4.9091	0.	25.47
1987	19.571	4.9091	0.	27.069
1988	19.755	4.9091	0.	28.731
1989	19.94	4.9091	0.	30.463
1990	20.124	4.9091	0.	32.276
1991	20.309	4.9091	0.	34.178
1992	20.493	4.9091	0.	36.182
1993	20.678	4.9091	0.	38.3
1994	20.863	4.9091	0.	40.544
1995	21.047	4.9091	0.	42.93
1996	21.232	4.9091	0.	45.475
1997	21.416	4.9091	0.	48.198
1998	21.601	4.9091	0.	51.124
1999	21.785	4.9091	0.	54.28
2000	21.97	4.9091	0.	57.7
2001	22.154	4.9091	0.	61.425
2002	22.339	4.9091	0.	65.506
2003	22.524	4.9091	0.	70.004
2004	22.708	4.9091	0.	74.998
2005	22.893	4.9091	0.	80.579
2006	23.077	4.9091	0.	86.852
2007	23.262	4.9091	0.	93.938
2008	23.446	4.9091	0.	101.93
2009	23.631	4.9091	0.	110.97
2010	23.815	4.9091	0.	120.99
2011	9.0512	4.7273	0.	1447.8
2012	9.2358	4.7273	0.	900.18
2013	9.4203	4.7273	0.	566.7
2014	9.6049	4.7273	0.	345.36
2015	9.7894	4.7273	0.	201.84
2016	9.974	4.7273	0.	110.86
2017	10.159	4.7273	0.	53.639
2018	10.343	4.7273	0.	19.377
2019	10.528	4.7273	0.	5.4009
2020	10.712	4.7273	0.	2.1618
2021	10.897	4.7273	0.	1.1416
2022	11.081	4.7273	0.	0.68669
2023	11.266	4.7273	0.	0.44395
2024	11.45	4.7273	0.	0.30071
2025	11.635	4.7273	0.	0.21071
2026	11.82	4.7273	0.	0.15167
2027	12.004	4.7273	0.	0.11164
2028	12.189	4.7273	0.	8.3798e-002
2029	12.373	4.7273	0.	6.4054e-002
2030	12.558	4.7273	0.	4.9791e-002
2031	12.742	4.7273	0.	3.9319e-002
2032	12.927	4.7273	0.	3.152e-002
2033	13.111	4.7273	0.	2.5657e-002
2034	13.296	4.7273	0.	2.1233e-002
2035	13.48	4.7273	0.	1.7824e-002
2036	13.665	4.7273	0.	1.5195e-002
2037	13.85	4.7273	0.	1.3176e-002
2038	14.034	4.7273	0.	1.1616e-002
2039	14.219	4.7273	0.	1.0411e-002
2040	14.403	4.7273	0.	9.4978e-003
2041	14.588	4.7273	0.	8.8474e-003
2042	14.772	4.7273	0.	8.3758e-003
2043	14.957	4.7273	0.	8.0787e-003
2044	15.141	4.7273	0.	7.9674e-003
2045	15.326	4.7273	0.	8.0449e-003
2046	15.511	4.7273	0.	8.3482e-003
2047	15.695	4.7273	0.	9.0081e-003
2048	15.88	4.7273	0.	1.0329e-002
2049	16.064	4.7273	0.	1.3206e-002
2050	16.249	4.7273	0.	2.272e-002
2051	16.433	4.7273	0.	0.31516
2052	16.618	4.7273	0.	2.0598
2053	16.802	4.7273	0.	3.8167
2054	16.987	4.7273	0.	5.5216
2055	17.172	4.7273	0.	7.1794
2056	17.356	4.7273	0.	8.7979
2057	17.541	4.7273	0.	10.385
2058	17.725	4.7273	0.	11.949
2059	17.91	4.7273	0.	13.498
2060	18.094	4.7273	0.	15.04
2061	18.279	4.7273	0.	16.584
2062	18.463	4.7273	0.	18.137
2063	18.648	4.7273	0.	19.709
2064	18.833	4.7273	0.	21.309
2065	19.017	4.7273	0.	22.944
2066	19.202	4.7273	0.	24.624
2067	19.386	4.7273	0.	26.358
2068	19.571	4.7273	0.	28.156
2069	19.755	4.7273	0.	30.028
2070	19.94	4.7273	0.	31.985
2071	20.124	4.7273	0.	34.038
2072	20.309	4.7273	0.	36.199
2073	20.493	4.7273	0.	38.481
2074	20.678	4.7273	0.	40.898
2075	20.863	4.7273	0.	43.467
2076	21.047	4.7273	0.	46.204
2077	21.232	4.7273	0.	49.13
2078	21.416	4.7273	0.	52.267
2079	21.601	4.7273	0.	55.641
2080	21.785	4.7273	0.	59.282
2081	21.97	4.7273	0.	63.226
2082	22.154	4.7273	0.	67.514
2083	22.339	4.7273	0.	72.197
2084	22.524	4.7273	0.	77.333
2085	22.708	4.7273	0.	82.988
2086	22.893	4.7273	0.	89.238
2087	23.077	4.7273	0.	96.162
2088	23.262	4.7273	0.	103.84
2089	23.446	4.7273	0.	112.33
2090	23.631	4.7273	0.	121.72
2091	23.815	4.7273	0.	131.88
2092	9.0512	4.5455	0.	1858.6
2093	9.2358	4.5455	0.	1077.6
2094	9.4203	4.5455	0.	624.95
2095	9.6049	4.5455	0.	342.84
2096	9.7894	4.5455	0.	172.3
2097	9.974	4.5455	0.	71.12
2098	10.159	4.5455	0.	17.551
2099	10.343	4.5455	0.	4.2972
2100	10.528	4.5455	0.	1.9266
2101	10.712	4.5455	0.	1.1025
2102	10.897	4.5455	0.	0.70199
2103	11.081	4.5455	0.	0.47373
2104	11.266	4.5455	0.	0.33142
2105	11.45	4.5455	0.	0.23777
2106	11.635	4.5455	0.	0.1739
2107	11.82	4.5455	0.	0.12925
2108	12.004	4.5455	0.	9.744e-002
2109	12.189	4.5455	0.	7.4405e-002
2110	12.373	4.5455	0.	5.7565e-002
2111	12.558	4.5455	0.	4.5115e-002
2112	12.742	4.5455	0.	3.5812e-002
2113	12.927	4.5455	0.	2.8807e-002
2114	13.111	4.5455	0.	2.3505e-002
2115	13.296	4.5455	0.	1.9497e-002
2116	13.48	4.5455	0.	1.6413e-002
2117	13.665	4.5455	0.	1.4045e-002
2118	13.85	4.5455	0.	1.2243e-002
2119	14.034	4.5455	0.	1.0868e-002
2120	14.219	4.5455	0.	9.8181e-003
2121	14.403	4.5455	0.	9.0417e-003
2122	14.588	4.5455	0.	8.5035e-003
2123	14.772	4.5455	0.	8.1206e-003
2124	14.957	4.5455	0.	7.886e-003
2125	15.141	4.5455	0.	7.8099e-003
2126	15.326	4.5455	0.	7.8709e-003
2127	15.511	4.5455	0.	8.0873e-003
2128	15.695	4.5455	0.	8.5162e-003
2129	15.88	4.5455	0.	9.299e-003
2130	16.064	4.5455	0.	1.0698e-002
2131	16.249	4.5455	0.	1.3772e-002
2132	16.433	4.5455	0.	2.5266e-002
2133	16.618	4.5455	0.	0.61959
2134	16.802	4.5455	0.	2.5229
2135	16.987	4.5455	0.	4.3916
2136	17.172	4.5455	0.	6.208
2137	17.356	4.5455	0.	7.9799
2138	17.541	4.5455	0.	9.7163
2139	17.725	4.5455	0.	11.427
2140	17.91	4.5455	0.	13.121
2141	18.094	4.5455	0.	14.807
2142	18.279	4.5455	0.	16.497
2143	18.463	4.5455	0.	18.198
2144	18.648	4.5455	0.	19.921
2145	18.833	4.5455	0.	21.676
2146	19.017	4.5455	0.	23.473
2147	19.202	4.5455	0.	25.322
2148	19.386	4.5455	0.	27.233
2149	19.571	4.5455	0.	29.219
2150	19.755	4.5455	0.	31.29
2151	19.94	4.5455	0.	33.459
2152	20.124	4.5455	0.	35.739
2153	20.309	4.5455	0.	38.144
2154	20.493	4.5455	0.	40.688
2155	20.678	4.5455	0.	43.387
2156	20.863	4.5455	0.	46.26
2157	21.047	4.5455	0.	49.325
2158	21.232	4.5455	0.	52.605
2159	21.416	4.5455	0.	56.123
2160	21.601	4.5455	0.	59.907
2161	21.785	4.5455	0.	63.988
2162	21.97	4.5455	0.	68.401
2163	22.154	4.5455	0.	73.187
2164	22.339	4.5455	0.	78.391
2165	22.524	4.5455	0.	84.064
2166	22.708	4.5455	0.	90.263
2167	22.893	4.5455	0.	97.045
2168	23.077	4.5455	0.	104.47
2169	23.262	4.5455	0.	112.59
2170	23.446	4.5455	0.	121.42
2171	23.631	4.5455	0.	131.05
2172	23.815	4.5455	0.	141.31
2173	9.0512	4.3636	0.	2440.5
2174	9.2358	4.3636	0.	1178.1
2175	9.4203	4.3636	0.	591.83
2176	9.6049	4.3636	0.	282.6
2177	9.7894	4.3636	0.	108.15
2178	9.974	4.3636	0.	20.878
2179	10.159	4.3636	0.	4.2387
2180	10.343	4.3636	0.	1.9163
2181	10.528	4.3636	0.	1.1155
2182	10.712	4.3636	0.	0.72726
2183	10.897	4.3636	0.	0.5015
2184	11.081	4.3636	0.	0.35786
2185	11.266	4.3636	0.	0.26096
2186	11.45	4.3636	0.	0.19325
2187	11.635	4.3636	0.	0.14483
2188	11.82	4.3636	0.	0.10968
2189	12.004	4.3636	0.	8.3845e-002
2190	12.189	4.3636	0.	6.4674e-002
2191	12.373	4.3636	0.	5.0394e-002
2192	12.558	4.3636	0.	3.9687e-002
2193	12.742	4.3636	0.	3.1609e-002
2194	12.927	4.3636	0.	2.5488e-002
2195	13.111	4.3636	0.	2.0848e-002
2196	13.296	4.3636	0.	1.7348e-002
2197	13.48	4.3636	0.	1.4668e-002
2198	13.665	4.3636	0.	1.2624e-002
2199	13.85	4.3636	0.	1.1089e-002
2200	14.034	4.3636	0.	9.9377e-003
2201	14.219	4.3636	0.	9.0773e-003
2202	14.403	4.3636	0.	8.456e-003
2203	14.588	4.3636	0.	8.0498e-003
2204	14.772	4.3636	0.	7.7732e-003
2205	14.957	4.3636	0.	7.6238e-003
2206	15.141	4.3636	0.	7.5991e-003
2207	15.326	4.3636	0.	7.6848e-003
2208	15.511	4.3636	0.	7.8791e-003
2209	15.695	4.3636	0.	8.2176e-003
2210	15.88	4.3636	0.	8.7711e-003
2211	16.064	4.3636	0.	9.6358e-003
2212	16.249	4.3636	0.	1.1201e-002
2213	16.433	4.3636	0.	1.4957e-002
2214	16.618	4.3636	0.	3.7688e-002
2215	16.802	4.3636	0.	1.3556
2216	16.987	4.3636	0.	3.373
2217	17.172	4.3636	0.	5.3365
2218	17.356	4.3636	0.	7.2508
2219	17.541	4.3636	0.	9.1256
2220	17.725	4.3636	0.	10.972
2221	17.91	4.3636	0.	12.8
2222	18.094	4.3636	0.	14.62
2223	18.279	4.3636	0.	16.444
2224	18.463	4.3636	0.	18.283
2225	18.648	4.3636	0.	20.146
2226	18.833	4.3636	0.	22.045
2227	19.017	4.3636	0.	23.991
2228	19.202	4.3636	0.	25.997
2229	19.386	4.3636	0.	28.073
2230	19.571	4.3636	0.	30.232
2231	19.755	4.3636	0.	32.488
2232	19.94	4.3636	0.	34.854
2233	20.124	4.3636	0.	37.344
2234	20.309	4.3636	0.	39.973
2235	20.493	4.3636	0.	42.759
2236	20.678	4.3636	0.	45.718
2237	20.863	4.3636	0.	48.87
2238	21.047	4.3636	0.	52.235
2239	21.232	4.3636	0.	55.836
2240	21.416	4.3636	0.	59.698
2241	21.601	4.3636	0.	63.849
2242	21.785	4.3636	0.	68.319
2243	21.97	4.3636	0.	73.143
2244	22.154	4.3636	0.	78.357
2245	22.339	4.3636	0.	84.003
2246	22.524	4.3636	0.	90.123
2247	22.708	4.3636	0.	96.762
2248	22.893	4.3636	0.	103.97
2249	23.077	4.3636	0.	111.77
2250	23.262	4.3636	0.	120.22
2251	23.446	4.3636	0.	129.31
2252	23.631	4.3636	0.	139.11
2253	23.815	4.3636	0.	149.43
2254	9.0512	4.1818	0.	2697.9
2255	9.2358	4.1818	0.	1074.
2256	9.4203	4.1818	0.	435.72
2257	9.6049	4.1818	0.	165.25
2258	9.7894	4.1818	0.	28.551
2259	9.974	4.1818	0.	4.5331
2260	10.159	4.1818	0.	1.9351
2261	10.343	4.1818	0.	1.1428
2262	10.528	4.1818	0.	0.74891
2263	10.712	4.1818	0.	0.5252
2264	10.897	4.1818	0.	0.37976
2265	11.081	4.1818	0.	0.28047
2266	11.266	4.1818	0.	0.20975
2267	11.45	4.1818	0.	0.15829
2268	11.635	4.1818	0.	0.12031
2269	11.82	4.1818	0.	9.205e-002
2270	12.004	4.1818	0.	7.088e-002
2271	12.189	4.1818	0.	5.4933e-002
2272	12.373	4.1818	0.	4.2935e-002
2273	12.558	4.1818	0.	3.3879e-002
2274	12.742	4.1818	0.	2.7021e-002
2275	12.927	4.1818	0.	2.1822e-002
2276	13.111	4.1818	0.	1.7894e-002
2277	13.296	4.1818	0.	1.4954e-002
2278	13.48	4.1818	0.	1.2721e-002
2279	13.665	4.1818	0.	1.1041e-002
2280	13.85	4.1818	0.	9.803e-003
2281	14.034	4.1818	0.	8.899e-003
2282	14.219	4.1818	0.	8.243e-003
2283	14.403	4.1818	0.	7.7943e-003
2284	14.588	4.1818	0.	7.53e-003
2285	14.772	4.1818	0.	7.3711e-003
2286	14.957	4.1818	0.	7.314e-003
2287	15.141	4.1818	0.	7.3579e-003
2288	15.326	4.1818	0.	7.4885e-003
2289	15.511	4.1818	0.	7.6928e-003
2290	15.695	4.1818	0.	7.9954e-003
2291	15.88	4.1818	0.	8.4466e-003
2292	16.064	4.1818	0.	9.0667e-003
2293	16.249	4.1818	0.	1.004e-002
2294	16.433	4.1818	0.	1.1919e-002
2295	16.618	4.1818	0.	1.766e-002
2296	16.802	4.1818	0.	0.35069
2297	16.987	4.1818	0.	2.4696
2298	17.172	4.1818	0.	4.5669
2299	17.356	4.1818	0.	6.6105
2300	17.541	4.1818	0.	8.6112
2301	17.725	4.1818	0.	10.58
2302	17.91	4.1818	0.	12.53
2303	18.094	4.1818	0.	14.472
2304	18.279	4.1818	0.	16.418
2305	18.463	4.1818	0.	18.38
2306	18.648	4.1818	0.	20.37
2307	18.833	4.1818	0.	22.4
2308	19.017	4.1818	0.	24.483
2309	19.202	4.1818	0.	26.63
2310	19.386	4.1818	0.	28.855
2311	19.571	4.1818	0.	31.172
2312	19.755	4.1818	0.	33.595
2313	19.94	4.1818	0.	36.139
2314	20.124	4.1818	0.	38.819
2315	20.309	4.1818	0.	41.652
2316	20.493	4.1818	0.	44.655
2317	20.678	4.1818	0.	47.847
2318	20.863	4.1818	0.	51.248
2319	21.047	4.1818	0.	54.881
2320	21.232	4.1818	0.	58.767
2321	21.416	4.1818	0.	62.932
2322	21.601	4.1818	0.	67.405
2323	21.785	4.1818	0.	72.212
2324	21.97	4.1818	0.	77.388
2325	22.154	4.1818	0.	82.964
2326	22.339	4.1818	0.	88.977
2327	22.524	4.1818	0.	95.462
2328	22.708	4.1818	0.	102.45
2329	22.893	4.1818	0.	109.99
2330	23.077	4.1818	0.	118.09
2331	23.262	4.1818	0.	126.78
2332	23.446	4.1818	0.	136.06
2333	23.631	4.1818	0.	145.99
2334	23.815	4.1818	0.	156.35
2335	9.0512	4.	0.	1755.9
2336	9.2358	4.	0.	611.39
2337	9.4203	4.	0.	229.28
2338	9.6049	4.	0.	42.217
2339	9.7894	4.	0.	3.7941
2340	9.974	4.	0.	2.0487
2341	10.159	4.	0.	1.0926
2342	10.343	4.	0.	0.76954
2343	10.528	4.	0.	0.53979
2344	10.712	4.	0.	0.39929
2345	10.897	4.	0.	0.2979
2346	11.081	4.	0.	0.22495
2347	11.266	4.	0.	0.1707
2348	11.45	4.	0.	0.13009
2349	11.635	4.	0.	9.9474e-002
2350	11.82	4.	0.	7.636e-002
2351	12.004	4.	0.	5.8873e-002
2352	12.189	4.	0.	4.5614e-002
2353	12.373	4.	0.	3.5612e-002
2354	12.558	4.	0.	2.8065e-002
2355	12.742	4.	0.	2.2365e-002
2356	12.927	4.	0.	1.8068e-002
2357	13.111	4.	0.	1.4851e-002
2358	13.296	4.	0.	1.248e-002
2359	13.48	4.	0.	1.0705e-002
2360	13.665	4.	0.	9.3983e-003
2361	13.85	4.	0.	8.4712e-003
2362	14.034	4.	0.	7.8195e-003
2363	14.219	4.	0.	7.376e-003
2364	14.403	4.	0.	7.1029e-003
2365	14.588	4.	0.	6.983e-003
2366	14.772	4.	0.	6.9437e-003
2367	14.957	4.	0.	6.9823e-003
2368	15.141	4.	0.	7.103e-003
2369	15.326	4.	0.	7.284e-003
2370	15.511	4.	0.	7.5162e-003
2371	15.695	4.	0.	7.8192e-003
2372	15.88	4.	0.	8.2204e-003
2373	16.064	4.	0.	8.7175e-003
2374	16.249	4.	0.	9.4073e-003
2375	16.433	4.	0.	1.0543e-002
2376	16.618	4.	0.	1.3095e-002
2377	16.802	4.	0.	3.1891e-002
2378	16.987	4.	0.	1.6858
2379	17.172	4.	0.	3.9012
2380	17.356	4.	0.	6.0597
2381	17.541	4.	0.	8.1717
2382	17.725	4.	0.	10.25
2383	17.91	4.	0.	12.307
2384	18.094	4.	0.	14.357
2385	18.279	4.	0.	16.411
2386	18.463	4.	0.	18.482
2387	18.648	4.	0.	20.584
2388	18.833	4.	0.	22.73
2389	19.017	4.	0.	24.932
2390	19.202	4.	0.	27.204
2391	19.386	4.	0.	29.562
2392	19.571	4.	0.	32.018
2393	19.755	4.	0.	34.588
2394	19.94	4.	0.	37.289
2395	20.124	4.	0.	40.136
2396	20.309	4.	0.	43.147
2397	20.493	4.	0.	46.341
2398	20.678	4.	0.	49.738
2399	20.863	4.	0.	53.357
2400	21.047	4.	0.	57.221
2401	21.232	4.	0.	61.354
2402	21.416	4.	0.	65.78
2403	21.601	4.	0.	70.526
2404	21.785	4.	0.	75.619
2405	21.97	4.	0.	81.089
2406	22.154	4.	0.	86.965
2407	22.339	4.	0.	93.277
2408	22.524	4.	0.	100.06
2409	22.708	4.	0.	107.33
2410	22.893	4.	0.	115.12
2411	23.077	4.	0.	123.45
2412	23.262	4.	0.	132.33
2413	23.446	4.	0.	141.74
2414	23.631	4.	0.	151.76
2415	23.815	4.	0.	162.16
2416	9.0512	3.8182	0.	839.33
2417	9.2358	3.8182	0.	371.42
2418	9.4203	3.8182	0.	94.683
2419	9.6049	3.8182	0.	5.9051
2420	9.7894	3.8182	0.	1.0284
2421	9.974	3.8182	0.	1.2379
2422	10.159	3.8182	0.	0.72759
2423	10.343	3.8182	0.	0.57143
2424	10.528	3.8182	0.	0.42052
2425	10.712	3.8182	0.	0.32082
2426	10.897	3.8182	0.	0.24347
2427	11.081	3.8182	0.	0.18555
2428	11.266	3.8182	0.	0.14136
2429	11.45	3.8182	0.	0.10776
2430	11.635	3.8182	0.	8.223e-002
2431	11.82	3.8182	0.	6.2882e-002
2432	12.004	3.8182	0.	4.8236e-002
2433	12.189	3.8182	0.	3.7153e-002
2434	12.373	3.8182	0.	2.8837e-002
2435	12.558	3.8182	0.	2.2609e-002
2436	12.742	3.8182	0.	1.7949e-002
2437	12.927	3.8182	0.	1.4482e-002
2438	13.111	3.8182	0.	1.193e-002
2439	13.296	3.8182	0.	1.0098e-002
2440	13.48	3.8182	0.	8.7608e-003
2441	13.665	3.8182	0.	7.8139e-003
2442	13.85	3.8182	0.	7.1812e-003
2443	14.034	3.8182	0.	6.7746e-003
2444	14.219	3.8182	0.	6.5315e-003
2445	14.403	3.8182	0.	6.4274e-003
2446	14.588	3.8182	0.	6.4484e-003
2447	14.772	3.8182	0.	6.5223e-003
2448	14.957	3.8182	0.	6.655e-003
2449	15.141	3.8182	0.	6.8485e-003
2450	15.326	3.8182	0.	7.0837e-003
2451	15.511	3.8182	0.	7.3524e-003
2452	15.695	3.8182	0.	7.6658e-003
2453	15.88	3.8182	0.	8.051e-003
2454	16.064	3.8182	0.	8.4839e-003
2455	16.249	3.8182	0.	9.0239e-003
2456	16.433	3.8182	0.	9.7985e-003
2457	16.618	3.8182	0.	1.1197e-002
2458	16.802	3.8182	0.	1.6406e-002
2459	16.987	3.8182	0.	1.0259
2460	17.172	3.8182	0.	3.3418
2461	17.356	3.8182	0.	5.5989
2462	17.541	3.8182	0.	7.8064
2463	17.725	3.8182	0.	9.978
2464	17.91	3.8182	0.	12.127
2465	18.094	3.8182	0.	14.268
2466	18.279	3.8182	0.	16.415
2467	18.463	3.8182	0.	18.58
2468	18.648	3.8182	0.	20.777
2469	18.833	3.8182	0.	23.022
2470	19.017	3.8182	0.	25.326
2471	19.202	3.8182	0.	27.706
2472	19.386	3.8182	0.	30.175
2473	19.571	3.8182	0.	32.75
2474	19.755	3.8182	0.	35.447
2475	19.94	3.8182	0.	38.281
2476	20.124	3.8182	0.	41.271
2477	20.309	3.8182	0.	44.434
2478	20.493	3.8182	0.	47.79
2479	20.678	3.8182	0.	51.359
2480	20.863	3.8182	0.	55.162
2481	21.047	3.8182	0.	59.221
2482	21.232	3.8182	0.	63.56
2483	21.416	3.8182	0.	68.203
2484	21.601	3.8182	0.	73.175
2485	21.785	3.8182	0.	78.502
2486	21.97	3.8182	0.	84.211
2487	22.154	3.8182	0.	90.329
2488	22.339	3.8182	0.	96.88
2489	22.524	3.8182	0.	103.89
2490	22.708	3.8182	0.	111.38
2491	22.893	3.8182	0.	119.37
2492	23.077	3.8182	0.	127.87
2493	23.262	3.8182	0.	136.89
2494	23.446	3.8182	0.	146.41
2495	23.631	3.8182	0.	156.49
2496	23.815	3.8182	0.	166.91
2497	9.0512	3.6364	0.	832.04
2498	9.2358	3.6364	0.	367.81
2499	9.4203	3.6364	0.	89.654
2500	9.6049	3.6364	0.	1.1398
2501	9.7894	3.6364	0.	1.1615
2502	9.974	3.6364	0.	0.83874
2503	10.159	3.6364	0.	0.62294
2504	10.343	3.6364	0.	0.47933
2505	10.528	3.6364	0.	0.36404
2506	10.712	3.6364	0.	0.27752
2507	10.897	3.6364	0.	0.21049
2508	11.081	3.6364	0.	0.15941
2509	11.266	3.6364	0.	0.12047
2510	11.45	3.6364	0.	9.0954e-002
2511	11.635	3.6364	0.	6.8664e-002
2512	11.82	3.6364	0.	5.191e-002
2513	12.004	3.6364	0.	3.9349e-002
2514	12.189	3.6364	0.	2.9941e-002
2515	12.373	3.6364	0.	2.2975e-002
2516	12.558	3.6364	0.	1.7834e-002
2517	12.742	3.6364	0.	1.4057e-002
2518	12.927	3.6364	0.	1.1302e-002
2519	13.111	3.6364	0.	9.331e-003
2520	13.296	3.6364	0.	7.9713e-003
2521	13.48	3.6364	0.	7.0229e-003
2522	13.665	3.6364	0.	6.3968e-003
2523	13.85	3.6364	0.	6.0256e-003
2524	14.034	3.6364	0.	5.838e-003
2525	14.219	3.6364	0.	5.7746e-003
2526	14.403	3.6364	0.	5.8208e-003
2527	14.588	3.6364	0.	5.9637e-003
2528	14.772	3.6364	0.	6.1406e-003
2529	14.957	3.6364	0.	6.3554e-003
2530	15.141	3.6364	0.	6.616e-003
2531	15.326	3.6364	0.	6.9037e-003
2532	15.511	3.6364	0.	7.2063e-003
2533	15.695	3.6364	0.	7.5399e-003
2534	15.88	3.6364	0.	7.9222e-003
2535	16.064	3.6364	0.	8.3218e-003
2536	16.249	3.6364	0.	8.7796e-003
2537	16.433	3.6364	0.	9.36e-003
2538	16.618	3.6364	0.	1.0229e-002
2539	16.802	3.6364	0.	1.2439e-002
2540	16.987	3.6364	0.	0.49505
2541	17.172	3.6364	0.	2.891
2542	17.356	3.6364	0.	5.229
2543	17.541	3.6364	0.	7.5146
2544	17.725	3.6364	0.	9.7625
2545	17.91	3.6364	0.	11.987
2546	18.094	3.6364	0.	14.203
2547	18.279	3.6364	0.	16.425
2548	18.463	3.6364	0.	18.666
2549	18.648	3.6364	0.	20.942
2550	18.833	3.6364	0.	23.267
2551	19.017	3.6364	0.	25.655
2552	19.202	3.6364	0.	28.122
2553	19.386	3.6364	0.	30.683
2554	19.571	3.6364	0.	33.355
2555	19.755	3.6364	0.	36.154
2556	19.94	3.6364	0.	39.097
2557	20.124	3.6364	0.	42.202
2558	20.309	3.6364	0.	45.489
2559	20.493	3.6364	0.	48.976
2560	20.678	3.6364	0.	52.685
2561	20.863	3.6364	0.	56.636
2562	21.047	3.6364	0.	60.852
2563	21.232	3.6364	0.	65.357
2564	21.416	3.6364	0.	70.172
2565	21.601	3.6364	0.	75.324
2566	21.785	3.6364	0.	80.836
2567	21.97	3.6364	0.	86.733
2568	22.154	3.6364	0.	93.037
2569	22.339	3.6364	0.	99.773
2570	22.524	3.6364	0.	106.96
2571	22.708	3.6364	0.	114.61
2572	22.893	3.6364	0.	122.75
2573	23.077	3.6364	0.	131.37
2574	23.262	3.6364	0.	140.5
2575	23.446	3.6364	0.	150.1
2576	23.631	3.6364	0.	160.23
2577	23.815	3.6364	0.	170.66
2578	9.0512	3.4545	0.	758.02
2579	9.2358	3.4545	0.	418.96
2580	9.4203	3.4545	0.	134.42
2581	9.6049	3.4545	0.	1.8535
2582	9.7894	3.4545	0.	1.121
2583	9.974	3.4545	0.	0.79594
2584	10.159	3.4545	0.	0.61474
2585	10.343	3.4545	0.	0.46164
2586	10.528	3.4545	0.	0.34728
2587	10.712	3.4545	0.	0.25969
2588	10.897	3.4545	0.	0.19354
2589	11.081	3.4545	0.	0.14389
2590	11.266	3.4545	0.	0.10682
2591	11.45	3.4545	0.	7.9228e-002
2592	11.635	3.4545	0.	5.8762e-002
2593	11.82	3.4545	0.	4.3642e-002
2594	12.004	3.4545	0.	3.2496e-002
2595	12.189	3.4545	0.	2.4288e-002
2596	12.373	3.4545	0.	1.8324e-002
2597	12.558	3.4545	0.	1.4015e-002
2598	12.742	3.4545	0.	1.0922e-002
2599	12.927	3.4545	0.	8.7301e-003
2600	13.111	3.4545	0.	7.2237e-003
2601	13.296	3.4545	0.	6.2441e-003
2602	13.48	3.4545	0.	5.6085e-003
2603	13.665	3.4545	0.	5.2409e-003
2604	13.85	3.4545	0.	5.0843e-003
2605	14.034	3.4545	0.	5.0738e-003
2606	14.219	3.4545	0.	5.1578e-003
2607	14.403	3.4545	0.	5.3239e-003
2608	14.588	3.4545	0.	5.5681e-003
2609	14.772	3.4545	0.	5.8275e-003
2610	14.957	3.4545	0.	6.1117e-003
2611	15.141	3.4545	0.	6.426e-003
2612	15.326	3.4545	0.	6.7551e-003
2613	15.511	3.4545	0.	7.0896e-003
2614	15.695	3.4545	0.	7.4412e-003
2615	15.88	3.4545	0.	7.8273e-003
2616	16.064	3.4545	0.	8.2137e-003
2617	16.249	3.4545	0.	8.6223e-003
2618	16.433	3.4545	0.	9.0954e-003
2619	16.618	3.4545	0.	9.6918e-003
2620	16.802	3.4545	0.	1.079e-002
2621	16.987	3.4545	0.	0.11183
2622	17.172	3.4545	0.	2.5507
2623	17.356	3.4545	0.	4.9506
2624	17.541	3.4545	0.	7.296
2625	17.725	3.4545	0.	9.602
2626	17.91	3.4545	0.	11.884
2627	18.094	3.4545	0.	14.157
2628	18.279	3.4545	0.	16.436
2629	18.463	3.4545	0.	18.736
2630	18.648	3.4545	0.	21.071
2631	18.833	3.4545	0.	23.457
2632	19.017	3.4545	0.	25.909
2633	19.202	3.4545	0.	28.443
2634	19.386	3.4545	0.	31.074
2635	19.571	3.4545	0.	33.819
2636	19.755	3.4545	0.	36.696
2637	19.94	3.4545	0.	39.722
2638	20.124	3.4545	0.	42.915
2639	20.309	3.4545	0.	46.295
2640	20.493	3.4545	0.	49.882
2641	20.678	3.4545	0.	53.697
2642	20.863	3.4545	0.	57.76
2643	21.047	3.4545	0.	62.094
2644	21.232	3.4545	0.	66.722
2645	21.416	3.4545	0.	71.667
2646	21.601	3.4545	0.	76.952
2647	21.785	3.4545	0.	82.601
2648	21.97	3.4545	0.	88.636
2649	22.154	3.4545	0.	95.078
2650	22.339	3.4545	0.	101.95
2651	22.524	3.4545	0.	109.26
2652	22.708	3.4545	0.	117.03
2653	22.893	3.4545	0.	125.27
2654	23.077	3.4545	0.	133.99
2655	23.262	3.4545	0.	143.18
2656	23.446	3.4545	0.	152.84
2657	23.631	3.4545	0.	163.
2658	23.815	3.4545	0.	173.44
2659	9.0512	3.2727	0.	725.07
2660	9.2358	3.2727	0.	439.79
2661	9.4203	3.2727	0.	172.54
2662	9.6049	3.2727	0.	1.8366
2663	9.7894	3.2727	0.	1.0757
2664	9.974	3.2727	0.	0.84917
2665	10.159	3.2727	0.	0.64039
2666	10.343	3.2727	0.	0.47645
2667	10.528	3.2727	0.	0.3505
2668	10.712	3.2727	0.	0.2563
2669	10.897	3.2727	0.	0.18682
2670	11.081	3.2727	0.	0.13599
2671	11.266	3.2727	0.	9.8944e-002
2672	11.45	3.2727	0.	7.1968e-002
2673	11.635	3.2727	0.	5.2361e-002
2674	11.82	3.2727	0.	3.8147e-002
2675	12.004	3.2727	0.	2.7855e-002
2676	12.189	3.2727	0.	2.041e-002
2677	12.373	3.2727	0.	1.5104e-002
2678	12.558	3.2727	0.	1.1353e-002
2679	12.742	3.2727	0.	8.7276e-003
2680	12.927	3.2727	0.	6.9255e-003
2681	13.111	3.2727	0.	5.7383e-003
2682	13.296	3.2727	0.	5.0274e-003
2683	13.48	3.2727	0.	4.6123e-003
2684	13.665	3.2727	0.	4.4246e-003
2685	13.85	3.2727	0.	4.4182e-003
2686	14.034	3.2727	0.	4.5312e-003
2687	14.219	3.2727	0.	4.7201e-003
2688	14.403	3.2727	0.	4.9714e-003
2689	14.588	3.2727	0.	5.2867e-003
2690	14.772	3.2727	0.	5.6055e-003
2691	14.957	3.2727	0.	5.9375e-003
2692	15.141	3.2727	0.	6.288e-003
2693	15.326	3.2727	0.	6.6499e-003
2694	15.511	3.2727	0.	7.0061e-003
2695	15.695	3.2727	0.	7.3721e-003
2696	15.88	3.2727	0.	7.7622e-003
2697	16.064	3.2727	0.	8.1423e-003
2698	16.249	3.2727	0.	8.5272e-003
2699	16.433	3.2727	0.	8.9422e-003
2700	16.618	3.2727	0.	9.3983e-003
2701	16.802	3.2727	0.	1.0013e-002
2702	16.987	3.2727	0.	1.6057e-002
2703	17.172	3.2727	0.	2.3227
2704	17.356	3.2727	0.	4.7646
2705	17.541	3.2727	0.	7.1503
2706	17.725	3.2727	0.	9.4956
2707	17.91	3.2727	0.	11.816
2708	18.094	3.2727	0.	14.128
2709	18.279	3.2727	0.	16.446
2710	18.463	3.2727	0.	18.784
2711	18.648	3.2727	0.	21.16
2712	18.833	3.2727	0.	23.587
2713	19.017	3.2727	0.	26.082
2714	19.202	3.2727	0.	28.66
2715	19.386	3.2727	0.	31.339
2716	19.571	3.2727	0.	34.134
2717	19.755	3.2727	0.	37.063
2718	19.94	3.2727	0.	40.145
2719	20.124	3.2727	0.	43.397
2720	20.309	3.2727	0.	46.84
2721	20.493	3.2727	0.	50.494
2722	20.678	3.2727	0.	54.379
2723	20.863	3.2727	0.	58.517
2724	21.047	3.2727	0.	62.93
2725	21.232	3.2727	0.	67.641
2726	21.416	3.2727	0.	72.672
2727	21.601	3.2727	0.	78.045
2728	21.785	3.2727	0.	83.784
2729	21.97	3.2727	0.	89.91
2730	22.154	3.2727	0.	96.441
2731	22.339	3.2727	0.	103.4
2732	22.524	3.2727	0.	110.79
2733	22.708	3.2727	0.	118.64
2734	22.893	3.2727	0.	126.95
2735	23.077	3.2727	0.	135.72
2736	23.262	3.2727	0.	144.96
2737	23.446	3.2727	0.	154.65
2738	23.631	3.2727	0.	164.84
2739	23.815	3.2727	0.	175.28
2740	9.0512	3.0909	0.	705.79
2741	9.2358	3.0909	0.	449.1
2742	9.4203	3.0909	0.	192.26
2743	9.6049	3.0909	0.	1.3032
2744	9.7894	3.0909	0.	1.0741
2745	9.974	3.0909	0.	0.86992
2746	10.159	3.0909	0.	0.66505
2747	10.343	3.0909	0.	0.4913
2748	10.528	3.0909	0.	0.35703
2749	10.712	3.0909	0.	0.25747
2750	10.897	3.0909	0.	0.18506
2751	11.081	3.0909	0.	0.1329
2752	11.266	3.0909	0.	9.5439e-002
2753	11.45	3.0909	0.	6.8541e-002
2754	11.635	3.0909	0.	4.9238e-002
2755	11.82	3.0909	0.	3.5413e-002
2756	12.004	3.0909	0.	2.5518e-002
2757	12.189	3.0909	0.	1.844e-002
2758	12.373	3.0909	0.	1.346e-002
2759	12.558	3.0909	0.	9.9885e-003
2760	12.742	3.0909	0.	7.5994e-003
2761	12.927	3.0909	0.	5.9943e-003
2762	13.111	3.0909	0.	4.9735e-003
2763	13.296	3.0909	0.	4.3972e-003
2764	13.48	3.0909	0.	4.0952e-003
2765	13.665	3.0909	0.	4.0031e-003
2766	13.85	3.0909	0.	4.0742e-003
2767	14.034	3.0909	0.	4.2513e-003
2768	14.219	3.0909	0.	4.4933e-003
2769	14.403	3.0909	0.	4.7892e-003
2770	14.588	3.0909	0.	5.1407e-003
2771	14.772	3.0909	0.	5.4895e-003
2772	14.957	3.0909	0.	5.8458e-003
2773	15.141	3.0909	0.	6.2179e-003
2774	15.326	3.0909	0.	6.5945e-003
2775	15.511	3.0909	0.	6.9629e-003
2776	15.695	3.0909	0.	7.3358e-003
2777	15.88	3.0909	0.	7.7323e-003
2778	16.064	3.0909	0.	8.108e-003
2779	16.249	3.0909	0.	8.4814e-003
2780	16.433	3.0909	0.	8.8711e-003
2781	16.618	3.0909	0.	9.2663e-003
2782	16.802	3.0909	0.	9.6896e-003
2783	16.987	3.0909	0.	1.0468e-002
2784	17.172	3.0909	0.	2.2084
2785	17.356	3.0909	0.	4.6715
2786	17.541	3.0909	0.	7.0775
2787	17.725	3.0909	0.	9.4426
2788	17.91	3.0909	0.	11.783
2789	18.094	3.0909	0.	14.114
2790	18.279	3.0909	0.	16.451
2791	18.463	3.0909	0.	18.809
2792	18.648	3.0909	0.	21.205
2793	18.833	3.0909	0.	23.653
2794	19.017	3.0909	0.	26.17
2795	19.202	3.0909	0.	28.771
2796	19.386	3.0909	0.	31.473
2797	19.571	3.0909	0.	34.293
2798	19.755	3.0909	0.	37.248
2799	19.94	3.0909	0.	40.358
2800	20.124	3.0909	0.	43.64
2801	20.309	3.0909	0.	47.115
2802	20.493	3.0909	0.	50.802
2803	20.678	3.0909	0.	54.722
2804	20.863	3.0909	0.	58.898
2805	21.047	3.0909	0.	63.351
2806	21.232	3.0909	0.	68.102
2807	21.416	3.0909	0.	73.176
2808	21.601	3.0909	0.	78.594
2809	21.785	3.0909	0.	84.378
2810	21.97	3.0909	0.	90.548
2811	22.154	3.0909	0.	97.124
2812	22.339	3.0909	0.	104.12
2813	22.524	3.0909	0.	111.56
2814	22.708	3.0909	0.	119.44
2815	22.893	3.0909	0.	127.79
2816	23.077	3.0909	0.	136.59
2817	23.262	3.0909	0.	145.85
2818	23.446	3.0909	0.	155.55
2819	23.631	3.0909	0.	165.76
2820	23.815	3.0909	0.	176.2
2821	9.0512	2.9091	0.	705.79
2822	9.2358	2.9091	0.	449.1
2823	9.4203	2.9091	0.	192.26
2824	9.6049	2.9091	0.	1.3032
2825	9.7894	2.9091	0.	1.0741
2826	9.974	2.9091	0.	0.86992
2827	10.159	2.9091	0.	0.66505
2828	10.343	2.9091	0.	0.4913
2829	10.528	2.9091	0.	0.35703
2830	10.712	2.9091	0.	0.25747
2831	10.897	2.9091	0.	0.18506
2832	11.081	2.9091	0.	0.1329
2833	11.266	2.9091	0.	9.5439e-002
2834	11.45	2.9091	0.	6.854e-002
2835	11.635	2.9091	0.	4.9238e-002
2836	11.82	2.9091	0.	3.5413e-002
2837	12.004	2.9091	0.	2.5518e-002
2838	12.189	2.9091	0.	1.844e-002
2839	12.373	2.9091	0.	1.346e-002
2840	12.558	2.9091	0.	9.9882e-003
2841	12.742	2.9091	0.	7.5986e-003
2842	12.927	2.9091	0.	5.9941e-003
2843	13.111	2.9091	0.	4.9733e-003
2844	13.296	2.9091	0.	4.3975e-003
2845	13.48	2.9091	0.	4.0955e-003
2846	13.665	2.9091	0.	4.0025e-003
2847	13.85	2.9091	0.	4.074e-003
2848	14.034	2.9091	0.	4.2517e-003
2849	14.219	2.9091	0.	4.4926e-003
2850	14.403	2.9091	0.	4.7889e-003
2851	14.588	2.9091	0.	5.1406e-003
2852	14.772	2.9091	0.	5.4894e-003
2853	14.957	2.9091	0.	5.8452e-003
2854	15.141	2.9091	0.	6.2178e-003
2855	15.326	2.9091	0.	6.5947e-003
2856	15.511	2.9091	0.	6.9622e-003
2857	15.695	2.9091	0.	7.3364e-003
2858	15.88	2.9091	0.	7.7309e-003
2859	16.064	2.9091	0.	8.1073e-003
2860	16.249	2.9091	0.	8.4827e-003
2861	16.433	2.9091	0.	8.8708e-003
2862	16.618	2.9091	0.	9.2658e-003
2863	16.802	2.9091	0.	9.6903e-003
2864	16.987	2.9091	0.	1.0467e-002
2865	17.172	2.9091	0.	2.2084
2866	17.356	2.9091	0.	4.6715
2867	17.541	2.9091	0.	7.0774
2868	17.725	2.9091	0.	9.4426
2869	17.91	2.9091	0.	11.783
2870	18.094	2.9091	0.	14.114
2871	18.279	2.9091	0.	16.451
2872	18.463	2.9091	0.	18.809
2873	18.648	2.9091	0.	21.205
2874	18.833	2.9091	0.	23.653
2875	19.017	2.9091	0.	26.17
2876	19.202	2.9091	0.	28.771
2877	19.386	2.9091	0.	31.473
2878	19.571	2.9091	0.	34.293
2879	19.755	2.9091	0.	37.248
2880	19.94	2.9091	0.	40.358
2881	20.124	2.9091	0.	43.64
2882	20.309	2.9091	0.	47.115
2883	20.493	2.9091	0.	50.802
2884	20.678	2.9091	0.	54.722
2885	20.863	2.9091	0.	58.898
2886	21.047	2.9091	0.	63.351
2887	21.232	2.9091	0.	68.102
2888	21.416	2.9091	0.	73.176
2889	21.601	2.9091	0.	78.594
2890	21.785	2.9091	0.	84.378
2891	21.97	2.9091	0.	90.548
2892	22.154	2.9091	0.	97.124
2893	22.339	2.9091	0.	104.12
2894	22.524	2.9091	0.	111.56
2895	22.708	2.9091	0.	119.44
2896	22.893	2.9091	0.	127.79
2897	23.077	2.9091	0.	136.59
2898	23.262	2.9091	0.	145.85
2899	23.446	2.9091	0.	155.55
2900	23.631	2.9091	0.	165.76
2901	23.815	2.9091	0.	176.2
2902	9.0512	2.7273	0.	725.07
2903	9.2358	2.7273	0.	439.79
2904	9.4203	2.7273	0.	172.54
2905	9.6049	2.7273	0.	1.8366
2906	9.7894	2.7273	0.	1.0757
2907	9.974	2.7273	0.	0.84917
2908	10.159	2.7273	0.	0.64039
2909	10.343	2.7273	0.	0.47645
2910	10.528	2.7273	0.	0.3505
2911	10.712	2.7273	0.	0.2563
2912	10.897	2.7273	0.	0.18682
2913	11.081	2.7273	0.	0.13599
2914	11.266	2.7273	0.	9.8944e-002
2915	11.45	2.7273	0.	7.1968e-002
2916	11.635	2.7273	0.	5.236e-002
2917	11.82	2.7273	0.	3.8146e-002
2918	12.004	2.7273	0.	2.7855e-002
2919	12.189	2.7273	0.	2.041e-002
2920	12.373	2.7273	0.	1.5105e-002
2921	12.558	2.7273	0.	1.1353e-002
2922	12.742	2.7273	0.	8.7278e-003
2923	12.927	2.7273	0.	6.9253e-003
2924	13.111	2.7273	0.	5.7389e-003
2925	13.296	2.7273	0.	5.0266e-003
2926	13.48	2.7273	0.	4.6113e-003
2927	13.665	2.7273	0.	4.4246e-003
2928	13.85	2.7273	0.	4.4186e-003
2929	14.034	2.7273	0.	4.5324e-003
2930	14.219	2.7273	0.	4.7195e-003
2931	14.403	2.7273	0.	4.9718e-003
2932	14.588	2.7273	0.	5.2868e-003
2933	14.772	2.7273	0.	5.6057e-003
2934	14.957	2.7273	0.	5.9357e-003
2935	15.141	2.7273	0.	6.2898e-003
2936	15.326	2.7273	0.	6.6489e-003
2937	15.511	2.7273	0.	7.0065e-003
2938	15.695	2.7273	0.	7.3718e-003
2939	15.88	2.7273	0.	7.7638e-003
2940	16.064	2.7273	0.	8.143e-003
2941	16.249	2.7273	0.	8.527e-003
2942	16.433	2.7273	0.	8.9424e-003
2943	16.618	2.7273	0.	9.3978e-003
2944	16.802	2.7273	0.	1.0012e-002
2945	16.987	2.7273	0.	1.6056e-002
2946	17.172	2.7273	0.	2.3227
2947	17.356	2.7273	0.	4.7646
2948	17.541	2.7273	0.	7.1503
2949	17.725	2.7273	0.	9.4956
2950	17.91	2.7273	0.	11.816
2951	18.094	2.7273	0.	14.128
2952	18.279	2.7273	0.	16.446
2953	18.463	2.7273	0.	18.784
2954	18.648	2.7273	0.	21.16
2955	18.833	2.7273	0.	23.587
2956	19.017	2.7273	0.	26.082
2957	19.202	2.7273	0.	28.66
2958	19.386	2.7273	0.	31.339
2959	19.571	2.7273	0.	34.134
2960	19.755	2.7273	0.	37.063
2961	19.94	2.7273	0.	40.145
2962	20.124	2.7273	0.	43.397
2963	20.309	2.7273	0.	46.84
2964	20.493	2.7273	0.	50.494
2965	20.678	2.7273	0.	54.379
2966	20.863	2.7273	0.	58.517
2967	21.047	2.7273	0.	62.93
2968	21.232	2.7273	0.	67.641
2969	21.416	2.7273	0.	72.672
2970	21.601	2.7273	0.	78.045
2971	21.785	2.7273	0.	83.784
2972	21.97	2.7273	0.	89.91
2973	22.154	2.7273	0.	96.441
2974	22.339	2.7273	0.	103.4
2975	22.524	2.7273	0.	110.79
2976	22.708	2.7273	0.	118.64
2977	22.893	2.7273	0.	126.95
2978	23.077	2.7273	0.	135.72
2979	23.262	2.7273	0.	144.96
2980	23.446	2.7273	0.	154.65
2981	23.631	2.7273	0.	164.84
2982	23.815	2.7273	0.	175.28
2983	9.0512	2.5455	0.	758.02
2984	9.2358	2.5455	0.	418.96
2985	9.4203	2.5455	0.	134.42
2986	9.6049	2.5455	0.	1.8535
2987	9.7894	2.5455	0.	1.121
2988	9.974	2.5455	0.	0.79594
2989	10.159	2.5455	0.	0.61474
2990	10.343	2.5455	0.	0.46164
2991	10.528	2.5455	0.	0.34728
2992	10.712	2.5455	0.	0.25969
2993	10.897	2.5455	0.	0.19354
2994	11.081	2.5455	0.	0.14389
2995	11.266	2.5455	0.	0.10682
2996	11.45	2.5455	0.	7.9228e-002
2997	11.635	2.5455	0.	5.8762e-002
2998	11.82	2.5455	0.	4.3642e-002
2999	12.004	2.5455	0.	3.2496e-002
3000	12.189	2.5455	0.	2.4289e-002
3001	12.373	2.5455	0.	1.8324e-002
3002	12.558	2.5455	0.	1.4015e-002
3003	12.742	2.5455	0.	1.0921e-002
3004	12.927	2.5455	0.	8.7309e-003
3005	13.111	2.5455	0.	7.2235e-003
3006	13.296	2.5455	0.	6.2444e-003
3007	13.48	2.5455	0.	5.6102e-003
3008	13.665	2.5455	0.	5.2412e-003
3009	13.85	2.5455	0.	5.0844e-003
3010	14.034	2.5455	0.	5.0727e-003
3011	14.219	2.5455	0.	5.1581e-003
3012	14.403	2.5455	0.	5.3239e-003
3013	14.588	2.5455	0.	5.5688e-003
3014	14.772	2.5455	0.	5.8287e-003
3015	14.957	2.5455	0.	6.1119e-003
3016	15.141	2.5455	0.	6.4254e-003
3017	15.326	2.5455	0.	6.7555e-003
3018	15.511	2.5455	0.	7.0897e-003
3019	15.695	2.5455	0.	7.4414e-003
3020	15.88	2.5455	0.	7.8279e-003
3021	16.064	2.5455	0.	8.2121e-003
3022	16.249	2.5455	0.	8.623e-003
3023	16.433	2.5455	0.	9.0956e-003
3024	16.618	2.5455	0.	9.691e-003
3025	16.802	2.5455	0.	1.0791e-002
3026	16.987	2.5455	0.	0.11181
3027	17.172	2.5455	0.	2.5507
3028	17.356	2.5455	0.	4.9506
3029	17.541	2.5455	0.	7.2959
3030	17.725	2.5455	0.	9.602
3031	17.91	2.5455	0.	11.884
3032	18.094	2.5455	0.	14.157
3033	18.279	2.5455	0.	16.436
3034	18.463	2.5455	0.	18.736
3035	18.648	2.5455	0.	21.071
3036	18.833	2.5455	0.	23.457
3037	19.017	2.5455	0.	25.909
3038	19.202	2.5455	0.	28.443
3039	19.386	2.5455	0.	31.074
3040	19.571	2.5455	0.	33.819
3041	19.755	2.5455	0.	36.696
3042	19.94	2.5455	0.	39.722
3043	20.124	2.5455	0.	42.915
3044	20.309	2.5455	0.	46.295
3045	20.493	2.5455	0.	49.882
3046	20.678	2.5455	0.	53.696
3047	20.863	2.5455	0.	57.76
3048	21.047	2.5455	0.	62.094
3049	21.232	2.5455	0.	66.722
3050	21.416	2.5455	0.	71.667
3051	21.601	2.5455	0.	76.952
3052	21.785	2.5455	0.	82.601
3053	21.97	2.5455	0.	88.636
3054	22.154	2.5455	0.	95.078
3055	22.339	2.5455	0.	101.95
3056	22.524	2.5455	0.	109.26
3057	22.708	2.5455	0.	117.03
3058	22.893	2.5455	0.	125.27
3059	23.077	2.5455	0.	133.99
3060	23.262	2.5455	0.	143.18
3061	23.446	2.5455	0.	152.84
3062	23.631	2.5455	0.	163.
3063	23.815	2.5455	0.	173.44
3064	9.0512	2.3636	0.	832.04
3065	9.2358	2.3636	0.	367.81
3066	9.4203	2.3636	0.	89.654
3067	9.6049	2.3636	0.	1.1398
3068	9.7894	2.3636	0.	1.1615
3069	9.974	2.3636	0.	0.83874
3070	10.159	2.3636	0.	0.62294
3071	10.343	2.3636	0.	0.47933
3072	10.528	2.3636	0.	0.36404
3073	10.712	2.3636	0.	0.27752
3074	10.897	2.3636	0.	0.21049
3075	11.081	2.3636	0.	0.15941
3076	11.266	2.3636	0.	0.12047
3077	11.45	2.3636	0.	9.0955e-002
3078	11.635	2.3636	0.	6.8664e-002
3079	11.82	2.3636	0.	5.1911e-002
3080	12.004	2.3636	0.	3.9349e-002
3081	12.189	2.3636	0.	2.9942e-002
3082	12.373	2.3636	0.	2.2975e-002
3083	12.558	2.3636	0.	1.7835e-002
3084	12.742	2.3636	0.	1.4056e-002
3085	12.927	2.3636	0.	1.1302e-002
3086	13.111	2.3636	0.	9.331e-003
3087	13.296	2.3636	0.	7.9724e-003
3088	13.48	2.3636	0.	7.0229e-003
3089	13.665	2.3636	0.	6.3961e-003
3090	13.85	2.3636	0.	6.0255e-003
3091	14.034	2.3636	0.	5.8375e-003
3092	14.219	2.3636	0.	5.7749e-003
3093	14.403	2.3636	0.	5.8201e-003
3094	14.588	2.3636	0.	5.9647e-003
3095	14.772	2.3636	0.	6.1411e-003
3096	14.957	2.3636	0.	6.3567e-003
3097	15.141	2.3636	0.	6.6165e-003
3098	15.326	2.3636	0.	6.9043e-003
3099	15.511	2.3636	0.	7.206e-003
3100	15.695	2.3636	0.	7.5406e-003
3101	15.88	2.3636	0.	7.9212e-003
3102	16.064	2.3636	0.	8.3235e-003
3103	16.249	2.3636	0.	8.7788e-003
3104	16.433	2.3636	0.	9.3607e-003
3105	16.618	2.3636	0.	1.0228e-002
3106	16.802	2.3636	0.	1.2439e-002
3107	16.987	2.3636	0.	0.49502
3108	17.172	2.3636	0.	2.891
3109	17.356	2.3636	0.	5.2289
3110	17.541	2.3636	0.	7.5146
3111	17.725	2.3636	0.	9.7624
3112	17.91	2.3636	0.	11.987
3113	18.094	2.3636	0.	14.203
3114	18.279	2.3636	0.	16.425
3115	18.463	2.3636	0.	18.666
3116	18.648	2.3636	0.	20.942
3117	18.833	2.3636	0.	23.266
3118	19.017	2.3636	0.	25.655
3119	19.202	2.3636	0.	28.122
3120	19.386	2.3636	0.	30.683
3121	19.571	2.3636	0.	33.355
3122	19.755	2.3636	0.	36.154
3123	19.94	2.3636	0.	39.097
3124	20.124	2.3636	0.	42.202
3125	20.309	2.3636	0.	45.489
3126	20.493	2.3636	0.	48.976
3127	20.678	2.3636	0.	52.685
3128	20.863	2.3636	0.	56.636
3129	21.047	2.3636	0.	60.852
3130	21.232	2.3636	0.	65.357
3131	21.416	2.3636	0.	70.172
3132	21.601	2.3636	0.	75.324
3133	21.785	2.3636	0.	80.836
3134	21.97	2.3636	0.	86.733
3135	22.154	2.3636	0.	93.037
3136	22.339	2.3636	0.	99.773
3137	22.524	2.3636	0.	106.96
3138	22.708	2.3636	0.	114.61
3139	22.893	2.3636	0.	122.75
3140	23.077	2.3636	0.	131.37
3141	23.262	2.3636	0.	140.5
3142	23.446	2.3636	0.	150.1
3143	23.631	2.3636	0.	160.23
3144	23.815	2.3636	0.	170.66
3145	9.0512	2.1818	0.	839.33
3146	9.2358	2.1818	0.	371.42
3147	9.4203	2.1818	0.	94.683
3148	9.6049	2.1818	0.	5.9051
3149	9.7894	2.1818	0.	1.0284
3150	9.974	2.1818	0.	1.2379
3151	10.159	2.1818	0.	0.72759
3152	10.343	2.1818	0.	0.57144
3153	10.528	2.1818	0.	0.42052
3154	10.712	2.1818	0.	0.32082
3155	10.897	2.1818	0.	0.24347
3156	11.081	2.1818	0.	0.18555
3157	11.266	2.1818	0.	0.14136
3158	11.45	2.1818	0.	0.10776
3159	11.635	2.1818	0.	8.223e-002
3160	11.82	2.1818	0.	6.2881e-002
3161	12.004	2.1818	0.	4.8236e-002
3162	12.189	2.1818	0.	3.7153e-002
3163	12.373	2.1818	0.	2.8837e-002
3164	12.558	2.1818	0.	2.2608e-002
3165	12.742	2.1818	0.	1.795e-002
3166	12.927	2.1818	0.	1.4482e-002
3167	13.111	2.1818	0.	1.1931e-002
3168	13.296	2.1818	0.	1.0097e-002
3169	13.48	2.1818	0.	8.761e-003
3170	13.665	2.1818	0.	7.8155e-003
3171	13.85	2.1818	0.	7.1808e-003
3172	14.034	2.1818	0.	6.7755e-003
3173	14.219	2.1818	0.	6.5317e-003
3174	14.403	2.1818	0.	6.4288e-003
3175	14.588	2.1818	0.	6.4472e-003
3176	14.772	2.1818	0.	6.5234e-003
3177	14.957	2.1818	0.	6.655e-003
3178	15.141	2.1818	0.	6.8486e-003
3179	15.326	2.1818	0.	7.0846e-003
3180	15.511	2.1818	0.	7.3527e-003
3181	15.695	2.1818	0.	7.6662e-003
3182	15.88	2.1818	0.	8.0521e-003
3183	16.064	2.1818	0.	8.4843e-003
3184	16.249	2.1818	0.	9.0241e-003
3185	16.433	2.1818	0.	9.7987e-003
3186	16.618	2.1818	0.	1.1197e-002
3187	16.802	2.1818	0.	1.6406e-002
3188	16.987	2.1818	0.	1.0259
3189	17.172	2.1818	0.	3.3418
3190	17.356	2.1818	0.	5.5989
3191	17.541	2.1818	0.	7.8064
3192	17.725	2.1818	0.	9.9779
3193	17.91	2.1818	0.	12.127
3194	18.094	2.1818	0.	14.268
3195	18.279	2.1818	0.	16.415
3196	18.463	2.1818	0.	18.58
3197	18.648	2.1818	0.	20.777
3198	18.833	2.1818	0.	23.021
3199	19.017	2.1818	0.	25.326
3200	19.202	2.1818	0.	27.706
3201	19.386	2.1818	0.	30.175
3202	19.571	2.1818	0.	32.75
3203	19.755	2.1818	0.	35.447
3204	19.94	2.1818	0.	38.281
3205	20.124	2.1818	0.	41.27
3206	20.309	2.1818	0.	44.434
3207	20.493	2.1818	0.	47.79
3208	20.678	2.1818	0.	51.359
3209	20.863	2.1818	0.	55.162
3210	21.047	2.1818	0.	59.221
3211	21.232	2.1818	0.	63.56
3212	21.416	2.1818	0.	68.203
3213	21.601	2.1818	0.	73.175
3214	21.785	2.1818	0.	78.502
3215	21.97	2.1818	0.	84.211
3216	22.154	2.1818	0.	90.329
3217	22.339	2.1818	0.	96.88
3218	22.524	2.1818	0.	103.89
3219	22.708	2.1818	0.	111.38
3220	22.893	2.1818	0.	119.37
3221	23.077	2.1818	0.	127.87
3222	23.262	2.1818	0.	136.89
3223	23.446	2.1818	0.	146.41
3224	23.631	2.1818	0.	156.49
3225	23.815	2.1818	0.	166.91
3226	9.0512	2.	0.	1755.9
3227	9.2358	2.	0.	611.39
3228	9.4203	2.	0.	229.28
3229	9.6049	2.	0.	42.218
3230	9.7894	2.	0.	3.7941
3231	9.974	2.	0.	2.0487
3232	10.159	2.	0.	1.0926
3233	10.343	2.	0.	0.76954
3234	10.528	2.	0.	0.53979
3235	10.712	2.	0.	0.39929
3236	10.897	2.	0.	0.2979
3237	11.081	2.	0.	0.22496
3238	11.266	2.	0.	0.1707
3239	11.45	2.	0.	0.13009
3240	11.635	2.	0.	9.9474e-002
3241	11.82	2.	0.	7.6361e-002
3242	12.004	2.	0.	5.8873e-002
3243	12.189	2.	0.	4.5614e-002
3244	12.373	2.	0.	3.5613e-002
3245	12.558	2.	0.	2.8065e-002
3246	12.742	2.	0.	2.2365e-002
3247	12.927	2.	0.	1.8068e-002
3248	13.111	2.	0.	1.485e-002
3249	13.296	2.	0.	1.248e-002
3250	13.48	2.	0.	1.0704e-002
3251	13.665	2.	0.	9.3988e-003
3252	13.85	2.	0.	8.4707e-003
3253	14.034	2.	0.	7.8202e-003
3254	14.219	2.	0.	7.3744e-003
3255	14.403	2.	0.	7.1025e-003
3256	14.588	2.	0.	6.9834e-003
3257	14.772	2.	0.	6.9434e-003
3258	14.957	2.	0.	6.9828e-003
3259	15.141	2.	0.	7.1026e-003
3260	15.326	2.	0.	7.2835e-003
3261	15.511	2.	0.	7.5167e-003
3262	15.695	2.	0.	7.8185e-003
3263	15.88	2.	0.	8.2203e-003
3264	16.064	2.	0.	8.7184e-003
3265	16.249	2.	0.	9.4083e-003
3266	16.433	2.	0.	1.0543e-002
3267	16.618	2.	0.	1.3096e-002
3268	16.802	2.	0.	3.189e-002
3269	16.987	2.	0.	1.6858
3270	17.172	2.	0.	3.9012
3271	17.356	2.	0.	6.0597
3272	17.541	2.	0.	8.1717
3273	17.725	2.	0.	10.25
3274	17.91	2.	0.	12.307
3275	18.094	2.	0.	14.357
3276	18.279	2.	0.	16.411
3277	18.463	2.	0.	18.482
3278	18.648	2.	0.	20.584
3279	18.833	2.	0.	22.73
3280	19.017	2.	0.	24.932
3281	19.202	2.	0.	27.204
3282	19.386	2.	0.	29.561
3283	19.571	2.	0.	32.018
3284	19.755	2.	0.	34.588
3285	19.94	2.	0.	37.289
3286	20.124	2.	0.	40.136
3287	20.309	2.	0.	43.147
3288	20.493	2.	0.	46.341
3289	20.678	2.	0.	49.738
3290	20.863	2.	0.	53.357
3291	21.047	2.	0.	57.221
3292	21.232	2.	0.	61.354
3293	21.416	2.	0.	65.78
3294	21.601	2.	0.	70.526
3295	21.785	2.	0.	75.619
3296	21.97	2.	0.	81.088
3297	22.154	2.	0.	86.965
3298	22.339	2.	0.	93.277
3299	22.524	2.	0.	100.06
3300	22.708	2.	0.	107.33
3301	22.893	2.	0.	115.12
3302	23.077	2.	0.	123.45
3303	23.262	2.	0.	132.32
3304	23.446	2.	0.	141.74
3305	23.631	2.	0.	151.76
3306	23.815	2.	0.	162.15
3307	9.0512	1.8182	0.	2697.9
3308	9.2358	1.8182	0.	1074.
3309	9.4203	1.8182	0.	435.72
3310	9.6049	1.8182	0.	165.25
3311	9.7894	1.8182	0.	28.551
3312	9.974	1.8182	0.	4.5331
3313	10.159	1.8182	0.	1.9351
3314	10.343	1.8182	0.	1.1428
3315	10.528	1.8182	0.	0.74891
3316	10.712	1.8182	0.	0.5252
3317	10.897	1.8182	0.	0.37976
3318	11.081	1.8182	0.	0.28047
3319	11.266	1.8182	0.	0.20975
3320	11.45	1.8182	0.	0.15829
3321	11.635	1.8182	0.	0.12031
3322	11.82	1.8182	0.	9.205e-002
3323	12.004	1.8182	0.	7.088e-002
3324	12.189	1.8182	0.	5.4934e-002
3325	12.373	1.8182	0.	4.2935e-002
3326	12.558	1.8182	0.	3.3878e-002
3327	12.742	1.8182	0.	2.7022e-002
3328	12.927	1.8182	0.	2.1823e-002
3329	13.111	1.8182	0.	1.7894e-002
3330	13.296	1.8182	0.	1.4954e-002
3331	13.48	1.8182	0.	1.2721e-002
3332	13.665	1.8182	0.	1.104e-002
3333	13.85	1.8182	0.	9.8043e-003
3334	14.034	1.8182	0.	8.8992e-003
3335	14.219	1.8182	0.	8.2435e-003
3336	14.403	1.8182	0.	7.7955e-003
3337	14.588	1.8182	0.	7.5302e-003
3338	14.772	1.8182	0.	7.3722e-003
3339	14.957	1.8182	0.	7.3142e-003
3340	15.141	1.8182	0.	7.359e-003
3341	15.326	1.8182	0.	7.4883e-003
3342	15.511	1.8182	0.	7.6933e-003
3343	15.695	1.8182	0.	7.997e-003
3344	15.88	1.8182	0.	8.4469e-003
3345	16.064	1.8182	0.	9.0664e-003
3346	16.249	1.8182	0.	1.0041e-002
3347	16.433	1.8182	0.	1.192e-002
3348	16.618	1.8182	0.	1.766e-002
3349	16.802	1.8182	0.	0.35064
3350	16.987	1.8182	0.	2.4696
3351	17.172	1.8182	0.	4.5668
3352	17.356	1.8182	0.	6.6105
3353	17.541	1.8182	0.	8.6111
3354	17.725	1.8182	0.	10.58
3355	17.91	1.8182	0.	12.53
3356	18.094	1.8182	0.	14.472
3357	18.279	1.8182	0.	16.418
3358	18.463	1.8182	0.	18.38
3359	18.648	1.8182	0.	20.37
3360	18.833	1.8182	0.	22.4
3361	19.017	1.8182	0.	24.482
3362	19.202	1.8182	0.	26.63
3363	19.386	1.8182	0.	28.855
3364	19.571	1.8182	0.	31.172
3365	19.755	1.8182	0.	33.595
3366	19.94	1.8182	0.	36.139
3367	20.124	1.8182	0.	38.819
3368	20.309	1.8182	0.	41.652
3369	20.493	1.8182	0.	44.655
3370	20.678	1.8182	0.	47.847
3371	20.863	1.8182	0.	51.248
3372	21.047	1.8182	0.	54.881
3373	21.232	1.8182	0.	58.767
3374	21.416	1.8182	0.	62.932
3375	21.601	1.8182	0.	67.404
3376	21.785	1.8182	0.	72.212
3377	21.97	1.8182	0.	77.388
3378	22.154	1.8182	0.	82.964
3379	22.339	1.8182	0.	88.977
3380	22.524	1.8182	0.	95.462
3381	22.708	1.8182	0.	102.45
3382	22.893	1.8182	0.	109.99
3383	23.077	1.8182	0.	118.09
3384	23.262	1.8182	0.	126.78
3385	23.446	1.8182	0.	136.06
3386	23.631	1.8182	0.	145.99
3387	23.815	1.8182	0.	156.35
3388	9.0512	1.6364	0.	2440.5
3389	9.2358	1.6364	0.	1178.1
3390	9.4203	1.6364	0.	591.84
3391	9.6049	1.6364	0.	282.6
3392	9.7894	1.6364	0.	108.15
3393	9.974	1.6364	0.	20.878
3394	10.159	1.6364	0.	4.2387
3395	10.343	1.6364	0.	1.9163
3396	10.528	1.6364	0.	1.1155
3397	10.712	1.6364	0.	0.72726
3398	10.897	1.6364	0.	0.5015
3399	11.081	1.6364	0.	0.35786
3400	11.266	1.6364	0.	0.26096
3401	11.45	1.6364	0.	0.19325
3402	11.635	1.6364	0.	0.14483
3403	11.82	1.6364	0.	0.10968
3404	12.004	1.6364	0.	8.3846e-002
3405	12.189	1.6364	0.	6.4674e-002
3406	12.373	1.6364	0.	5.0394e-002
3407	12.558	1.6364	0.	3.9687e-002
3408	12.742	1.6364	0.	3.161e-002
3409	12.927	1.6364	0.	2.5488e-002
3410	13.111	1.6364	0.	2.0849e-002
3411	13.296	1.6364	0.	1.7349e-002
3412	13.48	1.6364	0.	1.4667e-002
3413	13.665	1.6364	0.	1.2626e-002
3414	13.85	1.6364	0.	1.109e-002
3415	14.034	1.6364	0.	9.9369e-003
3416	14.219	1.6364	0.	9.0766e-003
3417	14.403	1.6364	0.	8.4571e-003
3418	14.588	1.6364	0.	8.0499e-003
3419	14.772	1.6364	0.	7.7731e-003
3420	14.957	1.6364	0.	7.6235e-003
3421	15.141	1.6364	0.	7.5995e-003
3422	15.326	1.6364	0.	7.6863e-003
3423	15.511	1.6364	0.	7.8793e-003
3424	15.695	1.6364	0.	8.2169e-003
3425	15.88	1.6364	0.	8.7712e-003
3426	16.064	1.6364	0.	9.6366e-003
3427	16.249	1.6364	0.	1.1201e-002
3428	16.433	1.6364	0.	1.4958e-002
3429	16.618	1.6364	0.	3.7686e-002
3430	16.802	1.6364	0.	1.3555
3431	16.987	1.6364	0.	3.3729
3432	17.172	1.6364	0.	5.3365
3433	17.356	1.6364	0.	7.2507
3434	17.541	1.6364	0.	9.1255
3435	17.725	1.6364	0.	10.972
3436	17.91	1.6364	0.	12.8
3437	18.094	1.6364	0.	14.62
3438	18.279	1.6364	0.	16.444
3439	18.463	1.6364	0.	18.282
3440	18.648	1.6364	0.	20.146
3441	18.833	1.6364	0.	22.045
3442	19.017	1.6364	0.	23.991
3443	19.202	1.6364	0.	25.997
3444	19.386	1.6364	0.	28.073
3445	19.571	1.6364	0.	30.232
3446	19.755	1.6364	0.	32.488
3447	19.94	1.6364	0.	34.854
3448	20.124	1.6364	0.	37.344
3449	20.309	1.6364	0.	39.973
3450	20.493	1.6364	0.	42.759
3451	20.678	1.6364	0.	45.718
3452	20.863	1.6364	0.	48.869
3453	21.047	1.6364	0.	52.234
3454	21.232	1.6364	0.	55.836
3455	21.416	1.6364	0.	59.698
3456	21.601	1.6364	0.	63.849
3457	21.785	1.6364	0.	68.319
3458	21.97	1.6364	0.	73.143
3459	22.154	1.6364	0.	78.357
3460	22.339	1.6364	0.	84.003
3461	22.524	1.6364	0.	90.123
3462	22.708	1.6364	0.	96.762
3463	22.893	1.6364	0.	103.97
3464	23.077	1.6364	0.	111.77
3465	23.262	1.6364	0.	120.22
3466	23.446	1.6364	0.	129.31
3467	23.631	1.6364	0.	139.11
3468	23.815	1.6364	0.	149.43
3469	9.0512	1.4545	0.	1858.6
3470	9.2358	1.4545	0.	1077.6
3471	9.4203	1.4545	0.	624.95
3472	9.6049	1.4545	0.	342.84
3473	9.7894	1.4545	0.	172.3
3474	9.974	1.4545	0.	71.12
3475	10.159	1.4545	0.	17.551
3476	10.343	1.4545	0.	4.2972
3477	10.528	1.4545	0.	1.9266
3478	10.712	1.4545	0.	1.1025
3479	10.897	1.4545	0.	0.702
3480	11.081	1.4545	0.	0.47373
3481	11.266	1.4545	0.	0.33142
3482	11.45	1.4545	0.	0.23777
3483	11.635	1.4545	0.	0.1739
3484	11.82	1.4545	0.	0.12925
3485	12.004	1.4545	0.	9.744e-002
3486	12.189	1.4545	0.	7.4405e-002
3487	12.373	1.4545	0.	5.7565e-002
3488	12.558	1.4545	0.	4.5114e-002
3489	12.742	1.4545	0.	3.5813e-002
3490	12.927	1.4545	0.	2.8806e-002
3491	13.111	1.4545	0.	2.3505e-002
3492	13.296	1.4545	0.	1.9497e-002
3493	13.48	1.4545	0.	1.6413e-002
3494	13.665	1.4545	0.	1.4046e-002
3495	13.85	1.4545	0.	1.2243e-002
3496	14.034	1.4545	0.	1.0869e-002
3497	14.219	1.4545	0.	9.8199e-003
3498	14.403	1.4545	0.	9.0428e-003
3499	14.588	1.4545	0.	8.5031e-003
3500	14.772	1.4545	0.	8.1207e-003
3501	14.957	1.4545	0.	7.8885e-003
3502	15.141	1.4545	0.	7.8073e-003
3503	15.326	1.4545	0.	7.8725e-003
3504	15.511	1.4545	0.	8.0866e-003
3505	15.695	1.4545	0.	8.5188e-003
3506	15.88	1.4545	0.	9.2988e-003
3507	16.064	1.4545	0.	1.0699e-002
3508	16.249	1.4545	0.	1.3771e-002
3509	16.433	1.4545	0.	2.5266e-002
3510	16.618	1.4545	0.	0.61951
3511	16.802	1.4545	0.	2.5228
3512	16.987	1.4545	0.	4.3915
3513	17.172	1.4545	0.	6.208
3514	17.356	1.4545	0.	7.9798
3515	17.541	1.4545	0.	9.7162
3516	17.725	1.4545	0.	11.427
3517	17.91	1.4545	0.	13.12
3518	18.094	1.4545	0.	14.807
3519	18.279	1.4545	0.	16.497
3520	18.463	1.4545	0.	18.198
3521	18.648	1.4545	0.	19.921
3522	18.833	1.4545	0.	21.676
3523	19.017	1.4545	0.	23.473
3524	19.202	1.4545	0.	25.322
3525	19.386	1.4545	0.	27.233
3526	19.571	1.4545	0.	29.219
3527	19.755	1.4545	0.	31.29
3528	19.94	1.4545	0.	33.459
3529	20.124	1.4545	0.	35.739
3530	20.309	1.4545	0.	38.144
3531	20.493	1.4545	0.	40.688
3532	20.678	1.4545	0.	43.387
3533	20.863	1.4545	0.	46.26
3534	21.047	1.4545	0.	49.325
3535	21.232	1.4545	0.	52.605
3536	21.416	1.4545	0.	56.123
3537	21.601	1.4545	0.	59.907
3538	21.785	1.4545	0.	63.988
3539	21.97	1.4545	0.	68.401
3540	22.154	1.4545	0.	73.187
3541	22.339	1.4545	0.	78.391
3542	22.524	1.4545	0.	84.064
3543	22.708	1.4545	0.	90.263
3544	22.893	1.4545	0.	97.045
3545	23.077	1.4545	0.	104.47
3546	23.262	1.4545	0.	112.59
3547	23.446	1.4545	0.	121.42
3548	23.631	1.4545	0.	131.05
3549	23.815	1.4545	0.	141.31
3550	9.0512	1.2727	0.	1447.8
3551	9.2358	1.2727	0.	900.18
3552	9.4203	1.2727	0.	566.7
3553	9.6049	1.2727	0.	345.36
3554	9.7894	1.2727	0.	201.84
3555	9.974	1.2727	0.	110.86
3556	10.159	1.2727	0.	53.64
3557	10.343	1.2727	0.	19.377
3558	10.528	1.2727	0.	5.401
3559	10.712	1.2727	0.	2.1618
3560	10.897	1.2727	0.	1.1416
3561	11.081	1.2727	0.	0.68669
3562	11.266	1.2727	0.	0.44395
3563	11.45	1.2727	0.	0.30071
3564	11.635	1.2727	0.	0.21071
3565	11.82	1.2727	0.	0.15167
3566	12.004	1.2727	0.	0.11164
3567	12.189	1.2727	0.	8.3799e-002
3568	12.373	1.2727	0.	6.4054e-002
3569	12.558	1.2727	0.	4.9793e-002
3570	12.742	1.2727	0.	3.9319e-002
3571	12.927	1.2727	0.	3.152e-002
3572	13.111	1.2727	0.	2.5658e-002
3573	13.296	1.2727	0.	2.1233e-002
3574	13.48	1.2727	0.	1.7825e-002
3575	13.665	1.2727	0.	1.5196e-002
3576	13.85	1.2727	0.	1.3175e-002
3577	14.034	1.2727	0.	1.1617e-002
3578	14.219	1.2727	0.	1.041e-002
3579	14.403	1.2727	0.	9.4977e-003
3580	14.588	1.2727	0.	8.8476e-003
3581	14.772	1.2727	0.	8.3755e-003
3582	14.957	1.2727	0.	8.0796e-003
3583	15.141	1.2727	0.	7.9672e-003
3584	15.326	1.2727	0.	8.0451e-003
3585	15.511	1.2727	0.	8.3485e-003
3586	15.695	1.2727	0.	9.0064e-003
3587	15.88	1.2727	0.	1.033e-002
3588	16.064	1.2727	0.	1.3205e-002
3589	16.249	1.2727	0.	2.272e-002
3590	16.433	1.2727	0.	0.31509
3591	16.618	1.2727	0.	2.0597
3592	16.802	1.2727	0.	3.8166
3593	16.987	1.2727	0.	5.5215
3594	17.172	1.2727	0.	7.1793
3595	17.356	1.2727	0.	8.7978
3596	17.541	1.2727	0.	10.385
3597	17.725	1.2727	0.	11.949
3598	17.91	1.2727	0.	13.498
3599	18.094	1.2727	0.	15.04
3600	18.279	1.2727	0.	16.584
3601	18.463	1.2727	0.	18.137
3602	18.648	1.2727	0.	19.709
3603	18.833	1.2727	0.	21.308
3604	19.017	1.2727	0.	22.944
3605	19.202	1.2727	0.	24.624
3606	19.386	1.2727	0.	26.358
3607	19.571	1.2727	0.	28.156
3608	19.755	1.2727	0.	30.028
3609	19.94	1.2727	0.	31.985
3610	20.124	1.2727	0.	34.038
3611	20.309	1.2727	0.	36.199
3612	20.493	1.2727	0.	38.481
3613	20.678	1.2727	0.	40.898
3614	20.863	1.2727	0.	43.467
3615	21.047	1.2727	0.	46.204
3616	21.232	1.2727	0.	49.13
3617	21.416	1.2727	0.	52.267
3618	21.601	1.2727	0.	55.64
3619	21.785	1.2727	0.	59.282
3620	21.97	1.2727	0.	63.226
3621	22.154	1.2727	0.	67.514
3622	22.339	1.2727	0.	72.197
3623	22.524	1.2727	0.	77.333
3624	22.708	1.2727	0.	82.988
3625	22.893	1.2727	0.	89.237
3626	23.077	1.2727	0.	96.161
3627	23.262	1.2727	0.	103.84
3628	23.446	1.2727	0.	112.33
3629	23.631	1.2727	0.	121.72
3630	23.815	1.2727	0.	131.88
3631	9.0512	1.0909	0.	1109.
3632	9.2358	1.0909	0.	704.95
3633	9.4203	1.0909	0.	468.8
3634	9.6049	1.0909	0.	308.7
3635	9.7894	1.0909	0.	201.51
3636	9.974	1.0909	0.	130.32
3637	10.159	1.0909	0.	82.287
3638	10.343	1.0909	0.	49.066
3639	10.528	1.0909	0.	25.677
3640	10.712	1.0909	0.	10.133
3641	10.897	1.0909	0.	3.2086
3642	11.081	1.0909	0.	1.3274
3643	11.266	1.0909	0.	0.6953
3644	11.45	1.0909	0.	0.41349
3645	11.635	1.0909	0.	0.26568
3646	11.82	1.0909	0.	0.18013
3647	12.004	1.0909	0.	0.1272
3648	12.189	1.0909	0.	9.279e-002
3649	12.373	1.0909	0.	6.9587e-002
3650	12.558	1.0909	0.	5.3446e-002
3651	12.742	1.0909	0.	4.1907e-002
3652	12.927	1.0909	0.	3.3472e-002
3653	13.111	1.0909	0.	2.7202e-002
3654	13.296	1.0909	0.	2.2494e-002
3655	13.48	1.0909	0.	1.8869e-002
3656	13.665	1.0909	0.	1.6061e-002
3657	13.85	1.0909	0.	1.3887e-002
3658	14.034	1.0909	0.	1.219e-002
3659	14.219	1.0909	0.	1.0859e-002
3660	14.403	1.0909	0.	9.8379e-003
3661	14.588	1.0909	0.	9.093e-003
3662	14.772	1.0909	0.	8.5486e-003
3663	14.957	1.0909	0.	8.21e-003
3664	15.141	1.0909	0.	8.1043e-003
3665	15.326	1.0909	0.	8.2679e-003
3666	15.511	1.0909	0.	8.8161e-003
3667	15.695	1.0909	0.	1.0085e-002
3668	15.88	1.0909	0.	1.3155e-002
3669	16.064	1.0909	0.	2.4123e-002
3670	16.249	1.0909	0.	0.39081
3671	16.433	1.0909	0.	2.0234
3672	16.618	1.0909	0.	3.6509
3673	16.802	1.0909	0.	5.2282
3674	16.987	1.0909	0.	6.7589
3675	17.172	1.0909	0.	8.2489
3676	17.356	1.0909	0.	9.705
3677	17.541	1.0909	0.	11.134
3678	17.725	1.0909	0.	12.542
3679	17.91	1.0909	0.	13.937
3680	18.094	1.0909	0.	15.326
3681	18.279	1.0909	0.	16.715
3682	18.463	1.0909	0.	18.112
3683	18.648	1.0909	0.	19.524
3684	18.833	1.0909	0.	20.958
3685	19.017	1.0909	0.	22.422
3686	19.202	1.0909	0.	23.923
3687	19.386	1.0909	0.	25.47
3688	19.571	1.0909	0.	27.069
3689	19.755	1.0909	0.	28.731
3690	19.94	1.0909	0.	30.463
3691	20.124	1.0909	0.	32.275
3692	20.309	1.0909	0.	34.178
3693	20.493	1.0909	0.	36.182
3694	20.678	1.0909	0.	38.3
3695	20.863	1.0909	0.	40.544
3696	21.047	1.0909	0.	42.93
3697	21.232	1.0909	0.	45.474
3698	21.416	1.0909	0.	48.198
3699	21.601	1.0909	0.	51.124
3700	21.785	1.0909	0.	54.28
3701	21.97	1.0909	0.	57.7
3702	22.154	1.0909	0.	61.425
3703	22.339	1.0909	0.	65.505
3704	22.524	1.0909	0.	70.004
3705	22.708	1.0909	0.	74.998
3706	22.893	1.0909	0.	80.579
3707	23.077	1.0909	0.	86.852
3708	23.262	1.0909	0.	93.938
3709	23.446	1.0909	0.	101.93
3710	23.631	1.0909	0.	110.97
3711	23.815	1.0909	0.	120.99
3712	9.0512	0.90909	0.	829.17
3713	9.2358	0.90909	0.	522.39
3714	9.4203	0.90909	0.	358.08
3715	9.6049	0.90909	0.	252.43
3716	9.7894	0.90909	0.	181.92
3717	9.974	0.90909	0.	133.2
3718	10.159	0.90909	0.	97.809
3719	10.343	0.90909	0.	70.844
3720	10.528	0.90909	0.	49.516
3721	10.712	0.90909	0.	32.273
3722	10.897	0.90909	0.	18.315
3723	11.081	0.90909	0.	7.6396
3724	11.266	0.90909	0.	2.1074
3725	11.45	0.90909	0.	0.76627
3726	11.635	0.90909	0.	0.38475
3727	11.82	0.90909	0.	0.22721
3728	12.004	0.90909	0.	0.14757
3729	12.189	0.90909	0.	0.10217
3730	12.373	0.90909	0.	7.4174e-002
3731	12.558	0.90909	0.	5.5871e-002
3732	12.742	0.90909	0.	4.3337e-002
3733	12.927	0.90909	0.	3.4432e-002
3734	13.111	0.90909	0.	2.7925e-002
3735	13.296	0.90909	0.	2.3078e-002
3736	13.48	0.90909	0.	1.9354e-002
3737	13.665	0.90909	0.	1.6458e-002
3738	13.85	0.90909	0.	1.4197e-002
3739	14.034	0.90909	0.	1.2412e-002
3740	14.219	0.90909	0.	1.0995e-002
3741	14.403	0.90909	0.	9.8946e-003
3742	14.588	0.90909	0.	9.082e-003
3743	14.772	0.90909	0.	8.4955e-003
3744	14.957	0.90909	0.	8.1622e-003
3745	15.141	0.90909	0.	8.1528e-003
3746	15.326	0.90909	0.	8.6127e-003
3747	15.511	0.90909	0.	9.9859e-003
3748	15.695	0.90909	0.	1.4022e-002
3749	15.88	0.90909	0.	3.7555e-002
3750	16.064	0.90909	0.	0.93396
3751	16.249	0.90909	0.	2.4532
3752	16.433	0.90909	0.	3.9318
3753	16.618	0.90909	0.	5.3635
3754	16.802	0.90909	0.	6.7516
3755	16.987	0.90909	0.	8.1006
3756	17.172	0.90909	0.	9.4157
3757	17.356	0.90909	0.	10.702
3758	17.541	0.90909	0.	11.966
3759	17.725	0.90909	0.	13.212
3760	17.91	0.90909	0.	14.446
3761	18.094	0.90909	0.	15.674
3762	18.279	0.90909	0.	16.902
3763	18.463	0.90909	0.	18.135
3764	18.648	0.90909	0.	19.38
3765	18.833	0.90909	0.	20.642
3766	19.017	0.90909	0.	21.928
3767	19.202	0.90909	0.	23.243
3768	19.386	0.90909	0.	24.594
3769	19.571	0.90909	0.	25.988
3770	19.755	0.90909	0.	27.43
3771	19.94	0.90909	0.	28.929
3772	20.124	0.90909	0.	30.492
3773	20.309	0.90909	0.	32.127
3774	20.493	0.90909	0.	33.842
3775	20.678	0.90909	0.	35.646
3776	20.863	0.90909	0.	37.552
3777	21.047	0.90909	0.	39.57
3778	21.232	0.90909	0.	41.714
3779	21.416	0.90909	0.	44.
3780	21.601	0.90909	0.	46.448
3781	21.785	0.90909	0.	49.082
3782	21.97	0.90909	0.	51.931
3783	22.154	0.90909	0.	55.033
3784	22.339	0.90909	0.	58.434
3785	22.524	0.90909	0.	62.197
3786	22.708	0.90909	0.	66.402
3787	22.893	0.90909	0.	71.154
3788	23.077	0.90909	0.	76.585
3789	23.262	0.90909	0.	82.861
3790	23.446	0.90909	0.	90.146
3791	23.631	0.90909	0.	98.665
3792	23.815	0.90909	0.	108.43
3793	9.0512	0.72727	0.	590.55
3794	9.2358	0.72727	0.	358.03
3795	9.4203	0.72727	0.	251.81
3796	9.6049	0.72727	0.	191.9
3797	9.7894	0.72727	0.	153.33
3798	9.974	0.72727	0.	125.07
3799	10.159	0.72727	0.	102.01
3800	10.343	0.72727	0.	82.041
3801	10.528	0.72727	0.	64.349
3802	10.712	0.72727	0.	48.662
3803	10.897	0.72727	0.	34.895
3804	11.081	0.72727	0.	23.018
3805	11.266	0.72727	0.	13.021
3806	11.45	0.72727	0.	5.1158
3807	11.635	0.72727	0.	1.0847
3808	11.82	0.72727	0.	0.36503
3809	12.004	0.72727	0.	0.18717
3810	12.189	0.72727	0.	0.11541
3811	12.373	0.72727	0.	7.8947e-002
3812	12.558	0.72727	0.	5.7786e-002
3813	12.742	0.72727	0.	4.4344e-002
3814	12.927	0.72727	0.	3.5225e-002
3815	13.111	0.72727	0.	2.8725e-002
3816	13.296	0.72727	0.	2.3928e-002
3817	13.48	0.72727	0.	2.023e-002
3818	13.665	0.72727	0.	1.7318e-002
3819	13.85	0.72727	0.	1.5e-002
3820	14.034	0.72727	0.	1.3121e-002
3821	14.219	0.72727	0.	1.1586e-002
3822	14.403	0.72727	0.	1.0355e-002
3823	14.588	0.72727	0.	9.4254e-003
3824	14.772	0.72727	0.	8.7595e-003
3825	14.957	0.72727	0.	8.4561e-003
3826	15.141	0.72727	0.	8.7866e-003
3827	15.326	0.72727	0.	1.0712e-002
3828	15.511	0.72727	0.	2.1993e-002
3829	15.695	0.72727	0.	0.65996
3830	15.88	0.72727	0.	2.04
3831	16.064	0.72727	0.	3.3881
3832	16.249	0.72727	0.	4.6947
3833	16.433	0.72727	0.	5.9608
3834	16.618	0.72727	0.	7.1889
3835	16.802	0.72727	0.	8.3822
3836	16.987	0.72727	0.	9.5444
3837	17.172	0.72727	0.	10.679
3838	17.356	0.72727	0.	11.791
3839	17.541	0.72727	0.	12.884
3840	17.725	0.72727	0.	13.963
3841	17.91	0.72727	0.	15.031
3842	18.094	0.72727	0.	16.094
3843	18.279	0.72727	0.	17.156
3844	18.463	0.72727	0.	18.221
3845	18.648	0.72727	0.	19.294
3846	18.833	0.72727	0.	20.379
3847	19.017	0.72727	0.	21.482
3848	19.202	0.72727	0.	22.607
3849	19.386	0.72727	0.	23.759
3850	19.571	0.72727	0.	24.942
3851	19.755	0.72727	0.	26.161
3852	19.94	0.72727	0.	27.423
3853	20.124	0.72727	0.	28.731
3854	20.309	0.72727	0.	30.092
3855	20.493	0.72727	0.	31.513
3856	20.678	0.72727	0.	32.999
3857	20.863	0.72727	0.	34.558
3858	21.047	0.72727	0.	36.199
3859	21.232	0.72727	0.	37.932
3860	21.416	0.72727	0.	39.768
3861	21.601	0.72727	0.	41.721
3862	21.785	0.72727	0.	43.809
3863	21.97	0.72727	0.	46.055
3864	22.154	0.72727	0.	48.487
3865	22.339	0.72727	0.	51.147
3866	22.524	0.72727	0.	54.086
3867	22.708	0.72727	0.	57.379
3868	22.893	0.72727	0.	61.132
3869	23.077	0.72727	0.	65.49
3870	23.262	0.72727	0.	70.663
3871	23.446	0.72727	0.	76.907
3872	23.631	0.72727	0.	84.589
3873	23.815	0.72727	0.	93.913
3874	9.0512	0.54545	0.	384.88
3875	9.2358	0.54545	0.	218.
3876	9.4203	0.54545	0.	161.84
3877	9.6049	0.54545	0.	138.12
3878	9.7894	0.54545	0.	123.46
3879	9.974	0.54545	0.	110.43
3880	10.159	0.54545	0.	96.931
3881	10.343	0.54545	0.	82.921
3882	10.528	0.54545	0.	68.93
3883	10.712	0.54545	0.	55.536
3884	10.897	0.54545	0.	43.175
3885	11.081	0.54545	0.	32.122
3886	11.266	0.54545	0.	22.509
3887	11.45	0.54545	0.	14.363
3888	11.635	0.54545	0.	7.6637
3889	11.82	0.54545	0.	2.5277
3890	12.004	0.54545	0.	0.42002
3891	12.189	0.54545	0.	0.15841
3892	12.373	0.54545	0.	9.0155e-002
3893	12.558	0.54545	0.	6.0619e-002
3894	12.742	0.54545	0.	4.4542e-002
3895	12.927	0.54545	0.	3.4532e-002
3896	13.111	0.54545	0.	2.7729e-002
3897	13.296	0.54545	0.	2.2826e-002
3898	13.48	0.54545	0.	1.9075e-002
3899	13.665	0.54545	0.	1.6112e-002
3900	13.85	0.54545	0.	1.3724e-002
3901	14.034	0.54545	0.	1.1758e-002
3902	14.219	0.54545	0.	1.0115e-002
3903	14.403	0.54545	0.	8.7591e-003
3904	14.588	0.54545	0.	7.7103e-003
3905	14.772	0.54545	0.	7.0233e-003
3906	14.957	0.54545	0.	7.4683e-003
3907	15.141	0.54545	0.	0.14134
3908	15.326	0.54545	0.	1.3484
3909	15.511	0.54545	0.	2.5493
3910	15.695	0.54545	0.	3.7218
3911	15.88	0.54545	0.	4.8639
3912	16.064	0.54545	0.	5.9745
3913	16.249	0.54545	0.	7.0542
3914	16.433	0.54545	0.	8.1041
3915	16.618	0.54545	0.	9.1259
3916	16.802	0.54545	0.	10.122
3917	16.987	0.54545	0.	11.094
3918	17.172	0.54545	0.	12.046
3919	17.356	0.54545	0.	12.98
3920	17.541	0.54545	0.	13.899
3921	17.725	0.54545	0.	14.807
3922	17.91	0.54545	0.	15.707
3923	18.094	0.54545	0.	16.602
3924	18.279	0.54545	0.	17.495
3925	18.463	0.54545	0.	18.39
3926	18.648	0.54545	0.	19.289
3927	18.833	0.54545	0.	20.197
3928	19.017	0.54545	0.	21.115
3929	19.202	0.54545	0.	22.049
3930	19.386	0.54545	0.	23.
3931	19.571	0.54545	0.	23.972
3932	19.755	0.54545	0.	24.968
3933	19.94	0.54545	0.	25.991
3934	20.124	0.54545	0.	27.046
3935	20.309	0.54545	0.	28.135
3936	20.493	0.54545	0.	29.261
3937	20.678	0.54545	0.	30.43
3938	20.863	0.54545	0.	31.644
3939	21.047	0.54545	0.	32.91
3940	21.232	0.54545	0.	34.231
3941	21.416	0.54545	0.	35.616
3942	21.601	0.54545	0.	37.071
3943	21.785	0.54545	0.	38.608
3944	21.97	0.54545	0.	40.239
3945	22.154	0.54545	0.	41.983
3946	22.339	0.54545	0.	43.866
3947	22.524	0.54545	0.	45.924
3948	22.708	0.54545	0.	48.212
3949	22.893	0.54545	0.	50.814
3950	23.077	0.54545	0.	53.862
3951	23.262	0.54545	0.	57.571
3952	23.446	0.54545	0.	62.274
3953	23.631	0.54545	0.	68.555
3954	23.815	0.54545	0.	77.009
3955	9.0512	0.36364	0.	212.75
3956	9.2358	0.36364	0.	115.12
3957	9.4203	0.36364	0.	99.621
3958	9.6049	0.36364	0.	98.342
3959	9.7894	0.36364	0.	96.456
3960	9.974	0.36364	0.	91.338
3961	10.159	0.36364	0.	83.263
3962	10.343	0.36364	0.	73.32
3963	10.528	0.36364	0.	62.591
3964	10.712	0.36364	0.	51.919
3965	10.897	0.36364	0.	41.871
3966	11.081	0.36364	0.	32.787
3967	11.266	0.36364	0.	24.828
3968	11.45	0.36364	0.	18.039
3969	11.635	0.36364	0.	12.388
3970	11.82	0.36364	0.	7.8004
3971	12.004	0.36364	0.	4.1851
3972	12.189	0.36364	0.	1.5033
3973	12.373	0.36364	0.	0.26715
3974	12.558	0.36364	0.	0.10831
3975	12.742	0.36364	0.	7.2234e-002
3976	12.927	0.36364	0.	5.7443e-002
3977	13.111	0.36364	0.	4.9387e-002
3978	13.296	0.36364	0.	4.4151e-002
3979	13.48	0.36364	0.	4.028e-002
3980	13.665	0.36364	0.	3.7277e-002
3981	13.85	0.36364	0.	3.5111e-002
3982	14.034	0.36364	0.	3.4444e-002
3983	14.219	0.36364	0.	4.1169e-002
3984	14.403	0.36364	0.	0.41173
3985	14.588	0.36364	0.	1.3315
3986	14.772	0.36364	0.	2.2813
3987	14.957	0.36364	0.	3.2384
3988	15.141	0.36364	0.	4.193
3989	15.326	0.36364	0.	5.1385
3990	15.511	0.36364	0.	6.0701
3991	15.695	0.36364	0.	6.9845
3992	15.88	0.36364	0.	7.8801
3993	16.064	0.36364	0.	8.7556
3994	16.249	0.36364	0.	9.611
3995	16.433	0.36364	0.	10.447
3996	16.618	0.36364	0.	11.264
3997	16.802	0.36364	0.	12.063
3998	16.987	0.36364	0.	12.847
3999	17.172	0.36364	0.	13.616
4000	17.356	0.36364	0.	14.373
4001	17.541	0.36364	0.	15.119
4002	17.725	0.36364	0.	15.857
4003	17.91	0.36364	0.	16.589
4004	18.094	0.36364	0.	17.317
4005	18.279	0.36364	0.	18.043
4006	18.463	0.36364	0.	18.769
4007	18.648	0.36364	0.	19.497
4008	18.833	0.36364	0.	20.228
4009	19.017	0.36364	0.	20.966
4010	19.202	0.36364	0.	21.711
4011	19.386	0.36364	0.	22.465
4012	19.571	0.36364	0.	23.23
4013	19.755	0.36364	0.	24.008
4014	19.94	0.36364	0.	24.799
4015	20.124	0.36364	0.	25.606
4016	20.309	0.36364	0.	26.429
4017	20.493	0.36364	0.	27.271
4018	20.678	0.36364	0.	28.13
4019	20.863	0.36364	0.	29.01
4020	21.047	0.36364	0.	29.911
4021	21.232	0.36364	0.	30.834
4022	21.416	0.36364	0.	31.78
4023	21.601	0.36364	0.	32.751
4024	21.785	0.36364	0.	33.75
4025	21.97	0.36364	0.	34.78
4026	22.154	0.36364	0.	35.846
4027	22.339	0.36364	0.	36.956
4028	22.524	0.36364	0.	38.124
4029	22.708	0.36364	0.	39.372
4030	22.893	0.36364	0.	40.742
4031	23.077	0.36364	0.	42.303
4032	23.262	0.36364	0.	44.199
4033	23.446	0.36364	0.	46.708
4034	23.631	0.36364	0.	50.53
4035	23.815	0.36364	0.	57.013
4036	9.0512	0.18182	0.	105.99
4037	9.2358	0.18182	0.	78.488
4038	9.4203	0.18182	0.	79.152
4039	9.6049	0.18182	0.	79.591
4040	9.7894	0.18182	0.	76.247
4041	9.974	0.18182	0.	70.183
4042	10.159	0.18182	0.	62.511
4043	10.343	0.18182	0.	54.219
4044	10.528	0.18182	0.	46.008
4045	10.712	0.18182	0.	38.324
4046	10.897	0.18182	0.	31.413
4047	11.081	0.18182	0.	25.383
4048	11.266	0.18182	0.	20.248
4049	11.45	0.18182	0.	15.97
4050	11.635	0.18182	0.	12.48
4051	11.82	0.18182	0.	9.6964
4052	12.004	0.18182	0.	7.5342
4053	12.189	0.18182	0.	5.9099
4054	12.373	0.18182	0.	4.7451
4055	12.558	0.18182	0.	3.9674
4056	12.742	0.18182	0.	3.5109
4057	12.927	0.18182	0.	3.3177
4058	13.111	0.18182	0.	3.3386
4059	13.296	0.18182	0.	3.5332
4060	13.48	0.18182	0.	3.8675
4061	13.665	0.18182	0.	4.3131
4062	13.85	0.18182	0.	4.8458
4063	14.034	0.18182	0.	5.4448
4064	14.219	0.18182	0.	6.093
4065	14.403	0.18182	0.	6.7761
4066	14.588	0.18182	0.	7.4825
4067	14.772	0.18182	0.	8.203
4068	14.957	0.18182	0.	8.9303
4069	15.141	0.18182	0.	9.6588
4070	15.326	0.18182	0.	10.384
4071	15.511	0.18182	0.	11.103
4072	15.695	0.18182	0.	11.814
4073	15.88	0.18182	0.	12.515
4074	16.064	0.18182	0.	13.205
4075	16.249	0.18182	0.	13.885
4076	16.433	0.18182	0.	14.553
4077	16.618	0.18182	0.	15.211
4078	16.802	0.18182	0.	15.86
4079	16.987	0.18182	0.	16.499
4080	17.172	0.18182	0.	17.129
4081	17.356	0.18182	0.	17.753
4082	17.541	0.18182	0.	18.37
4083	17.725	0.18182	0.	18.982
4084	17.91	0.18182	0.	19.59
4085	18.094	0.18182	0.	20.194
4086	18.279	0.18182	0.	20.796
4087	18.463	0.18182	0.	21.396
4088	18.648	0.18182	0.	21.995
4089	18.833	0.18182	0.	22.594
4090	19.017	0.18182	0.	23.193
4091	19.202	0.18182	0.	23.792
4092	19.386	0.18182	0.	24.393
4093	19.571	0.18182	0.	24.994
4094	19.755	0.18182	0.	25.595
4095	19.94	0.18182	0.	26.196
4096	20.124	0.18182	0.	26.797
4097	20.309	0.18182	0.	27.396
4098	20.493	0.18182	0.	27.992
4099	20.678	0.18182	0.	28.582
4100	20.863	0.18182	0.	29.166
4101	21.047	0.18182	0.	29.739
4102	21.232	0.18182	0.	30.299
4103	21.416	0.18182	0.	30.841
4104	21.601	0.18182	0.	31.36
4105	21.785	0.18182	0.	31.851
4106	21.97	0.18182	0.	32.307
4107	22.154	0.18182	0.	32.717
4108	22.339	0.18182	0.	33.073
4109	22.524	0.18182	0.	33.361
4110	22.708	0.18182	0.	33.566
4111	22.893	0.18182	0.	33.669
4112	23.077	0.18182	0.	33.649
4113	23.262	0.18182	0.	33.491
4114	23.446	0.18182	0.	33.196
4115	23.631	0.18182	0.	32.912
4116	23.815	0.18182	0.	33.927
4117	23.815	0.18182	0.1	37.112
4118	23.631	0.18182	0.1	72.957
4119	23.446	0.18182	0.1	110.89
4120	23.262	0.18182	0.1	149.48
4121	23.077	0.18182	0.1	188.46
4122	22.893	0.18182	0.1	227.69
4123	22.708	0.18182	0.1	267.14
4124	22.524	0.18182	0.1	306.75
4125	22.339	0.18182	0.1	346.51
4126	22.154	0.18182	0.1	386.4
4127	21.97	0.18182	0.1	426.41
4128	21.785	0.18182	0.1	466.55
4129	21.601	0.18182	0.1	506.81
4130	21.416	0.18182	0.1	547.19
4131	21.232	0.18182	0.1	587.69
4132	21.047	0.18182	0.1	628.32
4133	20.863	0.18182	0.1	669.09
4134	20.678	0.18182	0.1	709.99
4135	20.493	0.18182	0.1	751.03
4136	20.309	0.18182	0.1	792.21
4137	20.124	0.18182	0.1	833.54
4138	19.94	0.18182	0.1	875.03
4139	19.755	0.18182	0.1	916.68
4140	19.571	0.18182	0.1	958.49
4141	19.386	0.18182	0.1	1000.5
4142	19.202	0.18182	0.1	1042.6
4143	19.017	0.18182	0.1	1084.9
4144	18.833	0.18182	0.1	1127.4
4145	18.648	0.18182	0.1	1170.1
4146	18.463	0.18182	0.1	1213.
4147	18.279	0.18182	0.1	1256.
4148	18.094	0.18182	0.1	1299.3
4149	17.91	0.18182	0.1	1342.7
4150	17.725	0.18182	0.1	1386.4
4151	17.541	0.18182	0.1	1430.2
4152	17.356	0.18182	0.1	1474.2
4153	17.172	0.18182	0.1	1518.5
4154	16.987	0.18182	0.1	1562.9
4155	16.802	0.18182	0.1	1607.6
4156	16.618	0.18182	0.1	1652.4
4157	16.433	0.18182	0.1	1697.5
4158	16.249	0.18182	0.1	1742.7
4159	16.064	0.18182	0.1	1788.2
4160	15.88	0.18182	0.1	1833.9
4161	15.695	0.18182	0.1	1879.7
4162	15.511	0.18182	0.1	1925.8
4163	15.326	0.18182	0.1	1972.
4164	15.141	0.18182	0.1	2018.4
4165	14.957	0.18182	0.1	2065.
4166	14.772	0.18182	0.1	2111.7
4167	14.588	0.18182	0.1	2158.5
4168	14.403	0.18182	0.1	2205.4
4169	14.219	0.18182	0.1	2252.2
4170	14.034	0.18182	0.1	2299.1
4171	13.85	0.18182	0.1	2345.8
4172	13.665	0.18182	0.1	2392.2
4173	13.48	0.18182	0.1	2438.2
4174	13.296	0.18182	0.1	2483.7
4175	13.111	0.18182	0.1	2528.4
4176	12.927	0.18182	0.1	2571.9
4177	12.742	0.18182	0.1	2613.9
4178	12.558	0.18182	0.1	2654.
4179	12.373	0.18182	0.1	2691.5
4180	12.189	0.18182	0.1	2725.7
4181	12.004	0.18182	0.1	2755.5
4182	11.82	0.18182	0.1	2779.9
4183	11.635	0.18182	0.1	2797.3
4184	11.45	0.18182	0.1	2805.9
4185	11.266	0.18182	0.1	2803.5
4186	11.081	0.18182	0.1	2787.3
4187	10.897	0.18182	0.1	2754.2
4188	10.712	0.18182	0.1	2700.5
4189	10.528	0.18182	0.1	2621.6
4190	10.343	0.18182	0.1	2512.9
4191	10.159	0.18182	0.1	2369.3
4192	9.974	0.18182	0.1	2186.
4193	9.7894	0.18182	0.1	1958.6
4194	9.6049	0.18182	0.1	1684.9
4195	9.4203	0.18182	0.1	1365.2
4196	9.2358	0.18182	0.1	1005.2
4197	9.0512	0.18182	0.1	645.92
4198	23.815	0.36364	0.1	38.128
4199	23.631	0.36364	0.1	73.058
4200	23.446	0.36364	0.1	109.85
4201	23.262	0.36364	0.1	147.64
4202	23.077	0.36364	0.1	186.06
4203	22.893	0.36364	0.1	224.9
4204	22.708	0.36364	0.1	264.04
4205	22.524	0.36364	0.1	303.42
4206	22.339	0.36364	0.1	342.99
4207	22.154	0.36364	0.1	382.74
4208	21.97	0.36364	0.1	422.64
4209	21.785	0.36364	0.1	462.68
4210	21.601	0.36364	0.1	502.87
4211	21.416	0.36364	0.1	543.19
4212	21.232	0.36364	0.1	583.65
4213	21.047	0.36364	0.1	624.24
4214	20.863	0.36364	0.1	664.98
4215	20.678	0.36364	0.1	705.87
4216	20.493	0.36364	0.1	746.9
4217	20.309	0.36364	0.1	788.08
4218	20.124	0.36364	0.1	829.41
4219	19.94	0.36364	0.1	870.91
4220	19.755	0.36364	0.1	912.57
4221	19.571	0.36364	0.1	954.39
4222	19.386	0.36364	0.1	996.38
4223	19.202	0.36364	0.1	1038.5
4224	19.017	0.36364	0.1	1080.9
4225	18.833	0.36364	0.1	1123.4
4226	18.648	0.36364	0.1	1166.1
4227	18.463	0.36364	0.1	1209.
4228	18.279	0.36364	0.1	1252.1
4229	18.094	0.36364	0.1	1295.4
4230	17.91	0.36364	0.1	1338.8
4231	17.725	0.36364	0.1	1382.5
4232	17.541	0.36364	0.1	1426.3
4233	17.356	0.36364	0.1	1470.4
4234	17.172	0.36364	0.1	1514.6
4235	16.987	0.36364	0.1	1559.1
4236	16.802	0.36364	0.1	1603.8
4237	16.618	0.36364	0.1	1648.6
4238	16.433	0.36364	0.1	1693.7
4239	16.249	0.36364	0.1	1739.
4240	16.064	0.36364	0.1	1784.4
4241	15.88	0.36364	0.1	1830.1
4242	15.695	0.36364	0.1	1876.
4243	15.511	0.36364	0.1	1922.
4244	15.326	0.36364	0.1	1968.3
4245	15.141	0.36364	0.1	2014.7
4246	14.957	0.36364	0.1	2061.3
4247	14.772	0.36364	0.1	2108.
4248	14.588	0.36364	0.1	2154.8
4249	14.403	0.36364	0.1	2201.7
4250	14.219	0.36364	0.1	2248.7
4251	14.034	0.36364	0.1	2295.6
4252	13.85	0.36364	0.1	2342.4
4253	13.665	0.36364	0.1	2389.
4254	13.48	0.36364	0.1	2435.3
4255	13.296	0.36364	0.1	2481.
4256	13.111	0.36364	0.1	2526.
4257	12.927	0.36364	0.1	2570.1
4258	12.742	0.36364	0.1	2612.7
4259	12.558	0.36364	0.1	2653.6
4260	12.373	0.36364	0.1	2692.2
4261	12.189	0.36364	0.1	2727.6
4262	12.004	0.36364	0.1	2759.1
4263	11.82	0.36364	0.1	2785.5
4264	11.635	0.36364	0.1	2805.4
4265	11.45	0.36364	0.1	2817.
4266	11.266	0.36364	0.1	2818.2
4267	11.081	0.36364	0.1	2806.5
4268	10.897	0.36364	0.1	2778.6
4269	10.712	0.36364	0.1	2730.8
4270	10.528	0.36364	0.1	2658.9
4271	10.343	0.36364	0.1	2557.8
4272	10.159	0.36364	0.1	2422.5
4273	9.974	0.36364	0.1	2247.9
4274	9.7894	0.36364	0.1	2030.
4275	9.6049	0.36364	0.1	1767.7
4276	9.4203	0.36364	0.1	1466.3
4277	9.2358	0.36364	0.1	1146.4
4278	9.0512	0.36364	0.1	895.66
4279	23.815	0.54545	0.1	38.977
4280	23.631	0.54545	0.1	74.598
4281	23.446	0.54545	0.1	111.25
4282	23.262	0.54545	0.1	148.68
4283	23.077	0.54545	0.1	186.74
4284	22.893	0.54545	0.1	225.26
4285	22.708	0.54545	0.1	264.13
4286	22.524	0.54545	0.1	303.29
4287	22.339	0.54545	0.1	342.67
4288	22.154	0.54545	0.1	382.26
4289	21.97	0.54545	0.1	422.02
4290	21.785	0.54545	0.1	461.94
4291	21.601	0.54545	0.1	502.02
4292	21.416	0.54545	0.1	542.25
4293	21.232	0.54545	0.1	582.62
4294	21.047	0.54545	0.1	623.15
4295	20.863	0.54545	0.1	663.82
4296	20.678	0.54545	0.1	704.64
4297	20.493	0.54545	0.1	745.62
4298	20.309	0.54545	0.1	786.75
4299	20.124	0.54545	0.1	828.04
4300	19.94	0.54545	0.1	869.5
4301	19.755	0.54545	0.1	911.12
4302	19.571	0.54545	0.1	952.91
4303	19.386	0.54545	0.1	994.87
4304	19.202	0.54545	0.1	1037.
4305	19.017	0.54545	0.1	1079.3
4306	18.833	0.54545	0.1	1121.8
4307	18.648	0.54545	0.1	1164.5
4308	18.463	0.54545	0.1	1207.4
4309	18.279	0.54545	0.1	1250.4
4310	18.094	0.54545	0.1	1293.7
4311	17.91	0.54545	0.1	1337.1
4312	17.725	0.54545	0.1	1380.7
4313	17.541	0.54545	0.1	1424.6
4314	17.356	0.54545	0.1	1468.6
4315	17.172	0.54545	0.1	1512.8
4316	16.987	0.54545	0.1	1557.2
4317	16.802	0.54545	0.1	1601.9
4318	16.618	0.54545	0.1	1646.7
4319	16.433	0.54545	0.1	1691.7
4320	16.249	0.54545	0.1	1737.
4321	16.064	0.54545	0.1	1782.4
4322	15.88	0.54545	0.1	1828.
4323	15.695	0.54545	0.1	1873.8
4324	15.511	0.54545	0.1	1919.9
4325	15.326	0.54545	0.1	1966.1
4326	15.141	0.54545	0.1	2012.5
4327	14.957	0.54545	0.1	2059.
4328	14.772	0.54545	0.1	2105.7
4329	14.588	0.54545	0.1	2152.5
4330	14.403	0.54545	0.1	2199.4
4331	14.219	0.54545	0.1	2246.4
4332	14.034	0.54545	0.1	2293.4
4333	13.85	0.54545	0.1	2340.3
4334	13.665	0.54545	0.1	2387.
4335	13.48	0.54545	0.1	2433.5
4336	13.296	0.54545	0.1	2479.6
4337	13.111	0.54545	0.1	2525.1
4338	12.927	0.54545	0.1	2569.7
4339	12.742	0.54545	0.1	2613.1
4340	12.558	0.54545	0.1	2655.
4341	12.373	0.54545	0.1	2694.9
4342	12.189	0.54545	0.1	2732.
4343	12.004	0.54545	0.1	2765.5
4344	11.82	0.54545	0.1	2794.6
4345	11.635	0.54545	0.1	2817.8
4346	11.45	0.54545	0.1	2833.5
4347	11.266	0.54545	0.1	2839.9
4348	11.081	0.54545	0.1	2834.4
4349	10.897	0.54545	0.1	2814.1
4350	10.712	0.54545	0.1	2775.4
4351	10.528	0.54545	0.1	2714.2
4352	10.343	0.54545	0.1	2625.8
4353	10.159	0.54545	0.1	2505.
4354	9.974	0.54545	0.1	2347.1
4355	9.7894	0.54545	0.1	2148.5
4356	9.6049	0.54545	0.1	1909.6
4357	9.4203	0.54545	0.1	1640.1
4358	9.2358	0.54545	0.1	1368.8
4359	9.0512	0.54545	0.1	1189.2
4360	23.815	0.72727	0.1	39.49
4361	23.631	0.72727	0.1	75.832
4362	23.446	0.72727	0.1	112.74
4363	23.262	0.72727	0.1	150.11
4364	23.077	0.72727	0.1	187.97
4365	22.893	0.72727	0.1	226.25
4366	22.708	0.72727	0.1	264.88
4367	22.524	0.72727	0.1	303.81
4368	22.339	0.72727	0.1	343.
4369	22.154	0.72727	0.1	382.4
4370	21.97	0.72727	0.1	422.
4371	21.785	0.72727	0.1	461.78
4372	21.601	0.72727	0.1	501.73
4373	21.416	0.72727	0.1	541.84
4374	21.232	0.72727	0.1	582.11
4375	21.047	0.72727	0.1	622.54
4376	20.863	0.72727	0.1	663.12
4377	20.678	0.72727	0.1	703.87
4378	20.493	0.72727	0.1	744.77
4379	20.309	0.72727	0.1	785.84
4380	20.124	0.72727	0.1	827.07
4381	19.94	0.72727	0.1	868.47
4382	19.755	0.72727	0.1	910.04
4383	19.571	0.72727	0.1	951.79
4384	19.386	0.72727	0.1	993.7
4385	19.202	0.72727	0.1	1035.8
4386	19.017	0.72727	0.1	1078.1
4387	18.833	0.72727	0.1	1120.5
4388	18.648	0.72727	0.1	1163.2
4389	18.463	0.72727	0.1	1206.
4390	18.279	0.72727	0.1	1249.
4391	18.094	0.72727	0.1	1292.2
4392	17.91	0.72727	0.1	1335.6
4393	17.725	0.72727	0.1	1379.2
4394	17.541	0.72727	0.1	1423.
4395	17.356	0.72727	0.1	1467.
4396	17.172	0.72727	0.1	1511.2
4397	16.987	0.72727	0.1	1555.6
4398	16.802	0.72727	0.1	1600.2
4399	16.618	0.72727	0.1	1645.
4400	16.433	0.72727	0.1	1690.
4401	16.249	0.72727	0.1	1735.2
4402	16.064	0.72727	0.1	1780.6
4403	15.88	0.72727	0.1	1826.1
4404	15.695	0.72727	0.1	1871.9
4405	15.511	0.72727	0.1	1917.9
4406	15.326	0.72727	0.1	1964.1
4407	15.141	0.72727	0.1	2010.4
4408	14.957	0.72727	0.1	2056.9
4409	14.772	0.72727	0.1	2103.6
4410	14.588	0.72727	0.1	2150.4
4411	14.403	0.72727	0.1	2197.3
4412	14.219	0.72727	0.1	2244.4
4413	14.034	0.72727	0.1	2291.4
4414	13.85	0.72727	0.1	2338.4
4415	13.665	0.72727	0.1	2385.4
4416	13.48	0.72727	0.1	2432.1
4417	13.296	0.72727	0.1	2478.6
4418	13.111	0.72727	0.1	2524.6
4419	12.927	0.72727	0.1	2569.9
4420	12.742	0.72727	0.1	2614.3
4421	12.558	0.72727	0.1	2657.3
4422	12.373	0.72727	0.1	2698.7
4423	12.189	0.72727	0.1	2737.8
4424	12.004	0.72727	0.1	2774.
4425	11.82	0.72727	0.1	2806.2
4426	11.635	0.72727	0.1	2833.5
4427	11.45	0.72727	0.1	2854.4
4428	11.266	0.72727	0.1	2867.2
4429	11.081	0.72727	0.1	2869.6
4430	10.897	0.72727	0.1	2859.1
4431	10.712	0.72727	0.1	2832.5
4432	10.528	0.72727	0.1	2785.9
4433	10.343	0.72727	0.1	2715.
4434	10.159	0.72727	0.1	2615.1
4435	9.974	0.72727	0.1	2481.5
4436	9.7894	0.72727	0.1	2311.3
4437	9.6049	0.72727	0.1	2105.3
4438	9.4203	0.72727	0.1	1874.2
4439	9.2358	0.72727	0.1	1645.
4440	9.0512	0.72727	0.1	1510.6
4441	23.815	0.90909	0.1	39.755
4442	23.631	0.90909	0.1	76.703
4443	23.446	0.90909	0.1	113.97
4444	23.262	0.90909	0.1	151.46
4445	23.077	0.90909	0.1	189.27
4446	22.893	0.90909	0.1	227.42
4447	22.708	0.90909	0.1	265.89
4448	22.524	0.90909	0.1	304.64
4449	22.339	0.90909	0.1	343.64
4450	22.154	0.90909	0.1	382.87
4451	21.97	0.90909	0.1	422.3
4452	21.785	0.90909	0.1	461.93
4453	21.601	0.90909	0.1	501.74
4454	21.416	0.90909	0.1	541.72
4455	21.232	0.90909	0.1	581.88
4456	21.047	0.90909	0.1	622.2
4457	20.863	0.90909	0.1	662.69
4458	20.678	0.90909	0.1	703.34
4459	20.493	0.90909	0.1	744.17
4460	20.309	0.90909	0.1	785.16
4461	20.124	0.90909	0.1	826.32
4462	19.94	0.90909	0.1	867.66
4463	19.755	0.90909	0.1	909.17
4464	19.571	0.90909	0.1	950.86
4465	19.386	0.90909	0.1	992.73
4466	19.202	0.90909	0.1	1034.8
4467	19.017	0.90909	0.1	1077.
4468	18.833	0.90909	0.1	1119.4
4469	18.648	0.90909	0.1	1162.
4470	18.463	0.90909	0.1	1204.8
4471	18.279	0.90909	0.1	1247.8
4472	18.094	0.90909	0.1	1291.
4473	17.91	0.90909	0.1	1334.4
4474	17.725	0.90909	0.1	1377.9
4475	17.541	0.90909	0.1	1421.7
4476	17.356	0.90909	0.1	1465.6
4477	17.172	0.90909	0.1	1509.8
4478	16.987	0.90909	0.1	1554.1
4479	16.802	0.90909	0.1	1598.7
4480	16.618	0.90909	0.1	1643.4
4481	16.433	0.90909	0.1	1688.4
4482	16.249	0.90909	0.1	1733.5
4483	16.064	0.90909	0.1	1778.9
4484	15.88	0.90909	0.1	1824.4
4485	15.695	0.90909	0.1	1870.2
4486	15.511	0.90909	0.1	1916.1
4487	15.326	0.90909	0.1	1962.2
4488	15.141	0.90909	0.1	2008.5
4489	14.957	0.90909	0.1	2055.
4490	14.772	0.90909	0.1	2101.7
4491	14.588	0.90909	0.1	2148.5
4492	14.403	0.90909	0.1	2195.4
4493	14.219	0.90909	0.1	2242.5
4494	14.034	0.90909	0.1	2289.6
4495	13.85	0.90909	0.1	2336.8
4496	13.665	0.90909	0.1	2383.9
4497	13.48	0.90909	0.1	2431.
4498	13.296	0.90909	0.1	2477.9
4499	13.111	0.90909	0.1	2524.4
4500	12.927	0.90909	0.1	2570.5
4501	12.742	0.90909	0.1	2615.9
4502	12.558	0.90909	0.1	2660.4
4503	12.373	0.90909	0.1	2703.5
4504	12.189	0.90909	0.1	2744.9
4505	12.004	0.90909	0.1	2784.
4506	11.82	0.90909	0.1	2820.
4507	11.635	0.90909	0.1	2852.
4508	11.45	0.90909	0.1	2879.
4509	11.266	0.90909	0.1	2899.3
4510	11.081	0.90909	0.1	2911.3
4511	10.897	0.90909	0.1	2912.7
4512	10.712	0.90909	0.1	2900.9
4513	10.528	0.90909	0.1	2872.6
4514	10.343	0.90909	0.1	2824.2
4515	10.159	0.90909	0.1	2751.5
4516	9.974	0.90909	0.1	2650.5
4517	9.7894	0.90909	0.1	2518.1
4518	9.6049	0.90909	0.1	2354.4
4519	9.4203	0.90909	0.1	2166.7
4520	9.2358	0.90909	0.1	1975.1
4521	9.0512	0.90909	0.1	1874.4
4522	23.815	1.0909	0.1	39.889
4523	23.631	1.0909	0.1	77.319
4524	23.446	1.0909	0.1	114.93
4525	23.262	1.0909	0.1	152.62
4526	23.077	1.0909	0.1	190.49
4527	22.893	1.0909	0.1	228.61
4528	22.708	1.0909	0.1	266.97
4529	22.524	1.0909	0.1	305.59
4530	22.339	1.0909	0.1	344.45
4531	22.154	1.0909	0.1	383.52
4532	21.97	1.0909	0.1	422.81
4533	21.785	1.0909	0.1	462.29
4534	21.601	1.0909	0.1	501.97
4535	21.416	1.0909	0.1	541.82
4536	21.232	1.0909	0.1	581.86
4537	21.047	1.0909	0.1	622.07
4538	20.863	1.0909	0.1	662.45
4539	20.678	1.0909	0.1	703.01
4540	20.493	1.0909	0.1	743.75
4541	20.309	1.0909	0.1	784.66
4542	20.124	1.0909	0.1	825.75
4543	19.94	1.0909	0.1	867.02
4544	19.755	1.0909	0.1	908.47
4545	19.571	1.0909	0.1	950.1
4546	19.386	1.0909	0.1	991.91
4547	19.202	1.0909	0.1	1033.9
4548	19.017	1.0909	0.1	1076.1
4549	18.833	1.0909	0.1	1118.5
4550	18.648	1.0909	0.1	1161.
4551	18.463	1.0909	0.1	1203.8
4552	18.279	1.0909	0.1	1246.7
4553	18.094	1.0909	0.1	1289.9
4554	17.91	1.0909	0.1	1333.2
4555	17.725	1.0909	0.1	1376.7
4556	17.541	1.0909	0.1	1420.5
4557	17.356	1.0909	0.1	1464.4
4558	17.172	1.0909	0.1	1508.5
4559	16.987	1.0909	0.1	1552.8
4560	16.802	1.0909	0.1	1597.3
4561	16.618	1.0909	0.1	1642.
4562	16.433	1.0909	0.1	1686.9
4563	16.249	1.0909	0.1	1732.
4564	16.064	1.0909	0.1	1777.3
4565	15.88	1.0909	0.1	1822.8
4566	15.695	1.0909	0.1	1868.5
4567	15.511	1.0909	0.1	1914.4
4568	15.326	1.0909	0.1	1960.5
4569	15.141	1.0909	0.1	2006.7
4570	14.957	1.0909	0.1	2053.2
4571	14.772	1.0909	0.1	2099.8
4572	14.588	1.0909	0.1	2146.6
4573	14.403	1.0909	0.1	2193.6
4574	14.219	1.0909	0.1	2240.7
4575	14.034	1.0909	0.1	2288.
4576	13.85	1.0909	0.1	2335.3
4577	13.665	1.0909	0.1	2382.7
4578	13.48	1.0909	0.1	2430.1
4579	13.296	1.0909	0.1	2477.4
4580	13.111	1.0909	0.1	2524.6
4581	12.927	1.0909	0.1	2571.5
4582	12.742	1.0909	0.1	2618.
4583	12.558	1.0909	0.1	2663.9
4584	12.373	1.0909	0.1	2709.
4585	12.189	1.0909	0.1	2752.9
4586	12.004	1.0909	0.1	2795.2
4587	11.82	1.0909	0.1	2835.4
4588	11.635	1.0909	0.1	2872.8
4589	11.45	1.0909	0.1	2906.5
4590	11.266	1.0909	0.1	2935.4
4591	11.081	1.0909	0.1	2958.3
4592	10.897	1.0909	0.1	2973.5
4593	10.712	1.0909	0.1	2979.
4594	10.528	1.0909	0.1	2972.5
4595	10.343	1.0909	0.1	2951.1
4596	10.159	1.0909	0.1	2911.9
4597	9.974	1.0909	0.1	2851.8
4598	9.7894	1.0909	0.1	2767.7
4599	9.6049	1.0909	0.1	2658.
4600	9.4203	1.0909	0.1	2523.8
4601	9.2358	1.0909	0.1	2373.4
4602	9.0512	1.0909	0.1	2306.
4603	23.815	1.2727	0.1	39.945
4604	23.631	1.2727	0.1	77.756
4605	23.446	1.2727	0.1	115.68
4606	23.262	1.2727	0.1	153.58
4607	23.077	1.2727	0.1	191.56
4608	22.893	1.2727	0.1	229.7
4609	22.708	1.2727	0.1	268.03
4610	22.524	1.2727	0.1	306.57
4611	22.339	1.2727	0.1	345.32
4612	22.154	1.2727	0.1	384.28
4613	21.97	1.2727	0.1	423.43
4614	21.785	1.2727	0.1	462.79
4615	21.601	1.2727	0.1	502.33
4616	21.416	1.2727	0.1	542.07
4617	21.232	1.2727	0.1	581.99
4618	21.047	1.2727	0.1	622.09
4619	20.863	1.2727	0.1	662.37
4620	20.678	1.2727	0.1	702.84
4621	20.493	1.2727	0.1	743.48
4622	20.309	1.2727	0.1	784.31
4623	20.124	1.2727	0.1	825.33
4624	19.94	1.2727	0.1	866.53
4625	19.755	1.2727	0.1	907.91
4626	19.571	1.2727	0.1	949.48
4627	19.386	1.2727	0.1	991.24
4628	19.202	1.2727	0.1	1033.2
4629	19.017	1.2727	0.1	1075.3
4630	18.833	1.2727	0.1	1117.7
4631	18.648	1.2727	0.1	1160.2
4632	18.463	1.2727	0.1	1202.9
4633	18.279	1.2727	0.1	1245.8
4634	18.094	1.2727	0.1	1288.9
4635	17.91	1.2727	0.1	1332.2
4636	17.725	1.2727	0.1	1375.7
4637	17.541	1.2727	0.1	1419.4
4638	17.356	1.2727	0.1	1463.2
4639	17.172	1.2727	0.1	1507.3
4640	16.987	1.2727	0.1	1551.6
4641	16.802	1.2727	0.1	1596.
4642	16.618	1.2727	0.1	1640.7
4643	16.433	1.2727	0.1	1685.6
4644	16.249	1.2727	0.1	1730.6
4645	16.064	1.2727	0.1	1775.9
4646	15.88	1.2727	0.1	1821.3
4647	15.695	1.2727	0.1	1867.
4648	15.511	1.2727	0.1	1912.8
4649	15.326	1.2727	0.1	1958.9
4650	15.141	1.2727	0.1	2005.1
4651	14.957	1.2727	0.1	2051.5
4652	14.772	1.2727	0.1	2098.2
4653	14.588	1.2727	0.1	2145.
4654	14.403	1.2727	0.1	2192.
4655	14.219	1.2727	0.1	2239.1
4656	14.034	1.2727	0.1	2286.4
4657	13.85	1.2727	0.1	2333.9
4658	13.665	1.2727	0.1	2381.5
4659	13.48	1.2727	0.1	2429.3
4660	13.296	1.2727	0.1	2477.1
4661	13.111	1.2727	0.1	2524.9
4662	12.927	1.2727	0.1	2572.7
4663	12.742	1.2727	0.1	2620.4
4664	12.558	1.2727	0.1	2667.9
4665	12.373	1.2727	0.1	2715.
4666	12.189	1.2727	0.1	2761.5
4667	12.004	1.2727	0.1	2807.3
4668	11.82	1.2727	0.1	2851.9
4669	11.635	1.2727	0.1	2895.
4670	11.45	1.2727	0.1	2936.1
4671	11.266	1.2727	0.1	2974.5
4672	11.081	1.2727	0.1	3009.4
4673	10.897	1.2727	0.1	3039.8
4674	10.712	1.2727	0.1	3064.7
4675	10.528	1.2727	0.1	3082.7
4676	10.343	1.2727	0.1	3092.4
4677	10.159	1.2727	0.1	3092.5
4678	9.974	1.2727	0.1	3081.3
4679	9.7894	1.2727	0.1	3057.3
4680	9.6049	1.2727	0.1	3017.7
4681	9.4203	1.2727	0.1	2957.4
4682	9.2358	1.2727	0.1	2869.1
4683	9.0512	1.2727	0.1	2845.3
4684	23.815	1.4545	0.1	39.955
4685	23.631	1.4545	0.1	78.07
4686	23.446	1.4545	0.1	116.25
4687	23.262	1.4545	0.1	154.35
4688	23.077	1.4545	0.1	192.47
4689	22.893	1.4545	0.1	230.67
4690	22.708	1.4545	0.1	269.01
4691	22.524	1.4545	0.1	307.51
4692	22.339	1.4545	0.1	346.19
4693	22.154	1.4545	0.1	385.05
4694	21.97	1.4545	0.1	424.11
4695	21.785	1.4545	0.1	463.35
4696	21.601	1.4545	0.1	502.79
4697	21.416	1.4545	0.1	542.41
4698	21.232	1.4545	0.1	582.22
4699	21.047	1.4545	0.1	622.22
4700	20.863	1.4545	0.1	662.4
4701	20.678	1.4545	0.1	702.78
4702	20.493	1.4545	0.1	743.34
4703	20.309	1.4545	0.1	784.09
4704	20.124	1.4545	0.1	825.03
4705	19.94	1.4545	0.1	866.16
4706	19.755	1.4545	0.1	907.48
4707	19.571	1.4545	0.1	948.99
4708	19.386	1.4545	0.1	990.69
4709	19.202	1.4545	0.1	1032.6
4710	19.017	1.4545	0.1	1074.7
4711	18.833	1.4545	0.1	1117.
4712	18.648	1.4545	0.1	1159.4
4713	18.463	1.4545	0.1	1202.1
4714	18.279	1.4545	0.1	1245.
4715	18.094	1.4545	0.1	1288.
4716	17.91	1.4545	0.1	1331.3
4717	17.725	1.4545	0.1	1374.7
4718	17.541	1.4545	0.1	1418.4
4719	17.356	1.4545	0.1	1462.2
4720	17.172	1.4545	0.1	1506.3
4721	16.987	1.4545	0.1	1550.5
4722	16.802	1.4545	0.1	1594.9
4723	16.618	1.4545	0.1	1639.5
4724	16.433	1.4545	0.1	1684.4
4725	16.249	1.4545	0.1	1729.4
4726	16.064	1.4545	0.1	1774.6
4727	15.88	1.4545	0.1	1820.
4728	15.695	1.4545	0.1	1865.6
4729	15.511	1.4545	0.1	1911.4
4730	15.326	1.4545	0.1	1957.4
4731	15.141	1.4545	0.1	2003.6
4732	14.957	1.4545	0.1	2050.
4733	14.772	1.4545	0.1	2096.6
4734	14.588	1.4545	0.1	2143.4
4735	14.403	1.4545	0.1	2190.4
4736	14.219	1.4545	0.1	2237.6
4737	14.034	1.4545	0.1	2285.1
4738	13.85	1.4545	0.1	2332.7
4739	13.665	1.4545	0.1	2380.6
4740	13.48	1.4545	0.1	2428.6
4741	13.296	1.4545	0.1	2476.9
4742	13.111	1.4545	0.1	2525.4
4743	12.927	1.4545	0.1	2574.1
4744	12.742	1.4545	0.1	2623.
4745	12.558	1.4545	0.1	2672.
4746	12.373	1.4545	0.1	2721.2
4747	12.189	1.4545	0.1	2770.5
4748	12.004	1.4545	0.1	2819.8
4749	11.82	1.4545	0.1	2869.1
4750	11.635	1.4545	0.1	2918.2
4751	11.45	1.4545	0.1	2967.
4752	11.266	1.4545	0.1	3015.3
4753	11.081	1.4545	0.1	3062.9
4754	10.897	1.4545	0.1	3109.6
4755	10.712	1.4545	0.1	3155.3
4756	10.528	1.4545	0.1	3199.9
4757	10.343	1.4545	0.1	3243.8
4758	10.159	1.4545	0.1	3287.6
4759	9.974	1.4545	0.1	3332.7
4760	9.7894	1.4545	0.1	3380.9
4761	9.6049	1.4545	0.1	3432.3
4762	9.4203	1.4545	0.1	3483.5
4763	9.2358	1.4545	0.1	3504.3
4764	9.0512	1.4545	0.1	3580.8
4765	23.815	1.6364	0.1	39.94
4766	23.631	1.6364	0.1	78.296
4767	23.446	1.6364	0.1	116.69
4768	23.262	1.6364	0.1	154.97
4769	23.077	1.6364	0.1	193.22
4770	22.893	1.6364	0.1	231.51
4771	22.708	1.6364	0.1	269.88
4772	22.524	1.6364	0.1	308.37
4773	22.339	1.6364	0.1	347.
4774	22.154	1.6364	0.1	385.8
4775	21.97	1.6364	0.1	424.78
4776	21.785	1.6364	0.1	463.93
4777	21.601	1.6364	0.1	503.27
4778	21.416	1.6364	0.1	542.8
4779	21.232	1.6364	0.1	582.51
4780	21.047	1.6364	0.1	622.42
4781	20.863	1.6364	0.1	662.51
4782	20.678	1.6364	0.1	702.8
4783	20.493	1.6364	0.1	743.28
4784	20.309	1.6364	0.1	783.96
4785	20.124	1.6364	0.1	824.83
4786	19.94	1.6364	0.1	865.89
4787	19.755	1.6364	0.1	907.15
4788	19.571	1.6364	0.1	948.6
4789	19.386	1.6364	0.1	990.25
4790	19.202	1.6364	0.1	1032.1
4791	19.017	1.6364	0.1	1074.1
4792	18.833	1.6364	0.1	1116.4
4793	18.648	1.6364	0.1	1158.8
4794	18.463	1.6364	0.1	1201.4
4795	18.279	1.6364	0.1	1244.3
4796	18.094	1.6364	0.1	1287.3
4797	17.91	1.6364	0.1	1330.5
4798	17.725	1.6364	0.1	1373.9
4799	17.541	1.6364	0.1	1417.5
4800	17.356	1.6364	0.1	1461.3
4801	17.172	1.6364	0.1	1505.3
4802	16.987	1.6364	0.1	1549.5
4803	16.802	1.6364	0.1	1593.9
4804	16.618	1.6364	0.1	1638.5
4805	16.433	1.6364	0.1	1683.3
4806	16.249	1.6364	0.1	1728.3
4807	16.064	1.6364	0.1	1773.4
4808	15.88	1.6364	0.1	1818.8
4809	15.695	1.6364	0.1	1864.4
4810	15.511	1.6364	0.1	1910.1
4811	15.326	1.6364	0.1	1956.1
4812	15.141	1.6364	0.1	2002.3
4813	14.957	1.6364	0.1	2048.6
4814	14.772	1.6364	0.1	2095.2
4815	14.588	1.6364	0.1	2142.
4816	14.403	1.6364	0.1	2189.1
4817	14.219	1.6364	0.1	2236.3
4818	14.034	1.6364	0.1	2283.8
4819	13.85	1.6364	0.1	2331.6
4820	13.665	1.6364	0.1	2379.7
4821	13.48	1.6364	0.1	2428.1
4822	13.296	1.6364	0.1	2476.8
4823	13.111	1.6364	0.1	2525.9
4824	12.927	1.6364	0.1	2575.5
4825	12.742	1.6364	0.1	2625.5
4826	12.558	1.6364	0.1	2676.2
4827	12.373	1.6364	0.1	2727.4
4828	12.189	1.6364	0.1	2779.4
4829	12.004	1.6364	0.1	2832.3
4830	11.82	1.6364	0.1	2886.2
4831	11.635	1.6364	0.1	2941.4
4832	11.45	1.6364	0.1	2998.
4833	11.266	1.6364	0.1	3056.5
4834	11.081	1.6364	0.1	3117.1
4835	10.897	1.6364	0.1	3180.6
4836	10.712	1.6364	0.1	3247.9
4837	10.528	1.6364	0.1	3320.3
4838	10.343	1.6364	0.1	3400.1
4839	10.159	1.6364	0.1	3490.7
4840	9.974	1.6364	0.1	3597.2
4841	9.7894	1.6364	0.1	3727.4
4842	9.6049	1.6364	0.1	3892.
4843	9.4203	1.6364	0.1	4100.4
4844	9.2358	1.6364	0.1	4346.6
4845	9.0512	1.6364	0.1	4648.4
4846	23.815	1.8182	0.1	39.911
4847	23.631	1.8182	0.1	78.46
4848	23.446	1.8182	0.1	117.03
4849	23.262	1.8182	0.1	155.47
4850	23.077	1.8182	0.1	193.84
4851	22.893	1.8182	0.1	232.21
4852	22.708	1.8182	0.1	270.62
4853	22.524	1.8182	0.1	309.12
4854	22.339	1.8182	0.1	347.74
4855	22.154	1.8182	0.1	386.5
4856	21.97	1.8182	0.1	425.41
4857	21.785	1.8182	0.1	464.5
4858	21.601	1.8182	0.1	503.76
4859	21.416	1.8182	0.1	543.2
4860	21.232	1.8182	0.1	582.83
4861	21.047	1.8182	0.1	622.66
4862	20.863	1.8182	0.1	662.67
4863	20.678	1.8182	0.1	702.88
4864	20.493	1.8182	0.1	743.29
4865	20.309	1.8182	0.1	783.89
4866	20.124	1.8182	0.1	824.7
4867	19.94	1.8182	0.1	865.7
4868	19.755	1.8182	0.1	906.9
4869	19.571	1.8182	0.1	948.3
4870	19.386	1.8182	0.1	989.89
4871	19.202	1.8182	0.1	1031.7
4872	19.017	1.8182	0.1	1073.7
4873	18.833	1.8182	0.1	1115.9
4874	18.648	1.8182	0.1	1158.3
4875	18.463	1.8182	0.1	1200.9
4876	18.279	1.8182	0.1	1243.7
4877	18.094	1.8182	0.1	1286.7
4878	17.91	1.8182	0.1	1329.8
4879	17.725	1.8182	0.1	1373.2
4880	17.541	1.8182	0.1	1416.8
4881	17.356	1.8182	0.1	1460.6
4882	17.172	1.8182	0.1	1504.5
4883	16.987	1.8182	0.1	1548.7
4884	16.802	1.8182	0.1	1593.1
4885	16.618	1.8182	0.1	1637.6
4886	16.433	1.8182	0.1	1682.3
4887	16.249	1.8182	0.1	1727.3
4888	16.064	1.8182	0.1	1772.4
4889	15.88	1.8182	0.1	1817.7
4890	15.695	1.8182	0.1	1863.3
4891	15.511	1.8182	0.1	1909.
4892	15.326	1.8182	0.1	1954.9
4893	15.141	1.8182	0.1	2001.
4894	14.957	1.8182	0.1	2047.4
4895	14.772	1.8182	0.1	2094.
4896	14.588	1.8182	0.1	2140.8
4897	14.403	1.8182	0.1	2187.8
4898	14.219	1.8182	0.1	2235.1
4899	14.034	1.8182	0.1	2282.7
4900	13.85	1.8182	0.1	2330.7
4901	13.665	1.8182	0.1	2378.9
4902	13.48	1.8182	0.1	2427.6
4903	13.296	1.8182	0.1	2476.8
4904	13.111	1.8182	0.1	2526.5
4905	12.927	1.8182	0.1	2576.9
4906	12.742	1.8182	0.1	2628.1
4907	12.558	1.8182	0.1	2680.2
4908	12.373	1.8182	0.1	2733.4
4909	12.189	1.8182	0.1	2788.1
4910	12.004	1.8182	0.1	2844.4
4911	11.82	1.8182	0.1	2902.9
4912	11.635	1.8182	0.1	2964.
4913	11.45	1.8182	0.1	3028.4
4914	11.266	1.8182	0.1	3096.8
4915	11.081	1.8182	0.1	3170.4
4916	10.897	1.8182	0.1	3250.7
4917	10.712	1.8182	0.1	3339.6
4918	10.528	1.8182	0.1	3440.
4919	10.343	1.8182	0.1	3556.1
4920	10.159	1.8182	0.1	3694.2
4921	9.974	1.8182	0.1	3864.2
4922	9.7894	1.8182	0.1	4081.7
4923	9.6049	1.8182	0.1	4372.6
4924	9.4203	1.8182	0.1	4783.
4925	9.2358	1.8182	0.1	5417.5
4926	9.0512	1.8182	0.1	6752.9
4927	23.815	2.	0.1	39.876
4928	23.631	2.	0.1	78.578
4929	23.446	2.	0.1	117.29
4930	23.262	2.	0.1	155.86
4931	23.077	2.	0.1	194.34
4932	22.893	2.	0.1	232.78
4933	22.708	2.	0.1	271.25
4934	22.524	2.	0.1	309.77
4935	22.339	2.	0.1	348.38
4936	22.154	2.	0.1	387.11
4937	21.97	2.	0.1	425.99
4938	21.785	2.	0.1	465.02
4939	21.601	2.	0.1	504.21
4940	21.416	2.	0.1	543.59
4941	21.232	2.	0.1	583.15
4942	21.047	2.	0.1	622.9
4943	20.863	2.	0.1	662.85
4944	20.678	2.	0.1	702.99
4945	20.493	2.	0.1	743.33
4946	20.309	2.	0.1	783.88
4947	20.124	2.	0.1	824.62
4948	19.94	2.	0.1	865.57
4949	19.755	2.	0.1	906.71
4950	19.571	2.	0.1	948.06
4951	19.386	2.	0.1	989.62
4952	19.202	2.	0.1	1031.4
4953	19.017	2.	0.1	1073.3
4954	18.833	2.	0.1	1115.5
4955	18.648	2.	0.1	1157.8
4956	18.463	2.	0.1	1200.4
4957	18.279	2.	0.1	1243.2
4958	18.094	2.	0.1	1286.1
4959	17.91	2.	0.1	1329.3
4960	17.725	2.	0.1	1372.6
4961	17.541	2.	0.1	1416.2
4962	17.356	2.	0.1	1459.9
4963	17.172	2.	0.1	1503.8
4964	16.987	2.	0.1	1548.
4965	16.802	2.	0.1	1592.3
4966	16.618	2.	0.1	1636.8
4967	16.433	2.	0.1	1681.5
4968	16.249	2.	0.1	1726.4
4969	16.064	2.	0.1	1771.5
4970	15.88	2.	0.1	1816.8
4971	15.695	2.	0.1	1862.3
4972	15.511	2.	0.1	1908.
4973	15.326	2.	0.1	1953.9
4974	15.141	2.	0.1	2000.
4975	14.957	2.	0.1	2046.3
4976	14.772	2.	0.1	2092.9
4977	14.588	2.	0.1	2139.7
4978	14.403	2.	0.1	2186.7
4979	14.219	2.	0.1	2234.1
4980	14.034	2.	0.1	2281.8
4981	13.85	2.	0.1	2329.8
4982	13.665	2.	0.1	2378.3
4983	13.48	2.	0.1	2427.3
4984	13.296	2.	0.1	2476.8
4985	13.111	2.	0.1	2527.1
4986	12.927	2.	0.1	2578.2
4987	12.742	2.	0.1	2630.4
4988	12.558	2.	0.1	2683.9
4989	12.373	2.	0.1	2739.
4990	12.189	2.	0.1	2796.1
4991	12.004	2.	0.1	2855.7
4992	11.82	2.	0.1	2918.5
4993	11.635	2.	0.1	2985.2
4994	11.45	2.	0.1	3056.9
4995	11.266	2.	0.1	3134.9
4996	11.081	2.	0.1	3220.9
4997	10.897	2.	0.1	3317.3
4998	10.712	2.	0.1	3427.2
4999	10.528	2.	0.1	3554.7
5000	10.343	2.	0.1	3706.1
5001	10.159	2.	0.1	3890.6
5002	9.974	2.	0.1	4122.3
5003	9.7894	2.	0.1	4424.9
5004	9.6049	2.	0.1	4840.5
5005	9.4203	2.	0.1	5460.4
5006	9.2358	2.	0.1	6454.
5007	9.0512	2.	0.1	9422.4
5008	23.815	2.1818	0.1	39.841
5009	23.631	2.1818	0.1	78.663
5010	23.446	2.1818	0.1	117.49
5011	23.262	2.1818	0.1	156.16
5012	23.077	2.1818	0.1	194.73
5013	22.893	2.1818	0.1	233.25
5014	22.708	2.1818	0.1	271.76
5015	22.524	2.1818	0.1	310.3
5016	22.339	2.1818	0.1	348.92
5017	22.154	2.1818	0.1	387.63
5018	21.97	2.1818	0.1	426.48
5019	21.785	2.1818	0.1	465.47
5020	21.601	2.1818	0.1	504.62
5021	21.416	2.1818	0.1	543.94
5022	21.232	2.1818	0.1	583.45
5023	21.047	2.1818	0.1	623.14
5024	20.863	2.1818	0.1	663.03
5025	20.678	2.1818	0.1	703.11
5026	20.493	2.1818	0.1	743.4
5027	20.309	2.1818	0.1	783.89
5028	20.124	2.1818	0.1	824.58
5029	19.94	2.1818	0.1	865.48
5030	19.755	2.1818	0.1	906.58
5031	19.571	2.1818	0.1	947.89
5032	19.386	2.1818	0.1	989.41
5033	19.202	2.1818	0.1	1031.1
5034	19.017	2.1818	0.1	1073.
5035	18.833	2.1818	0.1	1115.2
5036	18.648	2.1818	0.1	1157.5
5037	18.463	2.1818	0.1	1200.
5038	18.279	2.1818	0.1	1242.8
5039	18.094	2.1818	0.1	1285.7
5040	17.91	2.1818	0.1	1328.8
5041	17.725	2.1818	0.1	1372.1
5042	17.541	2.1818	0.1	1415.7
5043	17.356	2.1818	0.1	1459.4
5044	17.172	2.1818	0.1	1503.3
5045	16.987	2.1818	0.1	1547.4
5046	16.802	2.1818	0.1	1591.7
5047	16.618	2.1818	0.1	1636.2
5048	16.433	2.1818	0.1	1680.9
5049	16.249	2.1818	0.1	1725.7
5050	16.064	2.1818	0.1	1770.8
5051	15.88	2.1818	0.1	1816.
5052	15.695	2.1818	0.1	1861.5
5053	15.511	2.1818	0.1	1907.2
5054	15.326	2.1818	0.1	1953.
5055	15.141	2.1818	0.1	1999.1
5056	14.957	2.1818	0.1	2045.4
5057	14.772	2.1818	0.1	2091.9
5058	14.588	2.1818	0.1	2138.7
5059	14.403	2.1818	0.1	2185.8
5060	14.219	2.1818	0.1	2233.2
5061	14.034	2.1818	0.1	2281.
5062	13.85	2.1818	0.1	2329.1
5063	13.665	2.1818	0.1	2377.7
5064	13.48	2.1818	0.1	2427.
5065	13.296	2.1818	0.1	2476.9
5066	13.111	2.1818	0.1	2527.6
5067	12.927	2.1818	0.1	2579.4
5068	12.742	2.1818	0.1	2632.5
5069	12.558	2.1818	0.1	2687.3
5070	12.373	2.1818	0.1	2744.
5071	12.189	2.1818	0.1	2803.3
5072	12.004	2.1818	0.1	2865.9
5073	11.82	2.1818	0.1	2932.5
5074	11.635	2.1818	0.1	3004.3
5075	11.45	2.1818	0.1	3082.7
5076	11.266	2.1818	0.1	3169.4
5077	11.081	2.1818	0.1	3266.9
5078	10.897	2.1818	0.1	3378.2
5079	10.712	2.1818	0.1	3507.4
5080	10.528	2.1818	0.1	3660.2
5081	10.343	2.1818	0.1	3844.3
5082	10.159	2.1818	0.1	4071.4
5083	9.974	2.1818	0.1	4358.9
5084	9.7894	2.1818	0.1	4736.1
5085	9.6049	2.1818	0.1	5253.8
5086	9.4203	2.1818	0.1	6016.
5087	9.2358	2.1818	0.1	7284.8
5088	9.0512	2.1818	0.1	9725.8
5089	23.815	2.3636	0.1	39.81
5090	23.631	2.3636	0.1	78.722
5091	23.446	2.3636	0.1	117.64
5092	23.262	2.3636	0.1	156.39
5093	23.077	2.3636	0.1	195.03
5094	22.893	2.3636	0.1	233.6
5095	22.708	2.3636	0.1	272.15
5096	22.524	2.3636	0.1	310.72
5097	22.339	2.3636	0.1	349.35
5098	22.154	2.3636	0.1	388.06
5099	21.97	2.3636	0.1	426.88
5100	21.785	2.3636	0.1	465.84
5101	21.601	2.3636	0.1	504.96
5102	21.416	2.3636	0.1	544.24
5103	21.232	2.3636	0.1	583.7
5104	21.047	2.3636	0.1	623.35
5105	20.863	2.3636	0.1	663.19
5106	20.678	2.3636	0.1	703.23
5107	20.493	2.3636	0.1	743.47
5108	20.309	2.3636	0.1	783.92
5109	20.124	2.3636	0.1	824.57
5110	19.94	2.3636	0.1	865.43
5111	19.755	2.3636	0.1	906.49
5112	19.571	2.3636	0.1	947.77
5113	19.386	2.3636	0.1	989.25
5114	19.202	2.3636	0.1	1030.9
5115	19.017	2.3636	0.1	1072.8
5116	18.833	2.3636	0.1	1114.9
5117	18.648	2.3636	0.1	1157.2
5118	18.463	2.3636	0.1	1199.7
5119	18.279	2.3636	0.1	1242.4
5120	18.094	2.3636	0.1	1285.3
5121	17.91	2.3636	0.1	1328.4
5122	17.725	2.3636	0.1	1371.7
5123	17.541	2.3636	0.1	1415.2
5124	17.356	2.3636	0.1	1458.9
5125	17.172	2.3636	0.1	1502.8
5126	16.987	2.3636	0.1	1546.9
5127	16.802	2.3636	0.1	1591.2
5128	16.618	2.3636	0.1	1635.6
5129	16.433	2.3636	0.1	1680.3
5130	16.249	2.3636	0.1	1725.2
5131	16.064	2.3636	0.1	1770.2
5132	15.88	2.3636	0.1	1815.4
5133	15.695	2.3636	0.1	1860.9
5134	15.511	2.3636	0.1	1906.5
5135	15.326	2.3636	0.1	1952.3
5136	15.141	2.3636	0.1	1998.4
5137	14.957	2.3636	0.1	2044.7
5138	14.772	2.3636	0.1	2091.2
5139	14.588	2.3636	0.1	2138.
5140	14.403	2.3636	0.1	2185.1
5141	14.219	2.3636	0.1	2232.5
5142	14.034	2.3636	0.1	2280.3
5143	13.85	2.3636	0.1	2328.5
5144	13.665	2.3636	0.1	2377.3
5145	13.48	2.3636	0.1	2426.7
5146	13.296	2.3636	0.1	2476.9
5147	13.111	2.3636	0.1	2528.1
5148	12.927	2.3636	0.1	2580.4
5149	12.742	2.3636	0.1	2634.3
5150	12.558	2.3636	0.1	2690.1
5151	12.373	2.3636	0.1	2748.2
5152	12.189	2.3636	0.1	2809.4
5153	12.004	2.3636	0.1	2874.4
5154	11.82	2.3636	0.1	2944.4
5155	11.635	2.3636	0.1	3020.5
5156	11.45	2.3636	0.1	3104.7
5157	11.266	2.3636	0.1	3199.
5158	11.081	2.3636	0.1	3306.5
5159	10.897	2.3636	0.1	3430.8
5160	10.712	2.3636	0.1	3577.
5161	10.528	2.3636	0.1	3751.9
5162	10.343	2.3636	0.1	3964.5
5163	10.159	2.3636	0.1	4227.9
5164	9.974	2.3636	0.1	4561.2
5165	9.7894	2.3636	0.1	4994.
5166	9.6049	2.3636	0.1	5573.9
5167	9.4203	2.3636	0.1	6384.3
5168	9.2358	2.3636	0.1	7559.9
5169	9.0512	2.3636	0.1	9205.9
5170	23.815	2.5455	0.1	39.784
5171	23.631	2.5455	0.1	78.762
5172	23.446	2.5455	0.1	117.74
5173	23.262	2.5455	0.1	156.55
5174	23.077	2.5455	0.1	195.25
5175	22.893	2.5455	0.1	233.86
5176	22.708	2.5455	0.1	272.45
5177	22.524	2.5455	0.1	311.04
5178	22.339	2.5455	0.1	349.67
5179	22.154	2.5455	0.1	388.38
5180	21.97	2.5455	0.1	427.19
5181	21.785	2.5455	0.1	466.13
5182	21.601	2.5455	0.1	505.22
5183	21.416	2.5455	0.1	544.47
5184	21.232	2.5455	0.1	583.9
5185	21.047	2.5455	0.1	623.52
5186	20.863	2.5455	0.1	663.32
5187	20.678	2.5455	0.1	703.33
5188	20.493	2.5455	0.1	743.53
5189	20.309	2.5455	0.1	783.95
5190	20.124	2.5455	0.1	824.57
5191	19.94	2.5455	0.1	865.4
5192	19.755	2.5455	0.1	906.43
5193	19.571	2.5455	0.1	947.68
5194	19.386	2.5455	0.1	989.14
5195	19.202	2.5455	0.1	1030.8
5196	19.017	2.5455	0.1	1072.7
5197	18.833	2.5455	0.1	1114.7
5198	18.648	2.5455	0.1	1157.
5199	18.463	2.5455	0.1	1199.5
5200	18.279	2.5455	0.1	1242.2
5201	18.094	2.5455	0.1	1285.1
5202	17.91	2.5455	0.1	1328.2
5203	17.725	2.5455	0.1	1371.5
5204	17.541	2.5455	0.1	1414.9
5205	17.356	2.5455	0.1	1458.6
5206	17.172	2.5455	0.1	1502.5
5207	16.987	2.5455	0.1	1546.6
5208	16.802	2.5455	0.1	1590.8
5209	16.618	2.5455	0.1	1635.3
5210	16.433	2.5455	0.1	1679.9
5211	16.249	2.5455	0.1	1724.7
5212	16.064	2.5455	0.1	1769.7
5213	15.88	2.5455	0.1	1815.
5214	15.695	2.5455	0.1	1860.4
5215	15.511	2.5455	0.1	1906.
5216	15.326	2.5455	0.1	1951.8
5217	15.141	2.5455	0.1	1997.8
5218	14.957	2.5455	0.1	2044.1
5219	14.772	2.5455	0.1	2090.6
5220	14.588	2.5455	0.1	2137.4
5221	14.403	2.5455	0.1	2184.5
5222	14.219	2.5455	0.1	2231.9
5223	14.034	2.5455	0.1	2279.8
5224	13.85	2.5455	0.1	2328.1
5225	13.665	2.5455	0.1	2377.
5226	13.48	2.5455	0.1	2426.5
5227	13.296	2.5455	0.1	2477.
5228	13.111	2.5455	0.1	2528.4
5229	12.927	2.5455	0.1	2581.2
5230	12.742	2.5455	0.1	2635.7
5231	12.558	2.5455	0.1	2692.3
5232	12.373	2.5455	0.1	2751.5
5233	12.189	2.5455	0.1	2814.2
5234	12.004	2.5455	0.1	2881.2
5235	11.82	2.5455	0.1	2953.7
5236	11.635	2.5455	0.1	3033.4
5237	11.45	2.5455	0.1	3122.1
5238	11.266	2.5455	0.1	3222.5
5239	11.081	2.5455	0.1	3338.
5240	10.897	2.5455	0.1	3472.8
5241	10.712	2.5455	0.1	3632.8
5242	10.528	2.5455	0.1	3825.4
5243	10.343	2.5455	0.1	4060.6
5244	10.159	2.5455	0.1	4352.1
5245	9.974	2.5455	0.1	4718.4
5246	9.7894	2.5455	0.1	5184.8
5247	9.6049	2.5455	0.1	5785.1
5248	9.4203	2.5455	0.1	6558.6
5249	9.2358	2.5455	0.1	7522.6
5250	9.0512	2.5455	0.1	8546.9
5251	23.815	2.7273	0.1	39.767
5252	23.631	2.7273	0.1	78.787
5253	23.446	2.7273	0.1	117.8
5254	23.262	2.7273	0.1	156.65
5255	23.077	2.7273	0.1	195.39
5256	22.893	2.7273	0.1	234.03
5257	22.708	2.7273	0.1	272.64
5258	22.524	2.7273	0.1	311.24
5259	22.339	2.7273	0.1	349.88
5260	22.154	2.7273	0.1	388.59
5261	21.97	2.7273	0.1	427.4
5262	21.785	2.7273	0.1	466.33
5263	21.601	2.7273	0.1	505.4
5264	21.416	2.7273	0.1	544.63
5265	21.232	2.7273	0.1	584.04
5266	21.047	2.7273	0.1	623.63
5267	20.863	2.7273	0.1	663.41
5268	20.678	2.7273	0.1	703.4
5269	20.493	2.7273	0.1	743.58
5270	20.309	2.7273	0.1	783.97
5271	20.124	2.7273	0.1	824.57
5272	19.94	2.7273	0.1	865.38
5273	19.755	2.7273	0.1	906.4
5274	19.571	2.7273	0.1	947.63
5275	19.386	2.7273	0.1	989.07
5276	19.202	2.7273	0.1	1030.7
5277	19.017	2.7273	0.1	1072.6
5278	18.833	2.7273	0.1	1114.6
5279	18.648	2.7273	0.1	1156.9
5280	18.463	2.7273	0.1	1199.4
5281	18.279	2.7273	0.1	1242.
5282	18.094	2.7273	0.1	1284.9
5283	17.91	2.7273	0.1	1328.
5284	17.725	2.7273	0.1	1371.3
5285	17.541	2.7273	0.1	1414.7
5286	17.356	2.7273	0.1	1458.4
5287	17.172	2.7273	0.1	1502.3
5288	16.987	2.7273	0.1	1546.3
5289	16.802	2.7273	0.1	1590.6
5290	16.618	2.7273	0.1	1635.
5291	16.433	2.7273	0.1	1679.6
5292	16.249	2.7273	0.1	1724.4
5293	16.064	2.7273	0.1	1769.4
5294	15.88	2.7273	0.1	1814.6
5295	15.695	2.7273	0.1	1860.
5296	15.511	2.7273	0.1	1905.6
5297	15.326	2.7273	0.1	1951.4
5298	15.141	2.7273	0.1	1997.5
5299	14.957	2.7273	0.1	2043.7
5300	14.772	2.7273	0.1	2090.2
5301	14.588	2.7273	0.1	2137.
5302	14.403	2.7273	0.1	2184.1
5303	14.219	2.7273	0.1	2231.6
5304	14.034	2.7273	0.1	2279.4
5305	13.85	2.7273	0.1	2327.8
5306	13.665	2.7273	0.1	2376.7
5307	13.48	2.7273	0.1	2426.4
5308	13.296	2.7273	0.1	2477.
5309	13.111	2.7273	0.1	2528.7
5310	12.927	2.7273	0.1	2581.8
5311	12.742	2.7273	0.1	2636.6
5312	12.558	2.7273	0.1	2693.8
5313	12.373	2.7273	0.1	2753.8
5314	12.189	2.7273	0.1	2817.4
5315	12.004	2.7273	0.1	2885.8
5316	11.82	2.7273	0.1	2960.2
5317	11.635	2.7273	0.1	3042.2
5318	11.45	2.7273	0.1	3134.2
5319	11.266	2.7273	0.1	3238.9
5320	11.081	2.7273	0.1	3359.9
5321	10.897	2.7273	0.1	3502.2
5322	10.712	2.7273	0.1	3671.8
5323	10.528	2.7273	0.1	3876.8
5324	10.343	2.7273	0.1	4127.7
5325	10.159	2.7273	0.1	4437.9
5326	9.974	2.7273	0.1	4824.3
5327	9.7894	2.7273	0.1	5306.3
5328	9.6049	2.7273	0.1	5902.5
5329	9.4203	2.7273	0.1	6618.2
5330	9.2358	2.7273	0.1	7415.
5331	9.0512	2.7273	0.1	8160.2
5332	23.815	2.9091	0.1	39.758
5333	23.631	2.9091	0.1	78.799
5334	23.446	2.9091	0.1	117.83
5335	23.262	2.9091	0.1	156.7
5336	23.077	2.9091	0.1	195.45
5337	22.893	2.9091	0.1	234.12
5338	22.708	2.9091	0.1	272.73
5339	22.524	2.9091	0.1	311.35
5340	22.339	2.9091	0.1	349.99
5341	22.154	2.9091	0.1	388.7
5342	21.97	2.9091	0.1	427.5
5343	21.785	2.9091	0.1	466.43
5344	21.601	2.9091	0.1	505.49
5345	21.416	2.9091	0.1	544.72
5346	21.232	2.9091	0.1	584.11
5347	21.047	2.9091	0.1	623.69
5348	20.863	2.9091	0.1	663.46
5349	20.678	2.9091	0.1	703.43
5350	20.493	2.9091	0.1	743.61
5351	20.309	2.9091	0.1	783.99
5352	20.124	2.9091	0.1	824.57
5353	19.94	2.9091	0.1	865.37
5354	19.755	2.9091	0.1	906.38
5355	19.571	2.9091	0.1	947.6
5356	19.386	2.9091	0.1	989.03
5357	19.202	2.9091	0.1	1030.7
5358	19.017	2.9091	0.1	1072.5
5359	18.833	2.9091	0.1	1114.6
5360	18.648	2.9091	0.1	1156.8
5361	18.463	2.9091	0.1	1199.3
5362	18.279	2.9091	0.1	1242.
5363	18.094	2.9091	0.1	1284.8
5364	17.91	2.9091	0.1	1327.9
5365	17.725	2.9091	0.1	1371.2
5366	17.541	2.9091	0.1	1414.6
5367	17.356	2.9091	0.1	1458.3
5368	17.172	2.9091	0.1	1502.2
5369	16.987	2.9091	0.1	1546.2
5370	16.802	2.9091	0.1	1590.4
5371	16.618	2.9091	0.1	1634.9
5372	16.433	2.9091	0.1	1679.5
5373	16.249	2.9091	0.1	1724.3
5374	16.064	2.9091	0.1	1769.3
5375	15.88	2.9091	0.1	1814.5
5376	15.695	2.9091	0.1	1859.9
5377	15.511	2.9091	0.1	1905.5
5378	15.326	2.9091	0.1	1951.3
5379	15.141	2.9091	0.1	1997.3
5380	14.957	2.9091	0.1	2043.5
5381	14.772	2.9091	0.1	2090.
5382	14.588	2.9091	0.1	2136.8
5383	14.403	2.9091	0.1	2183.9
5384	14.219	2.9091	0.1	2231.4
5385	14.034	2.9091	0.1	2279.3
5386	13.85	2.9091	0.1	2327.6
5387	13.665	2.9091	0.1	2376.6
5388	13.48	2.9091	0.1	2426.4
5389	13.296	2.9091	0.1	2477.
5390	13.111	2.9091	0.1	2528.8
5391	12.927	2.9091	0.1	2582.
5392	12.742	2.9091	0.1	2637.1
5393	12.558	2.9091	0.1	2694.5
5394	12.373	2.9091	0.1	2754.9
5395	12.189	2.9091	0.1	2819.1
5396	12.004	2.9091	0.1	2888.2
5397	11.82	2.9091	0.1	2963.5
5398	11.635	2.9091	0.1	3046.8
5399	11.45	2.9091	0.1	3140.4
5400	11.266	2.9091	0.1	3247.2
5401	11.081	2.9091	0.1	3371.2
5402	10.897	2.9091	0.1	3517.3
5403	10.712	2.9091	0.1	3691.8
5404	10.528	2.9091	0.1	3903.3
5405	10.343	2.9091	0.1	4162.1
5406	10.159	2.9091	0.1	4481.6
5407	9.974	2.9091	0.1	4877.1
5408	9.7894	2.9091	0.1	5364.3
5409	9.6049	2.9091	0.1	5952.8
5410	9.4203	2.9091	0.1	6631.8
5411	9.2358	2.9091	0.1	7346.1
5412	9.0512	2.9091	0.1	7975.5
5413	23.815	3.0909	0.1	39.758
5414	23.631	3.0909	0.1	78.799
5415	23.446	3.0909	0.1	117.83
5416	23.262	3.0909	0.1	156.7
5417	23.077	3.0909	0.1	195.45
5418	22.893	3.0909	0.1	234.12
5419	22.708	3.0909	0.1	272.73
5420	22.524	3.0909	0.1	311.35
5421	22.339	3.0909	0.1	349.99
5422	22.154	3.0909	0.1	388.7
5423	21.97	3.0909	0.1	427.5
5424	21.785	3.0909	0.1	466.43
5425	21.601	3.0909	0.1	505.49
5426	21.416	3.0909	0.1	544.72
5427	21.232	3.0909	0.1	584.11
5428	21.047	3.0909	0.1	623.69
5429	20.863	3.0909	0.1	663.46
5430	20.678	3.0909	0.1	703.43
5431	20.493	3.0909	0.1	743.61
5432	20.309	3.0909	0.1	783.99
5433	20.124	3.0909	0.1	824.57
5434	19.94	3.0909	0.1	865.37
5435	19.755	3.0909	0.1	906.38
5436	19.571	3.0909	0.1	947.6
5437	19.386	3.0909	0.1	989.03
5438	19.202	3.0909	0.1	1030.7
5439	19.017	3.0909	0.1	1072.5
5440	18.833	3.0909	0.1	1114.6
5441	18.648	3.0909	0.1	1156.8
5442	18.463	3.0909	0.1	1199.3
5443	18.279	3.0909	0.1	1242.
5444	18.094	3.0909	0.1	1284.8
5445	17.91	3.0909	0.1	1327.9
5446	17.725	3.0909	0.1	1371.2
5447	17.541	3.0909	0.1	1414.6
5448	17.356	3.0909	0.1	1458.3
5449	17.172	3.0909	0.1	1502.2
5450	16.987	3.0909	0.1	1546.2
5451	16.802	3.0909	0.1	1590.4
5452	16.618	3.0909	0.1	1634.9
5453	16.433	3.0909	0.1	1679.5
5454	16.249	3.0909	0.1	1724.3
5455	16.064	3.0909	0.1	1769.3
5456	15.88	3.0909	0.1	1814.5
5457	15.695	3.0909	0.1	1859.9
5458	15.511	3.0909	0.1	1905.5
5459	15.326	3.0909	0.1	1951.3
5460	15.141	3.0909	0.1	1997.3
5461	14.957	3.0909	0.1	2043.5
5462	14.772	3.0909	0.1	2090.
5463	14.588	3.0909	0.1	2136.8
5464	14.403	3.0909	0.1	2183.9
5465	14.219	3.0909	0.1	2231.4
5466	14.034	3.0909	0.1	2279.3
5467	13.85	3.0909	0.1	2327.6
5468	13.665	3.0909	0.1	2376.6
5469	13.48	3.0909	0.1	2426.4
5470	13.296	3.0909	0.1	2477.
5471	13.111	3.0909	0.1	2528.8
5472	12.927	3.0909	0.1	2582.
5473	12.742	3.0909	0.1	2637.1
5474	12.558	3.0909	0.1	2694.5
5475	12.373	3.0909	0.1	2754.9
5476	12.189	3.0909	0.1	2819.1
5477	12.004	3.0909	0.1	2888.2
5478	11.82	3.0909	0.1	2963.5
5479	11.635	3.0909	0.1	3046.8
5480	11.45	3.0909	0.1	3140.4
5481	11.266	3.0909	0.1	3247.2
5482	11.081	3.0909	0.1	3371.2
5483	10.897	3.0909	0.1	3517.3
5484	10.712	3.0909	0.1	3691.8
5485	10.528	3.0909	0.1	3903.3
5486	10.343	3.0909	0.1	4162.1
5487	10.159	3.0909	0.1	4481.6
5488	9.974	3.0909	0.1	4877.1
5489	9.7894	3.0909	0.1	5364.3
5490	9.6049	3.0909	0.1	5952.8
5491	9.4203	3.0909	0.1	6631.8
5492	9.2358	3.0909	0.1	7346.1
5493	9.0512	3.0909	0.1	7975.5
5494	23.815	3.2727	0.1	39.767
5495	23.631	3.2727	0.1	78.787
5496	23.446	3.2727	0.1	117.8
5497	23.262	3.2727	0.1	156.65
5498	23.077	3.2727	0.1	195.39
5499	22.893	3.2727	0.1	234.03
5500	22.708	3.2727	0.1	272.64
5501	22.524	3.2727	0.1	311.24
5502	22.339	3.2727	0.1	349.88
5503	22.154	3.2727	0.1	388.59
5504	21.97	3.2727	0.1	427.4
5505	21.785	3.2727	0.1	466.33
5506	21.601	3.2727	0.1	505.4
5507	21.416	3.2727	0.1	544.63
5508	21.232	3.2727	0.1	584.04
5509	21.047	3.2727	0.1	623.63
5510	20.863	3.2727	0.1	663.41
5511	20.678	3.2727	0.1	703.4
5512	20.493	3.2727	0.1	743.58
5513	20.309	3.2727	0.1	783.97
5514	20.124	3.2727	0.1	824.57
5515	19.94	3.2727	0.1	865.38
5516	19.755	3.2727	0.1	906.4
5517	19.571	3.2727	0.1	947.63
5518	19.386	3.2727	0.1	989.07
5519	19.202	3.2727	0.1	1030.7
5520	19.017	3.2727	0.1	1072.6
5521	18.833	3.2727	0.1	1114.6
5522	18.648	3.2727	0.1	1156.9
5523	18.463	3.2727	0.1	1199.4
5524	18.279	3.2727	0.1	1242.
5525	18.094	3.2727	0.1	1284.9
5526	17.91	3.2727	0.1	1328.
5527	17.725	3.2727	0.1	1371.3
5528	17.541	3.2727	0.1	1414.7
5529	17.356	3.2727	0.1	1458.4
5530	17.172	3.2727	0.1	1502.3
5531	16.987	3.2727	0.1	1546.3
5532	16.802	3.2727	0.1	1590.6
5533	16.618	3.2727	0.1	1635.
5534	16.433	3.2727	0.1	1679.6
5535	16.249	3.2727	0.1	1724.4
5536	16.064	3.2727	0.1	1769.4
5537	15.88	3.2727	0.1	1814.6
5538	15.695	3.2727	0.1	1860.
5539	15.511	3.2727	0.1	1905.6
5540	15.326	3.2727	0.1	1951.4
5541	15.141	3.2727	0.1	1997.5
5542	14.957	3.2727	0.1	2043.7
5543	14.772	3.2727	0.1	2090.2
5544	14.588	3.2727	0.1	2137.
5545	14.403	3.2727	0.1	2184.1
5546	14.219	3.2727	0.1	2231.6
5547	14.034	3.2727	0.1	2279.4
5548	13.85	3.2727	0.1	2327.8
5549	13.665	3.2727	0.1	2376.7
5550	13.48	3.2727	0.1	2426.4
5551	13.296	3.2727	0.1	2477.
5552	13.111	3.2727	0.1	2528.7
5553	12.927	3.2727	0.1	2581.8
5554	12.742	3.2727	0.1	2636.6
5555	12.558	3.2727	0.1	2693.8
5556	12.373	3.2727	0.1	2753.8
5557	12.189	3.2727	0.1	2817.4
5558	12.004	3.2727	0.1	2885.8
5559	11.82	3.2727	0.1	2960.2
5560	11.635	3.2727	0.1	3042.2
5561	11.45	3.2727	0.1	3134.2
5562	11.266	3.2727	0.1	3238.9
5563	11.081	3.2727	0.1	3359.9
5564	10.897	3.2727	0.1	3502.2
5565	10.712	3.2727	0.1	3671.8
5566	10.528	3.2727	0.1	3876.8
5567	10.343	3.2727	0.1	4127.7
5568	10.159	3.2727	0.1	4437.9
5569	9.974	3.2727	0.1	4824.3
5570	9.7894	3.2727	0.1	5306.3
5571	9.6049	3.2727	0.1	5902.5
5572	9.4203	3.2727	0.1	6618.2
5573	9.2358	3.2727	0.1	7415.
5574	9.0512	3.2727	0.1	8160.2
5575	23.815	3.4545	0.1	39.784
5576	23.631	3.4545	0.1	78.762
5577	23.446	3.4545	0.1	117.74
5578	23.262	3.4545	0.1	156.55
5579	23.077	3.4545	0.1	195.25
5580	22.893	3.4545	0.1	233.86
5581	22.708	3.4545	0.1	272.45
5582	22.524	3.4545	0.1	311.04
5583	22.339	3.4545	0.1	349.67
5584	22.154	3.4545	0.1	388.38
5585	21.97	3.4545	0.1	427.19
5586	21.785	3.4545	0.1	466.13
5587	21.601	3.4545	0.1	505.22
5588	21.416	3.4545	0.1	544.47
5589	21.232	3.4545	0.1	583.9
5590	21.047	3.4545	0.1	623.52
5591	20.863	3.4545	0.1	663.32
5592	20.678	3.4545	0.1	703.33
5593	20.493	3.4545	0.1	743.53
5594	20.309	3.4545	0.1	783.95
5595	20.124	3.4545	0.1	824.57
5596	19.94	3.4545	0.1	865.4
5597	19.755	3.4545	0.1	906.43
5598	19.571	3.4545	0.1	947.68
5599	19.386	3.4545	0.1	989.14
5600	19.202	3.4545	0.1	1030.8
5601	19.017	3.4545	0.1	1072.7
5602	18.833	3.4545	0.1	1114.7
5603	18.648	3.4545	0.1	1157.
5604	18.463	3.4545	0.1	1199.5
5605	18.279	3.4545	0.1	1242.2
5606	18.094	3.4545	0.1	1285.1
5607	17.91	3.4545	0.1	1328.2
5608	17.725	3.4545	0.1	1371.5
5609	17.541	3.4545	0.1	1414.9
5610	17.356	3.4545	0.1	1458.6
5611	17.172	3.4545	0.1	1502.5
5612	16.987	3.4545	0.1	1546.6
5613	16.802	3.4545	0.1	1590.8
5614	16.618	3.4545	0.1	1635.3
5615	16.433	3.4545	0.1	1679.9
5616	16.249	3.4545	0.1	1724.7
5617	16.064	3.4545	0.1	1769.7
5618	15.88	3.4545	0.1	1815.
5619	15.695	3.4545	0.1	1860.4
5620	15.511	3.4545	0.1	1906.
5621	15.326	3.4545	0.1	1951.8
5622	15.141	3.4545	0.1	1997.8
5623	14.957	3.4545	0.1	2044.1
5624	14.772	3.4545	0.1	2090.6
5625	14.588	3.4545	0.1	2137.4
5626	14.403	3.4545	0.1	2184.5
5627	14.219	3.4545	0.1	2231.9
5628	14.034	3.4545	0.1	2279.8
5629	13.85	3.4545	0.1	2328.1
5630	13.665	3.4545	0.1	2377.
5631	13.48	3.4545	0.1	2426.5
5632	13.296	3.4545	0.1	2477.
5633	13.111	3.4545	0.1	2528.4
5634	12.927	3.4545	0.1	2581.2
5635	12.742	3.4545	0.1	2635.7
5636	12.558	3.4545	0.1	2692.3
5637	12.373	3.4545	0.1	2751.5
5638	12.189	3.4545	0.1	2814.2
5639	12.004	3.4545	0.1	2881.2
5640	11.82	3.4545	0.1	2953.7
5641	11.635	3.4545	0.1	3033.4
5642	11.45	3.4545	0.1	3122.1
5643	11.266	3.4545	0.1	3222.5
5644	11.081	3.4545	0.1	3338.
5645	10.897	3.4545	0.1	3472.8
5646	10.712	3.4545	0.1	3632.8
5647	10.528	3.4545	0.1	3825.4
5648	10.343	3.4545	0.1	4060.6
5649	10.159	3.4545	0.1	4352.1
5650	9.974	3.4545	0.1	4718.4
5651	9.7894	3.4545	0.1	5184.8
5652	9.6049	3.4545	0.1	5785.1
5653	9.4203	3.4545	0.1	6558.6
5654	9.2358	3.4545	0.1	7522.6
5655	9.0512	3.4545	0.1	8546.9
5656	23.815	3.6364	0.1	39.81
5657	23.631	3.6364	0.1	78.722
5658	23.446	3.6364	0.1	117.64
5659	23.262	3.6364	0.1	156.39
5660	23.077	3.6364	0.1	195.03
5661	22.893	3.6364	0.1	233.6
5662	22.708	3.6364	0.1	272.15
5663	22.524	3.6364	0.1	310.72
5664	22.339	3.6364	0.1	349.35
5665	22.154	3.6364	0.1	388.06
5666	21.97	3.6364	0.1	426.88
5667	21.785	3.6364	0.1	465.84
5668	21.601	3.6364	0.1	504.96
5669	21.416	3.6364	0.1	544.24
5670	21.232	3.6364	0.1	583.7
5671	21.047	3.6364	0.1	623.35
5672	20.863	3.6364	0.1	663.19
5673	20.678	3.6364	0.1	703.23
5674	20.493	3.6364	0.1	743.47
5675	20.309	3.6364	0.1	783.92
5676	20.124	3.6364	0.1	824.57
5677	19.94	3.6364	0.1	865.43
5678	19.755	3.6364	0.1	906.49
5679	19.571	3.6364	0.1	947.77
5680	19.386	3.6364	0.1	989.25
5681	19.202	3.6364	0.1	1030.9
5682	19.017	3.6364	0.1	1072.8
5683	18.833	3.6364	0.1	1114.9
5684	18.648	3.6364	0.1	1157.2
5685	18.463	3.6364	0.1	1199.7
5686	18.279	3.6364	0.1	1242.4
5687	18.094	3.6364	0.1	1285.3
5688	17.91	3.6364	0.1	1328.4
5689	17.725	3.6364	0.1	1371.7
5690	17.541	3.6364	0.1	1415.2
5691	17.356	3.6364	0.1	1458.9
5692	17.172	3.6364	0.1	1502.8
5693	16.987	3.6364	0.1	1546.9
5694	16.802	3.6364	0.1	1591.2
5695	16.618	3.6364	0.1	1635.6
5696	16.433	3.6364	0.1	1680.3
5697	16.249	3.6364	0.1	1725.2
5698	16.064	3.6364	0.1	1770.2
5699	15.88	3.6364	0.1	1815.4
5700	15.695	3.6364	0.1	1860.9
5701	15.511	3.6364	0.1	1906.5
5702	15.326	3.6364	0.1	1952.3
5703	15.141	3.6364	0.1	1998.4
5704	14.957	3.6364	0.1	2044.7
5705	14.772	3.6364	0.1	2091.2
5706	14.588	3.6364	0.1	2138.
5707	14.403	3.6364	0.1	2185.1
5708	14.219	3.6364	0.1	2232.5
5709	14.034	3.6364	0.1	2280.3
5710	13.85	3.6364	0.1	2328.5
5711	13.665	3.6364	0.1	2377.3
5712	13.48	3.6364	0.1	2426.7
5713	13.296	3.6364	0.1	2476.9
5714	13.111	3.6364	0.1	2528.1
5715	12.927	3.6364	0.1	2580.4
5716	12.742	3.6364	0.1	2634.3
5717	12.558	3.6364	0.1	2690.1
5718	12.373	3.6364	0.1	2748.2
5719	12.189	3.6364	0.1	2809.4
5720	12.004	3.6364	0.1	2874.4
5721	11.82	3.6364	0.1	2944.4
5722	11.635	3.6364	0.1	3020.5
5723	11.45	3.6364	0.1	3104.7
5724	11.266	3.6364	0.1	3199.
5725	11.081	3.6364	0.1	3306.5
5726	10.897	3.6364	0.1	3430.8
5727	10.712	3.6364	0.1	3577.
5728	10.528	3.6364	0.1	3751.9
5729	10.343	3.6364	0.1	3964.5
5730	10.159	3.6364	0.1	4227.9
5731	9.974	3.6364	0.1	4561.2
5732	9.7894	3.6364	0.1	4994.
5733	9.6049	3.6364	0.1	5573.9
5734	9.4203	3.6364	0.1	6384.3
5735	9.2358	3.6364	0.1	7559.9
5736	9.0512	3.6364	0.1	9205.9
5737	23.815	3.8182	0.1	39.841
5738	23.631	3.8182	0.1	78.663
5739	23.446	3.8182	0.1	117.49
5740	23.262	3.8182	0.1	156.16
5741	23.077	3.8182	0.1	194.73
5742	22.893	3.8182	0.1	233.25
5743	22.708	3.8182	0.1	271.76
5744	22.524	3.8182	0.1	310.3
5745	22.339	3.8182	0.1	348.92
5746	22.154	3.8182	0.1	387.63
5747	21.97	3.8182	0.1	426.48
5748	21.785	3.8182	0.1	465.47
5749	21.601	3.8182	0.1	504.62
5750	21.416	3.8182	0.1	543.94
5751	21.232	3.8182	0.1	583.45
5752	21.047	3.8182	0.1	623.14
5753	20.863	3.8182	0.1	663.03
5754	20.678	3.8182	0.1	703.11
5755	20.493	3.8182	0.1	743.4
5756	20.309	3.8182	0.1	783.89
5757	20.124	3.8182	0.1	824.58
5758	19.94	3.8182	0.1	865.48
5759	19.755	3.8182	0.1	906.58
5760	19.571	3.8182	0.1	947.89
5761	19.386	3.8182	0.1	989.41
5762	19.202	3.8182	0.1	1031.1
5763	19.017	3.8182	0.1	1073.
5764	18.833	3.8182	0.1	1115.2
5765	18.648	3.8182	0.1	1157.5
5766	18.463	3.8182	0.1	1200.
5767	18.279	3.8182	0.1	1242.8
5768	18.094	3.8182	0.1	1285.7
5769	17.91	3.8182	0.1	1328.8
5770	17.725	3.8182	0.1	1372.1
5771	17.541	3.8182	0.1	1415.7
5772	17.356	3.8182	0.1	1459.4
5773	17.172	3.8182	0.1	1503.3
5774	16.987	3.8182	0.1	1547.4
5775	16.802	3.8182	0.1	1591.7
5776	16.618	3.8182	0.1	1636.2
5777	16.433	3.8182	0.1	1680.9
5778	16.249	3.8182	0.1	1725.7
5779	16.064	3.8182	0.1	1770.8
5780	15.88	3.8182	0.1	1816.
5781	15.695	3.8182	0.1	1861.5
5782	15.511	3.8182	0.1	1907.2
5783	15.326	3.8182	0.1	1953.
5784	15.141	3.8182	0.1	1999.1
5785	14.957	3.8182	0.1	2045.4
5786	14.772	3.8182	0.1	2091.9
5787	14.588	3.8182	0.1	2138.7
5788	14.403	3.8182	0.1	2185.8
5789	14.219	3.8182	0.1	2233.2
5790	14.034	3.8182	0.1	2281.
5791	13.85	3.8182	0.1	2329.1
5792	13.665	3.8182	0.1	2377.7
5793	13.48	3.8182	0.1	2427.
5794	13.296	3.8182	0.1	2476.9
5795	13.111	3.8182	0.1	2527.6
5796	12.927	3.8182	0.1	2579.4
5797	12.742	3.8182	0.1	2632.5
5798	12.558	3.8182	0.1	2687.3
5799	12.373	3.8182	0.1	2744.
5800	12.189	3.8182	0.1	2803.3
5801	12.004	3.8182	0.1	2865.9
5802	11.82	3.8182	0.1	2932.5
5803	11.635	3.8182	0.1	3004.3
5804	11.45	3.8182	0.1	3082.7
5805	11.266	3.8182	0.1	3169.4
5806	11.081	3.8182	0.1	3266.9
5807	10.897	3.8182	0.1	3378.2
5808	10.712	3.8182	0.1	3507.4
5809	10.528	3.8182	0.1	3660.2
5810	10.343	3.8182	0.1	3844.3
5811	10.159	3.8182	0.1	4071.4
5812	9.974	3.8182	0.1	4358.9
5813	9.7894	3.8182	0.1	4736.1
5814	9.6049	3.8182	0.1	5253.8
5815	9.4203	3.8182	0.1	6016.
5816	9.2358	3.8182	0.1	7284.8
5817	9.0512	3.8182	0.1	9725.8
5818	23.815	4.	0.1	39.876
5819	23.631	4.	0.1	78.578
5820	23.446	4.	0.1	117.29
5821	23.262	4.	0.1	155.86
5822	23.077	4.	0.1	194.34
5823	22.893	4.	0.1	232.78
5824	22.708	4.	0.1	271.25
5825	22.524	4.	0.1	309.77
5826	22.339	4.	0.1	348.38
5827	22.154	4.	0.1	387.11
5828	21.97	4.	0.1	425.99
5829	21.785	4.	0.1	465.02
5830	21.601	4.	0.1	504.21
5831	21.416	4.	0.1	543.59
5832	21.232	4.	0.1	583.15
5833	21.047	4.	0.1	622.9
5834	20.863	4.	0.1	662.85
5835	20.678	4.	0.1	702.99
5836	20.493	4.	0.1	743.33
5837	20.309	4.	0.1	783.88
5838	20.124	4.	0.1	824.62
5839	19.94	4.	0.1	865.57
5840	19.755	4.	0.1	906.71
5841	19.571	4.	0.1	948.06
5842	19.386	4.	0.1	989.62
5843	19.202	4.	0.1	1031.4
5844	19.017	4.	0.1	1073.3
5845	18.833	4.	0.1	1115.5
5846	18.648	4.	0.1	1157.8
5847	18.463	4.	0.1	1200.4
5848	18.279	4.	0.1	1243.2
5849	18.094	4.	0.1	1286.1
5850	17.91	4.	0.1	1329.3
5851	17.725	4.	0.1	1372.6
5852	17.541	4.	0.1	1416.2
5853	17.356	4.	0.1	1459.9
5854	17.172	4.	0.1	1503.8
5855	16.987	4.	0.1	1548.
5856	16.802	4.	0.1	1592.3
5857	16.618	4.	0.1	1636.8
5858	16.433	4.	0.1	1681.5
5859	16.249	4.	0.1	1726.4
5860	16.064	4.	0.1	1771.5
5861	15.88	4.	0.1	1816.8
5862	15.695	4.	0.1	1862.3
5863	15.511	4.	0.1	1908.
5864	15.326	4.	0.1	1953.9
5865	15.141	4.	0.1	2000.
5866	14.957	4.	0.1	2046.3
5867	14.772	4.	0.1	2092.9
5868	14.588	4.	0.1	2139.7
5869	14.403	4.	0.1	2186.7
5870	14.219	4.	0.1	2234.1
5871	14.034	4.	0.1	2281.8
5872	13.85	4.	0.1	2329.8
5873	13.665	4.	0.1	2378.3
5874	13.48	4.	0.1	2427.3
5875	13.296	4.	0.1	2476.8
5876	13.111	4.	0.1	2527.1
5877	12.927	4.	0.1	2578.2
5878	12.742	4.	0.1	2630.4
5879	12.558	4.	0.1	2683.9
5880	12.373	4.	0.1	2739.
5881	12.189	4.	0.1	2796.1
5882	12.004	4.	0.1	2855.7
5883	11.82	4.	0.1	2918.5
5884	11.635	4.	0.1	2985.2
5885	11.45	4.	0.1	3056.9
5886	11.266	4.	0.1	3134.9
5887	11.081	4.	0.1	3220.9
5888	10.897	4.	0.1	3317.3
5889	10.712	4.	0.1	3427.2
5890	10.528	4.	0.1	3554.7
5891	10.343	4.	0.1	3706.1
5892	10.159	4.	0.1	3890.6
5893	9.974	4.	0.1	4122.3
5894	9.7894	4.	0.1	4424.9
5895	9.6049	4.	0.1	4840.5
5896	9.4203	4.	0.1	5460.4
5897	9.2358	4.	0.1	6454.
5898	9.0512	4.	0.1	9422.4
5899	23.815	4.1818	0.1	39.911
5900	23.631	4.1818	0.1	78.46
5901	23.446	4.1818	0.1	117.03
5902	23.262	4.1818	0.1	155.47
5903	23.077	4.1818	0.1	193.84
5904	22.893	4.1818	0.1	232.21
5905	22.708	4.1818	0.1	270.62
5906	22.524	4.1818	0.1	309.12
5907	22.339	4.1818	0.1	347.74
5908	22.154	4.1818	0.1	386.5
5909	21.97	4.1818	0.1	425.41
5910	21.785	4.1818	0.1	464.5
5911	21.601	4.1818	0.1	503.76
5912	21.416	4.1818	0.1	543.2
5913	21.232	4.1818	0.1	582.83
5914	21.047	4.1818	0.1	622.66
5915	20.863	4.1818	0.1	662.67
5916	20.678	4.1818	0.1	702.88
5917	20.493	4.1818	0.1	743.29
5918	20.309	4.1818	0.1	783.89
5919	20.124	4.1818	0.1	824.7
5920	19.94	4.1818	0.1	865.7
5921	19.755	4.1818	0.1	906.9
5922	19.571	4.1818	0.1	948.3
5923	19.386	4.1818	0.1	989.89
5924	19.202	4.1818	0.1	1031.7
5925	19.017	4.1818	0.1	1073.7
5926	18.833	4.1818	0.1	1115.9
5927	18.648	4.1818	0.1	1158.3
5928	18.463	4.1818	0.1	1200.9
5929	18.279	4.1818	0.1	1243.7
5930	18.094	4.1818	0.1	1286.7
5931	17.91	4.1818	0.1	1329.8
5932	17.725	4.1818	0.1	1373.2
5933	17.541	4.1818	0.1	1416.8
5934	17.356	4.1818	0.1	1460.6
5935	17.172	4.1818	0.1	1504.5
5936	16.987	4.1818	0.1	1548.7
5937	16.802	4.1818	0.1	1593.1
5938	16.618	4.1818	0.1	1637.6
5939	16.433	4.1818	0.1	1682.3
5940	16.249	4.1818	0.1	1727.3
5941	16.064	4.1818	0.1	1772.4
5942	15.88	4.1818	0.1	1817.7
5943	15.695	4.1818	0.1	1863.3
5944	15.511	4.1818	0.1	1909.
5945	15.326	4.1818	0.1	1954.9
5946	15.141	4.1818	0.1	2001.
5947	14.957	4.1818	0.1	2047.4
5948	14.772	4.1818	0.1	2094.
5949	14.588	4.1818	0.1	2140.8
5950	14.403	4.1818	0.1	2187.8
5951	14.219	4.1818	0.1	2235.1
5952	14.034	4.1818	0.1	2282.7
5953	13.85	4.1818	0.1	2330.7
5954	13.665	4.1818	0.1	2378.9
5955	13.48	4.1818	0.1	2427.6
5956	13.296	4.1818	0.1	2476.8
5957	13.111	4.1818	0.1	2526.5
5958	12.927	4.1818	0.1	2576.9
5959	12.742	4.1818	0.1	2628.1
5960	12.558	4.1818	0.1	2680.2
5961	12.373	4.1818	0.1	2733.4
5962	12.189	4.1818	0.1	2788.1
5963	12.004	4.1818	0.1	2844.4
5964	11.82	4.1818	0.1	2902.9
5965	11.635	4.1818	0.1	2964.
5966	11.45	4.1818	0.1	3028.4
5967	11.266	4.1818	0.1	3096.8
5968	11.081	4.1818	0.1	3170.4
5969	10.897	4.1818	0.1	3250.7
5970	10.712	4.1818	0.1	3339.6
5971	10.528	4.1818	0.1	3440.
5972	10.343	4.1818	0.1	3556.1
5973	10.159	4.1818	0.1	3694.2
5974	9.974	4.1818	0.1	3864.2
5975	9.7894	4.1818	0.1	4081.7
5976	9.6049	4.1818	0.1	4372.6
5977	9.4203	4.1818	0.1	4783.
5978	9.2358	4.1818	0.1	5417.5
5979	9.0512	4.1818	0.1	6752.9
5980	23.815	4.3636	0.1	39.94
5981	23.631	4.3636	0.1	78.296
5982	23.446	4.3636	0.1	116.69
5983	23.262	4.3636	0.1	154.97
5984	23.077	4.3636	0.1	193.22
5985	22.893	4.3636	0.1	231.51
5986	22.708	4.3636	0.1	269.88
5987	22.524	4.3636	0.1	308.37
5988	22.339	4.3636	0.1	347.
5989	22.154	4.3636	0.1	385.8
5990	21.97	4.3636	0.1	424.78
5991	21.785	4.3636	0.1	463.93
5992	21.601	4.3636	0.1	503.27
5993	21.416	4.3636	0.1	542.8
5994	21.232	4.3636	0.1	582.51
5995	21.047	4.3636	0.1	622.42
5996	20.863	4.3636	0.1	662.51
5997	20.678	4.3636	0.1	702.8
5998	20.493	4.3636	0.1	743.28
5999	20.309	4.3636	0.1	783.96
6000	20.124	4.3636	0.1	824.82
6001	19.94	4.3636	0.1	865.89
6002	19.755	4.3636	0.1	907.15
6003	19.571	4.3636	0.1	948.6
6004	19.386	4.3636	0.1	990.25
6005	19.202	4.3636	0.1	1032.1
6006	19.017	4.3636	0.1	1074.1
6007	18.833	4.3636	0.1	1116.4
6008	18.648	4.3636	0.1	1158.8
6009	18.463	4.3636	0.1	1201.4
6010	18.279	4.3636	0.1	1244.3
6011	18.094	4.3636	0.1	1287.3
6012	17.91	4.3636	0.1	1330.5
6013	17.725	4.3636	0.1	1373.9
6014	17.541	4.3636	0.1	1417.5
6015	17.356	4.3636	0.1	1461.3
6016	17.172	4.3636	0.1	1505.3
6017	16.987	4.3636	0.1	1549.5
6018	16.802	4.3636	0.1	1593.9
6019	16.618	4.3636	0.1	1638.5
6020	16.433	4.3636	0.1	1683.3
6021	16.249	4.3636	0.1	1728.3
6022	16.064	4.3636	0.1	1773.4
6023	15.88	4.3636	0.1	1818.8
6024	15.695	4.3636	0.1	1864.4
6025	15.511	4.3636	0.1	1910.1
6026	15.326	4.3636	0.1	1956.1
6027	15.141	4.3636	0.1	2002.3
6028	14.957	4.3636	0.1	2048.6
6029	14.772	4.3636	0.1	2095.2
6030	14.588	4.3636	0.1	2142.
6031	14.403	4.3636	0.1	2189.1
6032	14.219	4.3636	0.1	2236.3
6033	14.034	4.3636	0.1	2283.8
6034	13.85	4.3636	0.1	2331.6
6035	13.665	4.3636	0.1	2379.7
6036	13.48	4.3636	0.1	2428.1
6037	13.296	4.3636	0.1	2476.8
6038	13.111	4.3636	0.1	2525.9
6039	12.927	4.3636	0.1	2575.5
6040	12.742	4.3636	0.1	2625.5
6041	12.558	4.3636	0.1	2676.2
6042	12.373	4.3636	0.1	2727.4
6043	12.189	4.3636	0.1	2779.4
6044	12.004	4.3636	0.1	2832.3
6045	11.82	4.3636	0.1	2886.2
6046	11.635	4.3636	0.1	2941.4
6047	11.45	4.3636	0.1	2998.
6048	11.266	4.3636	0.1	3056.5
6049	11.081	4.3636	0.1	3117.1
6050	10.897	4.3636	0.1	3180.6
6051	10.712	4.3636	0.1	3247.9
6052	10.528	4.3636	0.1	3320.3
6053	10.343	4.3636	0.1	3400.1
6054	10.159	4.3636	0.1	3490.7
6055	9.974	4.3636	0.1	3597.2
6056	9.7894	4.3636	0.1	3727.4
6057	9.6049	4.3636	0.1	3892.
6058	9.4203	4.3636	0.1	4100.4
6059	9.2358	4.3636	0.1	4346.6
6060	9.0512	4.3636	0.1	4648.4
6061	23.815	4.5455	0.1	39.955
6062	23.631	4.5455	0.1	78.07
6063	23.446	4.5455	0.1	116.25
6064	23.262	4.5455	0.1	154.35
6065	23.077	4.5455	0.1	192.47
6066	22.893	4.5455	0.1	230.67
6067	22.708	4.5455	0.1	269.01
6068	22.524	4.5455	0.1	307.51
6069	22.339	4.5455	0.1	346.19
6070	22.154	4.5455	0.1	385.05
6071	21.97	4.5455	0.1	424.11
6072	21.785	4.5455	0.1	463.35
6073	21.601	4.5455	0.1	502.79
6074	21.416	4.5455	0.1	542.41
6075	21.232	4.5455	0.1	582.22
6076	21.047	4.5455	0.1	622.22
6077	20.863	4.5455	0.1	662.4
6078	20.678	4.5455	0.1	702.78
6079	20.493	4.5455	0.1	743.34
6080	20.309	4.5455	0.1	784.09
6081	20.124	4.5455	0.1	825.03
6082	19.94	4.5455	0.1	866.16
6083	19.755	4.5455	0.1	907.48
6084	19.571	4.5455	0.1	948.99
6085	19.386	4.5455	0.1	990.69
6086	19.202	4.5455	0.1	1032.6
6087	19.017	4.5455	0.1	1074.7
6088	18.833	4.5455	0.1	1117.
6089	18.648	4.5455	0.1	1159.4
6090	18.463	4.5455	0.1	1202.1
6091	18.279	4.5455	0.1	1245.
6092	18.094	4.5455	0.1	1288.
6093	17.91	4.5455	0.1	1331.3
6094	17.725	4.5455	0.1	1374.7
6095	17.541	4.5455	0.1	1418.4
6096	17.356	4.5455	0.1	1462.2
6097	17.172	4.5455	0.1	1506.3
6098	16.987	4.5455	0.1	1550.5
6099	16.802	4.5455	0.1	1594.9
6100	16.618	4.5455	0.1	1639.5
6101	16.433	4.5455	0.1	1684.4
6102	16.249	4.5455	0.1	1729.4
6103	16.064	4.5455	0.1	1774.6
6104	15.88	4.5455	0.1	1820.
6105	15.695	4.5455	0.1	1865.6
6106	15.511	4.5455	0.1	1911.4
6107	15.326	4.5455	0.1	1957.4
6108	15.141	4.5455	0.1	2003.6
6109	14.957	4.5455	0.1	2050.
6110	14.772	4.5455	0.1	2096.6
6111	14.588	4.5455	0.1	2143.4
6112	14.403	4.5455	0.1	2190.4
6113	14.219	4.5455	0.1	2237.6
6114	14.034	4.5455	0.1	2285.1
6115	13.85	4.5455	0.1	2332.7
6116	13.665	4.5455	0.1	2380.6
6117	13.48	4.5455	0.1	2428.6
6118	13.296	4.5455	0.1	2476.9
6119	13.111	4.5455	0.1	2525.4
6120	12.927	4.5455	0.1	2574.1
6121	12.742	4.5455	0.1	2623.
6122	12.558	4.5455	0.1	2672.
6123	12.373	4.5455	0.1	2721.2
6124	12.189	4.5455	0.1	2770.5
6125	12.004	4.5455	0.1	2819.8
6126	11.82	4.5455	0.1	2869.1
6127	11.635	4.5455	0.1	2918.2
6128	11.45	4.5455	0.1	2967.
6129	11.266	4.5455	0.1	3015.3
6130	11.081	4.5455	0.1	3062.9
6131	10.897	4.5455	0.1	3109.6
6132	10.712	4.5455	0.1	3155.3
6133	10.528	4.5455	0.1	3199.9
6134	10.343	4.5455	0.1	3243.8
6135	10.159	4.5455	0.1	3287.6
6136	9.974	4.5455	0.1	3332.7
6137	9.7894	4.5455	0.1	3380.9
6138	9.6049	4.5455	0.1	3432.3
6139	9.4203	4.5455	0.1	3483.5
6140	9.2358	4.5455	0.1	3504.3
6141	9.0512	4.5455	0.1	3580.8
6142	23.815	4.7273	0.1	39.945
6143	23.631	4.7273	0.1	77.756
6144	23.446	4.7273	0.1	115.68
6145	23.262	4.7273	0.1	153.58
6146	23.077	4.7273	0.1	191.56
6147	22.893	4.7273	0.1	229.7
6148	22.708	4.7273	0.1	268.03
6149	22.524	4.7273	0.1	306.57
6150	22.339	4.7273	0.1	345.32
6151	22.154	4.7273	0.1	384.28
6152	21.97	4.7273	0.1	423.43
6153	21.785	4.7273	0.1	462.79
6154	21.601	4.7273	0.1	502.33
6155	21.416	4.7273	0.1	542.07
6156	21.232	4.7273	0.1	581.99
6157	21.047	4.7273	0.1	622.09
6158	20.863	4.7273	0.1	662.37
6159	20.678	4.7273	0.1	702.84
6160	20.493	4.7273	0.1	743.48
6161	20.309	4.7273	0.1	784.31
6162	20.124	4.7273	0.1	825.33
6163	19.94	4.7273	0.1	866.53
6164	19.755	4.7273	0.1	907.91
6165	19.571	4.7273	0.1	949.48
6166	19.386	4.7273	0.1	991.24
6167	19.202	4.7273	0.1	1033.2
6168	19.017	4.7273	0.1	1075.3
6169	18.833	4.7273	0.1	1117.7
6170	18.648	4.7273	0.1	1160.2
6171	18.463	4.7273	0.1	1202.9
6172	18.279	4.7273	0.1	1245.8
6173	18.094	4.7273	0.1	1288.9
6174	17.91	4.7273	0.1	1332.2
6175	17.725	4.7273	0.1	1375.7
6176	17.541	4.7273	0.1	1419.4
6177	17.356	4.7273	0.1	1463.2
6178	17.172	4.7273	0.1	1507.3
6179	16.987	4.7273	0.1	1551.6
6180	16.802	4.7273	0.1	1596.
6181	16.618	4.7273	0.1	1640.7
6182	16.433	4.7273	0.1	1685.6
6183	16.249	4.7273	0.1	1730.6
6184	16.064	4.7273	0.1	1775.9
6185	15.88	4.7273	0.1	1821.3
6186	15.695	4.7273	0.1	1867.
6187	15.511	4.7273	0.1	1912.8
6188	15.326	4.7273	0.1	1958.9
6189	15.141	4.7273	0.1	2005.1
6190	14.957	4.7273	0.1	2051.5
6191	14.772	4.7273	0.1	2098.2
6192	14.588	4.7273	0.1	2145.
6193	14.403	4.7273	0.1	2192.
6194	14.219	4.7273	0.1	2239.1
6195	14.034	4.7273	0.1	2286.4
6196	13.85	4.7273	0.1	2333.9
6197	13.665	4.7273	0.1	2381.5
6198	13.48	4.7273	0.1	2429.3
6199	13.296	4.7273	0.1	2477.1
6200	13.111	4.7273	0.1	2524.9
6201	12.927	4.7273	0.1	2572.7
6202	12.742	4.7273	0.1	2620.4
6203	12.558	4.7273	0.1	2667.9
6204	12.373	4.7273	0.1	2715.
6205	12.189	4.7273	0.1	2761.5
6206	12.004	4.7273	0.1	2807.3
6207	11.82	4.7273	0.1	2851.9
6208	11.635	4.7273	0.1	2895.
6209	11.45	4.7273	0.1	2936.1
6210	11.266	4.7273	0.1	2974.5
6211	11.081	4.7273	0.1	3009.4
6212	10.897	4.7273	0.1	3039.8
6213	10.712	4.7273	0.1	3064.7
6214	10.528	4.7273	0.1	3082.7
6215	10.343	4.7273	0.1	3092.4
6216	10.159	4.7273	0.1	3092.5
6217	9.974	4.7273	0.1	3081.3
6218	9.7894	4.7273	0.1	3057.3
6219	9.6049	4.7273	0.1	3017.7
6220	9.4203	4.7273	0.1	2957.4
6221	9.2358	4.7273	0.1	2869.1
6222	9.0512	4.7273	0.1	2845.3
6223	23.815	4.9091	0.1	39.889
6224	23.631	4.9091	0.1	77.319
6225	23.446	4.9091	0.1	114.93
6226	23.262	4.9091	0.1	152.62
6227	23.077	4.9091	0.1	190.49
6228	22.893	4.9091	0.1	228.61
6229	22.708	4.9091	0.1	266.97
6230	22.524	4.9091	0.1	305.59
6231	22.339	4.9091	0.1	344.45
6232	22.154	4.9091	0.1	383.52
6233	21.97	4.9091	0.1	422.81
6234	21.785	4.9091	0.1	462.29
6235	21.601	4.9091	0.1	501.97
6236	21.416	4.9091	0.1	541.82
6237	21.232	4.9091	0.1	581.86
6238	21.047	4.9091	0.1	622.07
6239	20.863	4.9091	0.1	662.45
6240	20.678	4.9091	0.1	703.01
6241	20.493	4.9091	0.1	743.75
6242	20.309	4.9091	0.1	784.66
6243	20.124	4.9091	0.1	825.75
6244	19.94	4.9091	0.1	867.02
6245	19.755	4.9091	0.1	908.47
6246	19.571	4.9091	0.1	950.1
6247	19.386	4.9091	0.1	991.91
6248	19.202	4.9091	0.1	1033.9
6249	19.017	4.9091	0.1	1076.1
6250	18.833	4.9091	0.1	1118.5
6251	18.648	4.9091	0.1	1161.
6252	18.463	4.9091	0.1	1203.8
6253	18.279	4.9091	0.1	1246.7
6254	18.094	4.9091	0.1	1289.9
6255	17.91	4.9091	0.1	1333.2
6256	17.725	4.9091	0.1	1376.7
6257	17.541	4.9091	0.1	1420.5
6258	17.356	4.9091	0.1	1464.4
6259	17.172	4.9091	0.1	1508.5
6260	16.987	4.9091	0.1	1552.8
6261	16.802	4.9091	0.1	1597.3
6262	16.618	4.9091	0.1	1642.
6263	16.433	4.9091	0.1	1686.9
6264	16.249	4.9091	0.1	1732.
6265	16.064	4.9091	0.1	1777.3
6266	15.88	4.9091	0.1	1822.8
6267	15.695	4.9091	0.1	1868.5
6268	15.511	4.9091	0.1	1914.4
6269	15.326	4.9091	0.1	1960.5
6270	15.141	4.9091	0.1	2006.7
6271	14.957	4.9091	0.1	2053.2
6272	14.772	4.9091	0.1	2099.8
6273	14.588	4.9091	0.1	2146.6
6274	14.403	4.9091	0.1	2193.6
6275	14.219	4.9091	0.1	2240.7
6276	14.034	4.9091	0.1	2288.
6277	13.85	4.9091	0.1	2335.3
6278	13.665	4.9091	0.1	2382.7
6279	13.48	4.9091	0.1	2430.1
6280	13.296	4.9091	0.1	2477.4
6281	13.111	4.9091	0.1	2524.6
6282	12.927	4.9091	0.1	2571.5
6283	12.742	4.9091	0.1	2618.
6284	12.558	4.9091	0.1	2663.9
6285	12.373	4.9091	0.1	2709.
6286	12.189	4.9091	0.1	2752.9
6287	12.004	4.9091	0.1	2795.2
6288	11.82	4.9091	0.1	2835.4
6289	11.635	4.9091	0.1	2872.8
6290	11.45	4.9091	0.1	2906.5
6291	11.266	4.9091	0.1	2935.4
6292	11.081	4.9091	0.1	2958.3
6293	10.897	4.9091	0.1	2973.5
6294	10.712	4.9091	0.1	2979.
6295	10.528	4.9091	0.1	2972.5
6296	10.343	4.9091	0.1	2951.1
6297	10.159	4.9091	0.1	2911.9
6298	9.974	4.9091	0.1	2851.8
6299	9.7894	4.9091	0.1	2767.7
6300	9.6049	4.9091	0.1	2658.
6301	9.4203	4.9091	0.1	2523.8
6302	9.2358	4.9091	0.1	2373.4
6303	9.0512	4.9091	0.1	2306.
6304	23.815	5.0909	0.1	39.755
6305	23.631	5.0909	0.1	76.703
6306	23.446	5.0909	0.1	113.97
6307	23.262	5.0909	0.1	151.46
6308	23.077	5.0909	0.1	189.27
6309	22.893	5.0909	0.1	227.42
6310	22.708	5.0909	0.1	265.89
6311	22.524	5.0909	0.1	304.64
6312	22.339	5.0909	0.1	343.64
6313	22.154	5.0909	0.1	382.87
6314	21.97	5.0909	0.1	422.3
6315	21.785	5.0909	0.1	461.93
6316	21.601	5.0909	0.1	501.74
6317	21.416	5.0909	0.1	541.72
6318	21.232	5.0909	0.1	581.88
6319	21.047	5.0909	0.1	622.2
6320	20.863	5.0909	0.1	662.69
6321	20.678	5.0909	0.1	703.34
6322	20.493	5.0909	0.1	744.17
6323	20.309	5.0909	0.1	785.16
6324	20.124	5.0909	0.1	826.32
6325	19.94	5.0909	0.1	867.66
6326	19.755	5.0909	0.1	909.17
6327	19.571	5.0909	0.1	950.86
6328	19.386	5.0909	0.1	992.73
6329	19.202	5.0909	0.1	1034.8
6330	19.017	5.0909	0.1	1077.
6331	18.833	5.0909	0.1	1119.4
6332	18.648	5.0909	0.1	1162.
6333	18.463	5.0909	0.1	1204.8
6334	18.279	5.0909	0.1	1247.8
6335	18.094	5.0909	0.1	1291.
6336	17.91	5.0909	0.1	1334.4
6337	17.725	5.0909	0.1	1377.9
6338	17.541	5.0909	0.1	1421.7
6339	17.356	5.0909	0.1	1465.6
6340	17.172	5.0909	0.1	1509.8
6341	16.987	5.0909	0.1	1554.1
6342	16.802	5.0909	0.1	1598.7
6343	16.618	5.0909	0.1	1643.4
6344	16.433	5.0909	0.1	1688.4
6345	16.249	5.0909	0.1	1733.5
6346	16.064	5.0909	0.1	1778.9
6347	15.88	5.0909	0.1	1824.4
6348	15.695	5.0909	0.1	1870.2
6349	15.511	5.0909	0.1	1916.1
6350	15.326	5.0909	0.1	1962.2
6351	15.141	5.0909	0.1	2008.5
6352	14.957	5.0909	0.1	2055.
6353	14.772	5.0909	0.1	2101.7
6354	14.588	5.0909	0.1	2148.5
6355	14.403	5.0909	0.1	2195.4
6356	14.219	5.0909	0.1	2242.5
6357	14.034	5.0909	0.1	2289.6
6358	13.85	5.0909	0.1	2336.8
6359	13.665	5.0909	0.1	2383.9
6360	13.48	5.0909	0.1	2431.
6361	13.296	5.0909	0.1	2477.9
6362	13.111	5.0909	0.1	2524.4
6363	12.927	5.0909	0.1	2570.5
6364	12.742	5.0909	0.1	2615.9
6365	12.558	5.0909	0.1	2660.4
6366	12.373	5.0909	0.1	2703.5
6367	12.189	5.0909	0.1	2744.9
6368	12.004	5.0909	0.1	2784.
6369	11.82	5.0909	0.1	2820.
6370	11.635	5.0909	0.1	2852.
6371	11.45	5.0909	0.1	2879.
6372	11.266	5.0909	0.1	2899.3
6373	11.081	5.0909	0.1	2911.3
6374	10.897	5.0909	0.1	2912.7
6375	10.712	5.0909	0.1	2900.9
6376	10.528	5.0909	0.1	2872.6
6377	10.343	5.0909	0.1	2824.2
6378	10.159	5.0909	0.1	2751.5
6379	9.974	5.0909	0.1	2650.5
6380	9.7894	5.0909	0.1	2518.1
6381	9.6049	5.0909	0.1	2354.4
6382	9.4203	5.0909	0.1	2166.7
6383	9.2358	5.0909	0.1	1975.1
6384	9.0512	5.0909	0.1	1874.4
6385	23.815	5.2727	0.1	39.49
6386	23.631	5.2727	0.1	75.832
6387	23.446	5.2727	0.1	112.74
6388	23.262	5.2727	0.1	150.11
6389	23.077	5.2727	0.1	187.97
6390	22.893	5.2727	0.1	226.25
6391	22.708	5.2727	0.1	264.88
6392	22.524	5.2727	0.1	303.81
6393	22.339	5.2727	0.1	343.
6394	22.154	5.2727	0.1	382.4
6395	21.97	5.2727	0.1	422.
6396	21.785	5.2727	0.1	461.78
6397	21.601	5.2727	0.1	501.73
6398	21.416	5.2727	0.1	541.84
6399	21.232	5.2727	0.1	582.11
6400	21.047	5.2727	0.1	622.54
6401	20.863	5.2727	0.1	663.12
6402	20.678	5.2727	0.1	703.87
6403	20.493	5.2727	0.1	744.77
6404	20.309	5.2727	0.1	785.84
6405	20.124	5.2727	0.1	827.07
6406	19.94	5.2727	0.1	868.47
6407	19.755	5.2727	0.1	910.04
6408	19.571	5.2727	0.1	951.78
6409	19.386	5.2727	0.1	993.7
6410	19.202	5.2727	0.1	1035.8
6411	19.017	5.2727	0.1	1078.1
6412	18.833	5.2727	0.1	1120.5
6413	18.648	5.2727	0.1	1163.2
6414	18.463	5.2727	0.1	1206.
6415	18.279	5.2727	0.1	1249.
6416	18.094	5.2727	0.1	1292.2
6417	17.91	5.2727	0.1	1335.6
6418	17.725	5.2727	0.1	1379.2
6419	17.541	5.2727	0.1	1423.
6420	17.356	5.2727	0.1	1467.
6421	17.172	5.2727	0.1	1511.2
6422	16.987	5.2727	0.1	1555.6
6423	16.802	5.2727	0.1	1600.2
6424	16.618	5.2727	0.1	1645.
6425	16.433	5.2727	0.1	1690.
6426	16.249	5.2727	0.1	1735.2
6427	16.064	5.2727	0.1	1780.6
6428	15.88	5.2727	0.1	1826.1
6429	15.695	5.2727	0.1	1871.9
6430	15.511	5.2727	0.1	1917.9
6431	15.326	5.2727	0.1	1964.1
6432	15.141	5.2727	0.1	2010.4
6433	14.957	5.2727	0.1	2056.9
6434	14.772	5.2727	0.1	2103.6
6435	14.588	5.2727	0.1	2150.4
6436	14.403	5.2727	0.1	2197.3
6437	14.219	5.2727	0.1	2244.4
6438	14.034	5.2727	0.1	2291.4
6439	13.85	5.2727	0.1	2338.4
6440	13.665	5.2727	0.1	2385.4
6441	13.48	5.2727	0.1	2432.1
6442	13.296	5.2727	0.1	2478.6
6443	13.111	5.2727	0.1	2524.6
6444	12.927	5.2727	0.1	2569.9
6445	12.742	5.2727	0.1	2614.3
6446	12.558	5.2727	0.1	2657.3
6447	12.373	5.2727	0.1	2698.7
6448	12.189	5.2727	0.1	2737.8
6449	12.004	5.2727	0.1	2774.
6450	11.82	5.2727	0.1	2806.2
6451	11.635	5.2727	0.1	2833.5
6452	11.45	5.2727	0.1	2854.4
6453	11.266	5.2727	0.1	2867.2
6454	11.081	5.2727	0.1	2869.6
6455	10.897	5.2727	0.1	2859.1
6456	10.712	5.2727	0.1	2832.5
6457	10.528	5.2727	0.1	2785.9
6458	10.343	5.2727	0.1	2715.
6459	10.159	5.2727	0.1	2615.1
6460	9.974	5.2727	0.1	2481.5
6461	9.7894	5.2727	0.1	2311.3
6462	9.6049	5.2727	0.1	2105.3
6463	9.4203	5.2727	0.1	1874.2
6464	9.2358	5.2727	0.1	1645.
6465	9.0512	5.2727	0.1	1510.6
6466	23.815	5.4545	0.1	38.977
6467	23.631	5.4545	0.1	74.598
6468	23.446	5.4545	0.1	111.25
6469	23.262	5.4545	0.1	148.68
6470	23.077	5.4545	0.1	186.74
6471	22.893	5.4545	0.1	225.26
6472	22.708	5.4545	0.1	264.13
6473	22.524	5.4545	0.1	303.29
6474	22.339	5.4545	0.1	342.67
6475	22.154	5.4545	0.1	382.26
6476	21.97	5.4545	0.1	422.02
6477	21.785	5.4545	0.1	461.94
6478	21.601	5.4545	0.1	502.02
6479	21.416	5.4545	0.1	542.25
6480	21.232	5.4545	0.1	582.62
6481	21.047	5.4545	0.1	623.15
6482	20.863	5.4545	0.1	663.82
6483	20.678	5.4545	0.1	704.64
6484	20.493	5.4545	0.1	745.62
6485	20.309	5.4545	0.1	786.75
6486	20.124	5.4545	0.1	828.04
6487	19.94	5.4545	0.1	869.5
6488	19.755	5.4545	0.1	911.12
6489	19.571	5.4545	0.1	952.91
6490	19.386	5.4545	0.1	994.87
6491	19.202	5.4545	0.1	1037.
6492	19.017	5.4545	0.1	1079.3
6493	18.833	5.4545	0.1	1121.8
6494	18.648	5.4545	0.1	1164.5
6495	18.463	5.4545	0.1	1207.4
6496	18.279	5.4545	0.1	1250.4
6497	18.094	5.4545	0.1	1293.7
6498	17.91	5.4545	0.1	1337.1
6499	17.725	5.4545	0.1	1380.7
6500	17.541	5.4545	0.1	1424.6
6501	17.356	5.4545	0.1	1468.6
6502	17.172	5.4545	0.1	1512.8
6503	16.987	5.4545	0.1	1557.2
6504	16.802	5.4545	0.1	1601.9
6505	16.618	5.4545	0.1	1646.7
6506	16.433	5.4545	0.1	1691.7
6507	16.249	5.4545	0.1	1737.
6508	16.064	5.4545	0.1	1782.4
6509	15.88	5.4545	0.1	1828.
6510	15.695	5.4545	0.1	1873.8
6511	15.511	5.4545	0.1	1919.9
6512	15.326	5.4545	0.1	1966.1
6513	15.141	5.4545	0.1	2012.5
6514	14.957	5.4545	0.1	2059.
6515	14.772	5.4545	0.1	2105.7
6516	14.588	5.4545	0.1	2152.5
6517	14.403	5.4545	0.1	2199.4
6518	14.219	5.4545	0.1	2246.4
6519	14.034	5.4545	0.1	2293.4
6520	13.85	5.4545	0.1	2340.3
6521	13.665	5.4545	0.1	2387.
6522	13.48	5.4545	0.1	2433.5
6523	13.296	5.4545	0.1	2479.6
6524	13.111	5.4545	0.1	2525.1
6525	12.927	5.4545	0.1	2569.7
6526	12.742	5.4545	0.1	2613.1
6527	12.558	5.4545	0.1	2655.
6528	12.373	5.4545	0.1	2694.9
6529	12.189	5.4545	0.1	2732.
6530	12.004	5.4545	0.1	2765.5
6531	11.82	5.4545	0.1	2794.6
6532	11.635	5.4545	0.1	2817.8
6533	11.45	5.4545	0.1	2833.5
6534	11.266	5.4545	0.1	2839.9
6535	11.081	5.4545	0.1	2834.4
6536	10.897	5.4545	0.1	2814.1
6537	10.712	5.4545	0.1	2775.4
6538	10.528	5.4545	0.1	2714.2
6539	10.343	5.4545	0.1	2625.8
6540	10.159	5.4545	0.1	2505.
6541	9.974	5.4545	0.1	2347.1
6542	9.7894	5.4545	0.1	2148.5
6543	9.6049	5.4545	0.1	1909.6
6544	9.4203	5.4545	0.1	1640.1
6545	9.2358	5.4545	0.1	1368.8
6546	9.0512	5.4545	0.1	1189.2
6547	23.815	5.6364	0.1	38.128
6548	23.631	5.6364	0.1	73.058
6549	23.446	5.6364	0.1	109.85
6550	23.262	5.6364	0.1	147.64
6551	23.077	5.6364	0.1	186.06
6552	22.893	5.6364	0.1	224.9
6553	22.708	5.6364	0.1	264.04
6554	22.524	5.6364	0.1	303.42
6555	22.339	5.6364	0.1	342.99
6556	22.154	5.6364	0.1	382.74
6557	21.97	5.6364	0.1	422.64
6558	21.785	5.6364	0.1	462.68
6559	21.601	5.6364	0.1	502.86
6560	21.416	5.6364	0.1	543.19
6561	21.232	5.6364	0.1	583.65
6562	21.047	5.6364	0.1	624.24
6563	20.863	5.6364	0.1	664.98
6564	20.678	5.6364	0.1	705.87
6565	20.493	5.6364	0.1	746.9
6566	20.309	5.6364	0.1	788.08
6567	20.124	5.6364	0.1	829.41
6568	19.94	5.6364	0.1	870.91
6569	19.755	5.6364	0.1	912.56
6570	19.571	5.6364	0.1	954.39
6571	19.386	5.6364	0.1	996.38
6572	19.202	5.6364	0.1	1038.5
6573	19.017	5.6364	0.1	1080.9
6574	18.833	5.6364	0.1	1123.4
6575	18.648	5.6364	0.1	1166.1
6576	18.463	5.6364	0.1	1209.
6577	18.279	5.6364	0.1	1252.1
6578	18.094	5.6364	0.1	1295.4
6579	17.91	5.6364	0.1	1338.8
6580	17.725	5.6364	0.1	1382.5
6581	17.541	5.6364	0.1	1426.3
6582	17.356	5.6364	0.1	1470.4
6583	17.172	5.6364	0.1	1514.6
6584	16.987	5.6364	0.1	1559.1
6585	16.802	5.6364	0.1	1603.8
6586	16.618	5.6364	0.1	1648.6
6587	16.433	5.6364	0.1	1693.7
6588	16.249	5.6364	0.1	1739.
6589	16.064	5.6364	0.1	1784.4
6590	15.88	5.6364	0.1	1830.1
6591	15.695	5.6364	0.1	1876.
6592	15.511	5.6364	0.1	1922.
6593	15.326	5.6364	0.1	1968.3
6594	15.141	5.6364	0.1	2014.7
6595	14.957	5.6364	0.1	2061.3
6596	14.772	5.6364	0.1	2108.
6597	14.588	5.6364	0.1	2154.8
6598	14.403	5.6364	0.1	2201.7
6599	14.219	5.6364	0.1	2248.7
6600	14.034	5.6364	0.1	2295.6
6601	13.85	5.6364	0.1	2342.4
6602	13.665	5.6364	0.1	2389.
6603	13.48	5.6364	0.1	2435.3
6604	13.296	5.6364	0.1	2481.
6605	13.111	5.6364	0.1	2526.
6606	12.927	5.6364	0.1	2570.1
6607	12.742	5.6364	0.1	2612.7
6608	12.558	5.6364	0.1	2653.6
6609	12.373	5.6364	0.1	2692.2
6610	12.189	5.6364	0.1	2727.6
6611	12.004	5.6364	0.1	2759.1
6612	11.82	5.6364	0.1	2785.5
6613	11.635	5.6364	0.1	2805.3
6614	11.45	5.6364	0.1	2817.
6615	11.266	5.6364	0.1	2818.2
6616	11.081	5.6364	0.1	2806.5
6617	10.897	5.6364	0.1	2778.6
6618	10.712	5.6364	0.1	2730.8
6619	10.528	5.6364	0.1	2658.9
6620	10.343	5.6364	0.1	2557.8
6621	10.159	5.6364	0.1	2422.5
6622	9.974	5.6364	0.1	2247.9
6623	9.7894	5.6364	0.1	2030.
6624	9.6049	5.6364	0.1	1767.7
6625	9.4203	5.6364	0.1	1466.3
6626	9.2358	5.6364	0.1	1146.4
6627	9.0512	5.6364	0.1	895.66
6628	23.815	5.8182	0.1	37.112
6629	23.631	5.8182	0.1	72.957
6630	23.446	5.8182	0.1	110.89
6631	23.262	5.8182	0.1	149.48
6632	23.077	5.8182	0.1	188.46
6633	22.893	5.8182	0.1	227.69
6634	22.708	5.8182	0.1	267.14
6635	22.524	5.8182	0.1	306.75
6636	22.339	5.8182	0.1	346.51
6637	22.154	5.8182	0.1	386.4
6638	21.97	5.8182	0.1	426.41
6639	21.785	5.8182	0.1	466.55
6640	21.601	5.8182	0.1	506.81
6641	21.416	5.8182	0.1	547.19
6642	21.232	5.8182	0.1	587.69
6643	21.047	5.8182	0.1	628.32
6644	20.863	5.8182	0.1	669.09
6645	20.678	5.8182	0.1	709.99
6646	20.493	5.8182	0.1	751.03
6647	20.309	5.8182	0.1	792.21
6648	20.124	5.8182	0.1	833.54
6649	19.94	5.8182	0.1	875.03
6650	19.755	5.8182	0.1	916.68
6651	19.571	5.8182	0.1	958.49
6652	19.386	5.8182	0.1	1000.5
6653	19.202	5.8182	0.1	1042.6
6654	19.017	5.8182	0.1	1084.9
6655	18.833	5.8182	0.1	1127.4
6656	18.648	5.8182	0.1	1170.1
6657	18.463	5.8182	0.1	1213.
6658	18.279	5.8182	0.1	1256.
6659	18.094	5.8182	0.1	1299.3
6660	17.91	5.8182	0.1	1342.7
6661	17.725	5.8182	0.1	1386.4
6662	17.541	5.8182	0.1	1430.2
6663	17.356	5.8182	0.1	1474.2
6664	17.172	5.8182	0.1	1518.5
6665	16.987	5.8182	0.1	1562.9
6666	16.802	5.8182	0.1	1607.6
6667	16.618	5.8182	0.1	1652.4
6668	16.433	5.8182	0.1	1697.5
6669	16.249	5.8182	0.1	1742.7
6670	16.064	5.8182	0.1	1788.2
6671	15.88	5.8182	0.1	1833.9
6672	15.695	5.8182	0.1	1879.7
6673	15.511	5.8182	0.1	1925.8
6674	15.326	5.8182	0.1	1972.
6675	15.141	5.8182	0.1	2018.4
6676	14.957	5.8182	0.1	2065.
6677	14.772	5.8182	0.1	2111.7
6678	14.588	5.8182	0.1	2158.5
6679	14.403	5.8182	0.1	2205.4
6680	14.219	5.8182	0.1	2252.2
6681	14.034	5.8182	0.1	2299.1
6682	13.85	5.8182	0.1	2345.8
6683	13.665	5.8182	0.1	2392.2
6684	13.48	5.8182	0.1	2438.2
6685	13.296	5.8182	0.1	2483.7
6686	13.111	5.8182	0.1	2528.4
6687	12.927	5.8182	0.1	2571.9
6688	12.742	5.8182	0.1	2613.9
6689	12.558	5.8182	0.1	2654.
6690	12.373	5.8182	0.1	2691.5
6691	12.189	5.8182	0.1	2725.7
6692	12.004	5.8182	0.1	2755.5
6693	11.82	5.8182	0.1	2779.9
6694	11.635	5.8182	0.1	2797.3
6695	11.45	5.8182	0.1	2805.9
6696	11.266	5.8182	0.1	2803.5
6697	11.081	5.8182	0.1	2787.3
6698	10.897	5.8182	0.1	2754.2
6699	10.712	5.8182	0.1	2700.5
6700	10.528	5.8182	0.1	2621.6
6701	10.343	5.8182	0.1	2512.9
6702	10.159	5.8182	0.1	2369.3
6703	9.974	5.8182	0.1	2186.
6704	9.7894	5.8182	0.1	1958.6
6705	9.6049	5.8182	0.1	1684.9
6706	9.4203	5.8182	0.1	1365.2
6707	9.2358	5.8182	0.1	1005.2
6708	9.0512	5.8182	0.1	645.92
6709	0.18125	0.18182	0.1	3872.8
6710	0.18125	0.36364	0.1	4487.4
6711	0.18125	0.54545	0.1	5188.9
6712	0.18125	0.72727	0.1	5722.8
6713	0.18125	0.90909	0.1	6123.2
6714	0.18125	1.0909	0.1	6424.2
6715	0.18125	1.2727	0.1	6654.6
6716	0.18125	1.4545	0.1	6833.1
6717	0.18125	1.6364	0.1	6972.5
6718	0.18125	1.8182	0.1	7081.9
6719	0.18125	2.	0.1	7167.4
6720	0.18125	2.1818	0.1	7233.4
6721	0.18125	2.3636	0.1	7283.
6722	0.18125	2.5455	0.1	7318.6
6723	0.18125	2.7273	0.1	7341.5
6724	0.18125	2.9091	0.1	7352.7
6725	0.18125	3.0909	0.1	7352.7
6726	0.18125	3.2727	0.1	7341.5
6727	0.18125	3.4545	0.1	7318.6
6728	0.18125	3.6364	0.1	7283.
6729	0.18125	3.8182	0.1	7233.4
6730	0.18125	4.	0.1	7167.4
6731	0.18125	4.1818	0.1	7081.9
6732	0.18125	4.3636	0.1	6972.5
6733	0.18125	4.5455	0.1	6833.1
6734	0.18125	4.7273	0.1	6654.6
6735	0.18125	4.9091	0.1	6424.2
6736	0.18125	5.0909	0.1	6123.2
6737	0.18125	5.2727	0.1	5722.8
6738	0.18125	5.4545	0.1	5188.9
6739	0.18125	5.6364	0.1	4487.4
6740	0.18125	5.8182	0.1	3872.8
6741	0.3625	0.18182	0.1	5012.6
6742	0.3625	0.36364	0.1	5150.1
6743	0.3625	0.54545	0.1	5452.3
6744	0.3625	0.72727	0.1	5784.9
6745	0.3625	0.90909	0.1	6088.5
6746	0.3625	1.0909	0.1	6346.4
6747	0.3625	1.2727	0.1	6559.
6748	0.3625	1.4545	0.1	6732.2
6749	0.3625	1.6364	0.1	6872.4
6750	0.3625	1.8182	0.1	6985.
6751	0.3625	2.	0.1	7074.6
6752	0.3625	2.1818	0.1	7144.8
6753	0.3625	2.3636	0.1	7198.1
6754	0.3625	2.5455	0.1	7236.5
6755	0.3625	2.7273	0.1	7261.4
6756	0.3625	2.9091	0.1	7273.7
6757	0.3625	3.0909	0.1	7273.7
6758	0.3625	3.2727	0.1	7261.4
6759	0.3625	3.4545	0.1	7236.5
6760	0.3625	3.6364	0.1	7198.1
6761	0.3625	3.8182	0.1	7144.8
6762	0.3625	4.	0.1	7074.6
6763	0.3625	4.1818	0.1	6985.
6764	0.3625	4.3636	0.1	6872.4
6765	0.3625	4.5455	0.1	6732.2
6766	0.3625	4.7273	0.1	6559.
6767	0.3625	4.9091	0.1	6346.4
6768	0.3625	5.0909	0.1	6088.5
6769	0.3625	5.2727	0.1	5784.9
6770	0.3625	5.4545	0.1	5452.3
6771	0.3625	5.6364	0.1	5150.1
6772	0.3625	5.8182	0.1	5012.6
6773	0.54375	0.18182	0.1	5513.8
6774	0.54375	0.36364	0.1	5512.2
6775	0.54375	0.54545	0.1	5629.8
6776	0.54375	0.72727	0.1	5801.
6777	0.54375	0.90909	0.1	5991.2
6778	0.54375	1.0909	0.1	6176.5
6779	0.54375	1.2727	0.1	6344.4
6780	0.54375	1.4545	0.1	6490.7
6781	0.54375	1.6364	0.1	6614.8
6782	0.54375	1.8182	0.1	6718.2
6783	0.54375	2.	0.1	6802.6
6784	0.54375	2.1818	0.1	6869.9
6785	0.54375	2.3636	0.1	6921.9
6786	0.54375	2.5455	0.1	6959.7
6787	0.54375	2.7273	0.1	6984.4
6788	0.54375	2.9091	0.1	6996.5
6789	0.54375	3.0909	0.1	6996.5
6790	0.54375	3.2727	0.1	6984.4
6791	0.54375	3.4545	0.1	6959.7
6792	0.54375	3.6364	0.1	6921.9
6793	0.54375	3.8182	0.1	6869.9
6794	0.54375	4.	0.1	6802.6
6795	0.54375	4.1818	0.1	6718.2
6796	0.54375	4.3636	0.1	6614.8
6797	0.54375	4.5455	0.1	6490.7
6798	0.54375	4.7273	0.1	6344.4
6799	0.54375	4.9091	0.1	6176.5
6800	0.54375	5.0909	0.1	5991.2
6801	0.54375	5.2727	0.1	5801.
6802	0.54375	5.4545	0.1	5629.8
6803	0.54375	5.6364	0.1	5512.2
6804	0.54375	5.8182	0.1	5513.8
6805	0.725	0.18182	0.1	5802.3
6806	0.725	0.36364	0.1	5761.2
6807	0.725	0.54545	0.1	5802.3
6808	0.725	0.72727	0.1	5885.5
6809	0.725	0.90909	0.1	5995.7
6810	0.725	1.0909	0.1	6117.5
6811	0.725	1.2727	0.1	6239.1
6812	0.725	1.4545	0.1	6352.9
6813	0.725	1.6364	0.1	6454.9
6814	0.725	1.8182	0.1	6543.3
6815	0.725	2.	0.1	6617.8
6816	0.725	2.1818	0.1	6678.7
6817	0.725	2.3636	0.1	6726.4
6818	0.725	2.5455	0.1	6761.6
6819	0.725	2.7273	0.1	6784.8
6820	0.725	2.9091	0.1	6796.3
6821	0.725	3.0909	0.1	6796.3
6822	0.725	3.2727	0.1	6784.8
6823	0.725	3.4545	0.1	6761.6
6824	0.725	3.6364	0.1	6726.4
6825	0.725	3.8182	0.1	6678.7
6826	0.725	4.	0.1	6617.8
6827	0.725	4.1818	0.1	6543.3
6828	0.725	4.3636	0.1	6454.9
6829	0.725	4.5455	0.1	6352.9
6830	0.725	4.7273	0.1	6239.1
6831	0.725	4.9091	0.1	6117.5
6832	0.725	5.0909	0.1	5995.7
6833	0.725	5.2727	0.1	5885.5
6834	0.725	5.4545	0.1	5802.3
6835	0.725	5.6364	0.1	5761.2
6836	0.725	5.8182	0.1	5802.3
6837	0.90625	0.18182	0.1	5958.9
6838	0.90625	0.36364	0.1	5903.1
6839	0.90625	0.54545	0.1	5906.9
6840	0.90625	0.72727	0.1	5941.4
6841	0.90625	0.90909	0.1	5999.8
6842	0.90625	1.0909	0.1	6074.
6843	0.90625	1.2727	0.1	6155.6
6844	0.90625	1.4545	0.1	6237.8
6845	0.90625	1.6364	0.1	6315.9
6846	0.90625	1.8182	0.1	6386.6
6847	0.90625	2.	0.1	6448.3
6848	0.90625	2.1818	0.1	6500.
6849	0.90625	2.3636	0.1	6541.4
6850	0.90625	2.5455	0.1	6572.4
6851	0.90625	2.7273	0.1	6592.9
6852	0.90625	2.9091	0.1	6603.2
6853	0.90625	3.0909	0.1	6603.2
6854	0.90625	3.2727	0.1	6592.9
6855	0.90625	3.4545	0.1	6572.4
6856	0.90625	3.6364	0.1	6541.4
6857	0.90625	3.8182	0.1	6500.
6858	0.90625	4.	0.1	6448.3
6859	0.90625	4.1818	0.1	6386.6
6860	0.90625	4.3636	0.1	6315.9
6861	0.90625	4.5455	0.1	6237.8
6862	0.90625	4.7273	0.1	6155.6
6863	0.90625	4.9091	0.1	6074.
6864	0.90625	5.0909	0.1	5999.8
6865	0.90625	5.2727	0.1	5941.4
6866	0.90625	5.4545	0.1	5906.9
6867	0.90625	5.6364	0.1	5903.1
6868	0.90625	5.8182	0.1	5958.9
6869	1.0875	0.18182	0.1	6041.6
6870	1.0875	0.36364	0.1	5982.5
6871	1.0875	0.54545	0.1	5967.9
6872	1.0875	0.72727	0.1	5975.3
6873	1.0875	0.90909	0.1	6001.6
6874	1.0875	1.0909	0.1	6042.7
6875	1.0875	1.2727	0.1	6093.5
6876	1.0875	1.4545	0.1	6149.1
6877	1.0875	1.6364	0.1	6205.1
6878	1.0875	1.8182	0.1	6258.4
6879	1.0875	2.	0.1	6306.6
6880	1.0875	2.1818	0.1	6348.1
6881	1.0875	2.3636	0.1	6382.1
6882	1.0875	2.5455	0.1	6407.9
6883	1.0875	2.7273	0.1	6425.2
6884	1.0875	2.9091	0.1	6433.9
6885	1.0875	3.0909	0.1	6433.9
6886	1.0875	3.2727	0.1	6425.2
6887	1.0875	3.4545	0.1	6407.9
6888	1.0875	3.6364	0.1	6382.1
6889	1.0875	3.8182	0.1	6348.1
6890	1.0875	4.	0.1	6306.6
6891	1.0875	4.1818	0.1	6258.4
6892	1.0875	4.3636	0.1	6205.1
6893	1.0875	4.5455	0.1	6149.1
6894	1.0875	4.7273	0.1	6093.5
6895	1.0875	4.9091	0.1	6042.7
6896	1.0875	5.0909	0.1	6001.6
6897	1.0875	5.2727	0.1	5975.3
6898	1.0875	5.4545	0.1	5967.9
6899	1.0875	5.6364	0.1	5982.5
6900	1.0875	5.8182	0.1	6041.6
6901	1.2687	0.18182	0.1	6076.2
6902	1.2687	0.36364	0.1	6017.9
6903	1.2687	0.54545	0.1	5993.8
6904	1.2687	0.72727	0.1	5985.6
6905	1.2687	0.90909	0.1	5991.8
6906	1.2687	1.0909	0.1	6010.5
6907	1.2687	1.2727	0.1	6038.7
6908	1.2687	1.4545	0.1	6073.2
6909	1.2687	1.6364	0.1	6110.6
6910	1.2687	1.8182	0.1	6148.1
6911	1.2687	2.	0.1	6183.4
6912	1.2687	2.1818	0.1	6214.9
6913	1.2687	2.3636	0.1	6241.2
6914	1.2687	2.5455	0.1	6261.6
6915	1.2687	2.7273	0.1	6275.4
6916	1.2687	2.9091	0.1	6282.4
6917	1.2687	3.0909	0.1	6282.4
6918	1.2687	3.2727	0.1	6275.4
6919	1.2687	3.4545	0.1	6261.6
6920	1.2687	3.6364	0.1	6241.2
6921	1.2687	3.8182	0.1	6214.9
6922	1.2687	4.	0.1	6183.4
6923	1.2687	4.1818	0.1	6148.1
6924	1.2687	4.3636	0.1	6110.6
6925	1.2687	4.5455	0.1	6073.2
6926	1.2687	4.7273	0.1	6038.7
6927	1.2687	4.9091	0.1	6010.5
6928	1.2687	5.0909	0.1	5991.8
6929	1.2687	5.2727	0.1	5985.6
6930	1.2687	5.4545	0.1	5993.8
6931	1.2687	5.6364	0.1	6017.9
6932	1.2687	5.8182	0.1	6076.2
6933	1.45	0.18182	0.1	6079.2
6934	1.45	0.36364	0.1	6023.4
6935	1.45	0.54545	0.1	5994.5
6936	1.45	0.72727	0.1	5977.2
6937	1.45	0.90909	0.1	5970.8
6938	1.45	1.0909	0.1	5974.5
6939	1.45	1.2727	0.1	5986.6
6940	1.45	1.4545	0.1	6005.1
6941	1.45	1.6364	0.1	6027.6
6942	1.45	1.8182	0.1	6051.8
6943	1.45	2.	0.1	6075.8
6944	1.45	2.1818	0.1	6098.
6945	1.45	2.3636	0.1	6117.1
6946	1.45	2.5455	0.1	6132.2
6947	1.45	2.7273	0.1	6142.6
6948	1.45	2.9091	0.1	6147.9
6949	1.45	3.0909	0.1	6147.9
6950	1.45	3.2727	0.1	6142.6
6951	1.45	3.4545	0.1	6132.2
6952	1.45	3.6364	0.1	6117.1
6953	1.45	3.8182	0.1	6098.
6954	1.45	4.	0.1	6075.8
6955	1.45	4.1818	0.1	6051.8
6956	1.45	4.3636	0.1	6027.6
6957	1.45	4.5455	0.1	6005.1
6958	1.45	4.7273	0.1	5986.6
6959	1.45	4.9091	0.1	5974.5
6960	1.45	5.0909	0.1	5970.8
6961	1.45	5.2727	0.1	5977.2
6962	1.45	5.4545	0.1	5994.5
6963	1.45	5.6364	0.1	6023.4
6964	1.45	5.8182	0.1	6079.2
6965	1.6313	0.18182	0.1	6060.4
6966	1.6313	0.36364	0.1	6007.9
6967	1.6313	0.54545	0.1	5976.7
6968	1.6313	0.72727	0.1	5954.2
6969	1.6313	0.90909	0.1	5939.9
6970	1.6313	1.0909	0.1	5933.6
6971	1.6313	1.2727	0.1	5934.4
6972	1.6313	1.4545	0.1	5941.
6973	1.6313	1.6364	0.1	5951.9
6974	1.6313	1.8182	0.1	5965.5
6975	1.6313	2.	0.1	5980.
6976	1.6313	2.1818	0.1	5994.2
6977	1.6313	2.3636	0.1	6006.9
6978	1.6313	2.5455	0.1	6017.2
6979	1.6313	2.7273	0.1	6024.4
6980	1.6313	2.9091	0.1	6028.1
6981	1.6313	3.0909	0.1	6028.1
6982	1.6313	3.2727	0.1	6024.4
6983	1.6313	3.4545	0.1	6017.2
6984	1.6313	3.6364	0.1	6006.9
6985	1.6313	3.8182	0.1	5994.2
6986	1.6313	4.	0.1	5980.
6987	1.6313	4.1818	0.1	5965.5
6988	1.6313	4.3636	0.1	5951.9
6989	1.6313	4.5455	0.1	5941.
6990	1.6313	4.7273	0.1	5934.4
6991	1.6313	4.9091	0.1	5933.6
6992	1.6313	5.0909	0.1	5939.9
6993	1.6313	5.2727	0.1	5954.2
6994	1.6313	5.4545	0.1	5976.7
6995	1.6313	5.6364	0.1	6007.9
6996	1.6313	5.8182	0.1	6060.4
6997	1.8125	0.18182	0.1	6026.4
6998	1.8125	0.36364	0.1	5977.5
6999	1.8125	0.54545	0.1	5945.5
7000	1.8125	0.72727	0.1	5920.
7001	1.8125	0.90909	0.1	5900.8
7002	1.8125	1.0909	0.1	5887.9
7003	1.8125	1.2727	0.1	5880.9
7004	1.8125	1.4545	0.1	5879.
7005	1.8125	1.6364	0.1	5881.2
7006	1.8125	1.8182	0.1	5886.4
7007	1.8125	2.	0.1	5893.4
7008	1.8125	2.1818	0.1	5900.9
7009	1.8125	2.3636	0.1	5908.2
7010	1.8125	2.5455	0.1	5914.4
7011	1.8125	2.7273	0.1	5918.8
7012	1.8125	2.9091	0.1	5921.1
7013	1.8125	3.0909	0.1	5921.1
7014	1.8125	3.2727	0.1	5918.8
7015	1.8125	3.4545	0.1	5914.4
7016	1.8125	3.6364	0.1	5908.2
7017	1.8125	3.8182	0.1	5900.9
7018	1.8125	4.	0.1	5893.4
7019	1.8125	4.1818	0.1	5886.4
7020	1.8125	4.3636	0.1	5881.2
7021	1.8125	4.5455	0.1	5879.
7022	1.8125	4.7273	0.1	5880.9
7023	1.8125	4.9091	0.1	5887.9
7024	1.8125	5.0909	0.1	5900.8
7025	1.8125	5.2727	0.1	5920.
7026	1.8125	5.4545	0.1	5945.5
7027	1.8125	5.6364	0.1	5977.5
7028	1.8125	5.8182	0.1	6026.4
7029	1.9937	0.18182	0.1	5981.7
7030	1.9937	0.36364	0.1	5936.2
7031	1.9937	0.54545	0.1	5904.4
7032	1.9937	0.72727	0.1	5877.5
7033	1.9937	0.90909	0.1	5855.4
7034	1.9937	1.0909	0.1	5838.3
7035	1.9937	1.2727	0.1	5825.9
7036	1.9937	1.4545	0.1	5818.
7037	1.9937	1.6364	0.1	5813.9
7038	1.9937	1.8182	0.1	5812.7
7039	1.9937	2.	0.1	5813.7
7040	1.9937	2.1818	0.1	5816.
7041	1.9937	2.3636	0.1	5818.9
7042	1.9937	2.5455	0.1	5821.6
7043	1.9937	2.7273	0.1	5823.8
7044	1.9937	2.9091	0.1	5824.9
7045	1.9937	3.0909	0.1	5824.9
7046	1.9937	3.2727	0.1	5823.8
7047	1.9937	3.4545	0.1	5821.6
7048	1.9937	3.6364	0.1	5818.9
7049	1.9937	3.8182	0.1	5816.
7050	1.9937	4.	0.1	5813.7
7051	1.9937	4.1818	0.1	5812.7
7052	1.9937	4.3636	0.1	5813.9
7053	1.9937	4.5455	0.1	5818.
7054	1.9937	4.7273	0.1	5825.9
7055	1.9937	4.9091	0.1	5838.3
7056	1.9937	5.0909	0.1	5855.4
7057	1.9937	5.2727	0.1	5877.5
7058	1.9937	5.4545	0.1	5904.4
7059	1.9937	5.6364	0.1	5936.2
7060	1.9937	5.8182	0.1	5981.7
7061	2.175	0.18182	0.1	5929.4
7062	2.175	0.36364	0.1	5887.3
7063	2.175	0.54545	0.1	5856.2
7064	2.175	0.72727	0.1	5828.8
7065	2.175	0.90909	0.1	5805.1
7066	2.175	1.0909	0.1	5785.4
7067	2.175	1.2727	0.1	5769.5
7068	2.175	1.4545	0.1	5757.5
7069	2.175	1.6364	0.1	5748.8
7070	2.175	1.8182	0.1	5743.
7071	2.175	2.	0.1	5739.6
7072	2.175	2.1818	0.1	5737.8
7073	2.175	2.3636	0.1	5737.2
7074	2.175	2.5455	0.1	5737.2
7075	2.175	2.7273	0.1	5737.5
7076	2.175	2.9091	0.1	5737.7
7077	2.175	3.0909	0.1	5737.7
7078	2.175	3.2727	0.1	5737.5
7079	2.175	3.4545	0.1	5737.2
7080	2.175	3.6364	0.1	5737.2
7081	2.175	3.8182	0.1	5737.8
7082	2.175	4.	0.1	5739.6
7083	2.175	4.1818	0.1	5743.
7084	2.175	4.3636	0.1	5748.8
7085	2.175	4.5455	0.1	5757.5
7086	2.175	4.7273	0.1	5769.5
7087	2.175	4.9091	0.1	5785.4
7088	2.175	5.0909	0.1	5805.1
7089	2.175	5.2727	0.1	5828.8
7090	2.175	5.4545	0.1	5856.2
7091	2.175	5.6364	0.1	5887.3
7092	2.175	5.8182	0.1	5929.4
7093	2.3563	0.18182	0.1	5871.7
7094	2.3563	0.36364	0.1	5832.8
7095	2.3563	0.54545	0.1	5802.8
7096	2.3563	0.72727	0.1	5775.5
7097	2.3563	0.90909	0.1	5751.2
7098	2.3563	1.0909	0.1	5730.
7099	2.3563	1.2727	0.1	5712.
7100	2.3563	1.4545	0.1	5697.2
7101	2.3563	1.6364	0.1	5685.4
7102	2.3563	1.8182	0.1	5676.4
7103	2.3563	2.	0.1	5669.7
7104	2.3563	2.1818	0.1	5664.9
7105	2.3563	2.3636	0.1	5661.7
7106	2.3563	2.5455	0.1	5659.6
7107	2.3563	2.7273	0.1	5658.4
7108	2.3563	2.9091	0.1	5657.9
7109	2.3563	3.0909	0.1	5657.9
7110	2.3563	3.2727	0.1	5658.4
7111	2.3563	3.4545	0.1	5659.6
7112	2.3563	3.6364	0.1	5661.7
7113	2.3563	3.8182	0.1	5664.9
7114	2.3563	4.	0.1	5669.7
7115	2.3563	4.1818	0.1	5676.4
7116	2.3563	4.3636	0.1	5685.4
7117	2.3563	4.5455	0.1	5697.2
7118	2.3563	4.7273	0.1	5712.
7119	2.3563	4.9091	0.1	5730.
7120	2.3563	5.0909	0.1	5751.2
7121	2.3563	5.2727	0.1	5775.5
7122	2.3563	5.4545	0.1	5802.8
7123	2.3563	5.6364	0.1	5832.8
7124	2.3563	5.8182	0.1	5871.7
7125	2.5375	0.18182	0.1	5810.3
7126	2.5375	0.36364	0.1	5774.3
7127	2.5375	0.54545	0.1	5745.6
7128	2.5375	0.72727	0.1	5719.
7129	2.5375	0.90909	0.1	5694.6
7130	2.5375	1.0909	0.1	5672.8
7131	2.5375	1.2727	0.1	5653.6
7132	2.5375	1.4545	0.1	5637.1
7133	2.5375	1.6364	0.1	5623.3
7134	2.5375	1.8182	0.1	5612.1
7135	2.5375	2.	0.1	5603.1
7136	2.5375	2.1818	0.1	5596.2
7137	2.5375	2.3636	0.1	5591.1
7138	2.5375	2.5455	0.1	5587.5
7139	2.5375	2.7273	0.1	5585.2
7140	2.5375	2.9091	0.1	5584.2
7141	2.5375	3.0909	0.1	5584.2
7142	2.5375	3.2727	0.1	5585.2
7143	2.5375	3.4545	0.1	5587.5
7144	2.5375	3.6364	0.1	5591.1
7145	2.5375	3.8182	0.1	5596.2
7146	2.5375	4.	0.1	5603.1
7147	2.5375	4.1818	0.1	5612.1
7148	2.5375	4.3636	0.1	5623.3
7149	2.5375	4.5455	0.1	5637.1
7150	2.5375	4.7273	0.1	5653.6
7151	2.5375	4.9091	0.1	5672.8
7152	2.5375	5.0909	0.1	5694.6
7153	2.5375	5.2727	0.1	5719.
7154	2.5375	5.4545	0.1	5745.6
7155	2.5375	5.6364	0.1	5774.3
7156	2.5375	5.8182	0.1	5810.3
7157	2.7188	0.18182	0.1	5746.3
7158	2.7188	0.36364	0.1	5713.1
7159	2.7188	0.54545	0.1	5685.8
7160	2.7188	0.72727	0.1	5660.1
7161	2.7188	0.90909	0.1	5636.2
7162	2.7188	1.0909	0.1	5614.3
7163	2.7188	1.2727	0.1	5594.6
7164	2.7188	1.4545	0.1	5577.3
7165	2.7188	1.6364	0.1	5562.3
7166	2.7188	1.8182	0.1	5549.7
7167	2.7188	2.	0.1	5539.2
7168	2.7188	2.1818	0.1	5530.9
7169	2.7188	2.3636	0.1	5524.5
7170	2.7188	2.5455	0.1	5519.8
7171	2.7188	2.7273	0.1	5516.8
7172	2.7188	2.9091	0.1	5515.3
7173	2.7188	3.0909	0.1	5515.3
7174	2.7188	3.2727	0.1	5516.8
7175	2.7188	3.4545	0.1	5519.8
7176	2.7188	3.6364	0.1	5524.5
7177	2.7188	3.8182	0.1	5530.9
7178	2.7188	4.	0.1	5539.2
7179	2.7188	4.1818	0.1	5549.7
7180	2.7188	4.3636	0.1	5562.3
7181	2.7188	4.5455	0.1	5577.3
7182	2.7188	4.7273	0.1	5594.6
7183	2.7188	4.9091	0.1	5614.3
7184	2.7188	5.0909	0.1	5636.2
7185	2.7188	5.2727	0.1	5660.1
7186	2.7188	5.4545	0.1	5685.8
7187	2.7188	5.6364	0.1	5713.1
7188	2.7188	5.8182	0.1	5746.3
7189	2.9	0.18182	0.1	5680.5
7190	2.9	0.36364	0.1	5650.
7191	2.9	0.54545	0.1	5624.1
7192	2.9	0.72727	0.1	5599.6
7193	2.9	0.90909	0.1	5576.4
7194	2.9	1.0909	0.1	5555.
7195	2.9	1.2727	0.1	5535.3
7196	2.9	1.4545	0.1	5517.7
7197	2.9	1.6364	0.1	5502.2
7198	2.9	1.8182	0.1	5488.8
7199	2.9	2.	0.1	5477.5
7200	2.9	2.1818	0.1	5468.3
7201	2.9	2.3636	0.1	5461.
7202	2.9	2.5455	0.1	5455.7
7203	2.9	2.7273	0.1	5452.2
7204	2.9	2.9091	0.1	5450.5
7205	2.9	3.0909	0.1	5450.5
7206	2.9	3.2727	0.1	5452.2
7207	2.9	3.4545	0.1	5455.7
7208	2.9	3.6364	0.1	5461.
7209	2.9	3.8182	0.1	5468.3
7210	2.9	4.	0.1	5477.5
7211	2.9	4.1818	0.1	5488.8
7212	2.9	4.3636	0.1	5502.2
7213	2.9	4.5455	0.1	5517.7
7214	2.9	4.7273	0.1	5535.3
7215	2.9	4.9091	0.1	5555.
7216	2.9	5.0909	0.1	5576.4
7217	2.9	5.2727	0.1	5599.6
7218	2.9	5.4545	0.1	5624.1
7219	2.9	5.6364	0.1	5650.
7220	2.9	5.8182	0.1	5680.5
7221	3.0812	0.18182	0.1	5613.7
7222	3.0812	0.36364	0.1	5585.6
7223	3.0812	0.54545	0.1	5561.3
7224	3.0812	0.72727	0.1	5538.
7225	3.0812	0.90909	0.1	5515.8
7226	3.0812	1.0909	0.1	5495.1
7227	3.0812	1.2727	0.1	5475.9
7228	3.0812	1.4545	0.1	5458.4
7229	3.0812	1.6364	0.1	5442.8
7230	3.0812	1.8182	0.1	5429.1
7231	3.0812	2.	0.1	5417.5
7232	3.0812	2.1818	0.1	5407.8
7233	3.0812	2.3636	0.1	5400.2
7234	3.0812	2.5455	0.1	5394.5
7235	3.0812	2.7273	0.1	5390.7
7236	3.0812	2.9091	0.1	5388.8
7237	3.0812	3.0909	0.1	5388.8
7238	3.0812	3.2727	0.1	5390.7
7239	3.0812	3.4545	0.1	5394.5
7240	3.0812	3.6364	0.1	5400.2
7241	3.0812	3.8182	0.1	5407.8
7242	3.0812	4.	0.1	5417.5
7243	3.0812	4.1818	0.1	5429.1
7244	3.0812	4.3636	0.1	5442.8
7245	3.0812	4.5455	0.1	5458.4
7246	3.0812	4.7273	0.1	5475.9
7247	3.0812	4.9091	0.1	5495.1
7248	3.0812	5.0909	0.1	5515.8
7249	3.0812	5.2727	0.1	5538.
7250	3.0812	5.4545	0.1	5561.3
7251	3.0812	5.6364	0.1	5585.6
7252	3.0812	5.8182	0.1	5613.7
7253	3.2625	0.18182	0.1	5546.1
7254	3.2625	0.36364	0.1	5520.3
7255	3.2625	0.54545	0.1	5497.6
7256	3.2625	0.72727	0.1	5475.6
7257	3.2625	0.90909	0.1	5454.7
7258	3.2625	1.0909	0.1	5434.8
7259	3.2625	1.2727	0.1	5416.4
7260	3.2625	1.4545	0.1	5399.4
7261	3.2625	1.6364	0.1	5384.1
7262	3.2625	1.8182	0.1	5370.6
7263	3.2625	2.	0.1	5358.9
7264	3.2625	2.1818	0.1	5349.2
7265	3.2625	2.3636	0.1	5341.4
7266	3.2625	2.5455	0.1	5335.5
7267	3.2625	2.7273	0.1	5331.6
7268	3.2625	2.9091	0.1	5329.7
7269	3.2625	3.0909	0.1	5329.7
7270	3.2625	3.2727	0.1	5331.6
7271	3.2625	3.4545	0.1	5335.5
7272	3.2625	3.6364	0.1	5341.4
7273	3.2625	3.8182	0.1	5349.2
7274	3.2625	4.	0.1	5358.9
7275	3.2625	4.1818	0.1	5370.6
7276	3.2625	4.3636	0.1	5384.1
7277	3.2625	4.5455	0.1	5399.4
7278	3.2625	4.7273	0.1	5416.4
7279	3.2625	4.9091	0.1	5434.8
7280	3.2625	5.0909	0.1	5454.7
7281	3.2625	5.2727	0.1	5475.6
7282	3.2625	5.4545	0.1	5497.6
7283	3.2625	5.6364	0.1	5520.3
7284	3.2625	5.8182	0.1	5546.1
7285	3.4437	0.18182	0.1	5478.1
7286	3.4437	0.36364	0.1	5454.5
7287	3.4437	0.54545	0.1	5433.4
7288	3.4437	0.72727	0.1	5412.9
7289	3.4437	0.90909	0.1	5393.2
7290	3.4437	1.0909	0.1	5374.5
7291	3.4437	1.2727	0.1	5357.
7292	3.4437	1.4545	0.1	5340.7
7293	3.4437	1.6364	0.1	5326.
7294	3.4437	1.8182	0.1	5312.9
7295	3.4437	2.	0.1	5301.5
7296	3.4437	2.1818	0.1	5292.
7297	3.4437	2.3636	0.1	5284.2
7298	3.4437	2.5455	0.1	5278.4
7299	3.4437	2.7273	0.1	5274.5
7300	3.4437	2.9091	0.1	5272.6
7301	3.4437	3.0909	0.1	5272.6
7302	3.4437	3.2727	0.1	5274.5
7303	3.4437	3.4545	0.1	5278.4
7304	3.4437	3.6364	0.1	5284.2
7305	3.4437	3.8182	0.1	5292.
7306	3.4437	4.	0.1	5301.5
7307	3.4437	4.1818	0.1	5312.9
7308	3.4437	4.3636	0.1	5326.
7309	3.4437	4.5455	0.1	5340.7
7310	3.4437	4.7273	0.1	5357.
7311	3.4437	4.9091	0.1	5374.5
7312	3.4437	5.0909	0.1	5393.2
7313	3.4437	5.2727	0.1	5412.9
7314	3.4437	5.4545	0.1	5433.4
7315	3.4437	5.6364	0.1	5454.5
7316	3.4437	5.8182	0.1	5478.1
7317	3.625	0.18182	0.1	5409.8
7318	3.625	0.36364	0.1	5388.3
7319	3.625	0.54545	0.1	5368.8
7320	3.625	0.72727	0.1	5349.8
7321	3.625	0.90909	0.1	5331.6
7322	3.625	1.0909	0.1	5314.1
7323	3.625	1.2727	0.1	5297.7
7324	3.625	1.4545	0.1	5282.4
7325	3.625	1.6364	0.1	5268.5
7326	3.625	1.8182	0.1	5256.
7327	3.625	2.	0.1	5245.2
7328	3.625	2.1818	0.1	5236.
7329	3.625	2.3636	0.1	5228.5
7330	3.625	2.5455	0.1	5222.9
7331	3.625	2.7273	0.1	5219.2
7332	3.625	2.9091	0.1	5217.3
7333	3.625	3.0909	0.1	5217.3
7334	3.625	3.2727	0.1	5219.2
7335	3.625	3.4545	0.1	5222.9
7336	3.625	3.6364	0.1	5228.5
7337	3.625	3.8182	0.1	5236.
7338	3.625	4.	0.1	5245.2
7339	3.625	4.1818	0.1	5256.
7340	3.625	4.3636	0.1	5268.5
7341	3.625	4.5455	0.1	5282.4
7342	3.625	4.7273	0.1	5297.7
7343	3.625	4.9091	0.1	5314.1
7344	3.625	5.0909	0.1	5331.6
7345	3.625	5.2727	0.1	5349.8
7346	3.625	5.4545	0.1	5368.8
7347	3.625	5.6364	0.1	5388.3
7348	3.625	5.8182	0.1	5409.8
7349	3.8063	0.18182	0.1	5341.4
7350	3.8063	0.36364	0.1	5321.9
7351	3.8063	0.54545	0.1	5304.1
7352	3.8063	0.72727	0.1	5286.7
7353	3.8063	0.90909	0.1	5269.9
7354	3.8063	1.0909	0.1	5253.8
7355	3.8063	1.2727	0.1	5238.6
7356	3.8063	1.4545	0.1	5224.5
7357	3.8063	1.6364	0.1	5211.5
7358	3.8063	1.8182	0.1	5199.9
7359	3.8063	2.	0.1	5189.7
7360	3.8063	2.1818	0.1	5181.1
7361	3.8063	2.3636	0.1	5174.1
7362	3.8063	2.5455	0.1	5168.8
7363	3.8063	2.7273	0.1	5165.2
7364	3.8063	2.9091	0.1	5163.4
7365	3.8063	3.0909	0.1	5163.4
7366	3.8063	3.2727	0.1	5165.2
7367	3.8063	3.4545	0.1	5168.8
7368	3.8063	3.6364	0.1	5174.1
7369	3.8063	3.8182	0.1	5181.1
7370	3.8063	4.	0.1	5189.7
7371	3.8063	4.1818	0.1	5199.9
7372	3.8063	4.3636	0.1	5211.5
7373	3.8063	4.5455	0.1	5224.5
7374	3.8063	4.7273	0.1	5238.6
7375	3.8063	4.9091	0.1	5253.8
7376	3.8063	5.0909	0.1	5269.9
7377	3.8063	5.2727	0.1	5286.7
7378	3.8063	5.4545	0.1	5304.1
7379	3.8063	5.6364	0.1	5321.9
7380	3.8063	5.8182	0.1	5341.4
7381	3.9875	0.18182	0.1	5272.8
7382	3.9875	0.36364	0.1	5255.2
7383	3.9875	0.54545	0.1	5239.1
7384	3.9875	0.72727	0.1	5223.3
7385	3.9875	0.90909	0.1	5208.1
7386	3.9875	1.0909	0.1	5193.5
7387	3.9875	1.2727	0.1	5179.7
7388	3.9875	1.4545	0.1	5166.9
7389	3.9875	1.6364	0.1	5155.1
7390	3.9875	1.8182	0.1	5144.4
7391	3.9875	2.	0.1	5135.1
7392	3.9875	2.1818	0.1	5127.2
7393	3.9875	2.3636	0.1	5120.7
7394	3.9875	2.5455	0.1	5115.8
7395	3.9875	2.7273	0.1	5112.5
7396	3.9875	2.9091	0.1	5110.9
7397	3.9875	3.0909	0.1	5110.9
7398	3.9875	3.2727	0.1	5112.5
7399	3.9875	3.4545	0.1	5115.8
7400	3.9875	3.6364	0.1	5120.7
7401	3.9875	3.8182	0.1	5127.2
7402	3.9875	4.	0.1	5135.1
7403	3.9875	4.1818	0.1	5144.4
7404	3.9875	4.3636	0.1	5155.1
7405	3.9875	4.5455	0.1	5166.9
7406	3.9875	4.7273	0.1	5179.7
7407	3.9875	4.9091	0.1	5193.5
7408	3.9875	5.0909	0.1	5208.1
7409	3.9875	5.2727	0.1	5223.3
7410	3.9875	5.4545	0.1	5239.1
7411	3.9875	5.6364	0.1	5255.2
7412	3.9875	5.8182	0.1	5272.8
7413	4.1687	0.18182	0.1	5204.
7414	4.1687	0.36364	0.1	5188.3
7415	4.1687	0.54545	0.1	5173.9
7416	4.1687	0.72727	0.1	5159.8
7417	4.1687	0.90909	0.1	5146.3
7418	4.1687	1.0909	0.1	5133.3
7419	4.1687	1.2727	0.1	5121.1
7420	4.1687	1.4545	0.1	5109.6
7421	4.1687	1.6364	0.1	5099.1
7422	4.1687	1.8182	0.1	5089.6
7423	4.1687	2.	0.1	5081.3
7424	4.1687	2.1818	0.1	5074.2
7425	4.1687	2.3636	0.1	5068.4
7426	4.1687	2.5455	0.1	5064.
7427	4.1687	2.7273	0.1	5061.1
7428	4.1687	2.9091	0.1	5059.6
7429	4.1687	3.0909	0.1	5059.6
7430	4.1687	3.2727	0.1	5061.1
7431	4.1687	3.4545	0.1	5064.
7432	4.1687	3.6364	0.1	5068.4
7433	4.1687	3.8182	0.1	5074.2
7434	4.1687	4.	0.1	5081.3
7435	4.1687	4.1818	0.1	5089.6
7436	4.1687	4.3636	0.1	5099.1
7437	4.1687	4.5455	0.1	5109.6
7438	4.1687	4.7273	0.1	5121.1
7439	4.1687	4.9091	0.1	5133.3
7440	4.1687	5.0909	0.1	5146.3
7441	4.1687	5.2727	0.1	5159.8
7442	4.1687	5.4545	0.1	5173.9
7443	4.1687	5.6364	0.1	5188.3
7444	4.1687	5.8182	0.1	5204.
7445	4.35	0.18182	0.1	5134.8
7446	4.35	0.36364	0.1	5121.
7447	4.35	0.54545	0.1	5108.3
7448	4.35	0.72727	0.1	5096.1
7449	4.35	0.90909	0.1	5084.3
7450	4.35	1.0909	0.1	5073.1
7451	4.35	1.2727	0.1	5062.6
7452	4.35	1.4545	0.1	5052.7
7453	4.35	1.6364	0.1	5043.7
7454	4.35	1.8182	0.1	5035.5
7455	4.35	2.	0.1	5028.3
7456	4.35	2.1818	0.1	5022.2
7457	4.35	2.3636	0.1	5017.2
7458	4.35	2.5455	0.1	5013.5
7459	4.35	2.7273	0.1	5010.9
7460	4.35	2.9091	0.1	5009.6
7461	4.35	3.0909	0.1	5009.6
7462	4.35	3.2727	0.1	5010.9
7463	4.35	3.4545	0.1	5013.5
7464	4.35	3.6364	0.1	5017.2
7465	4.35	3.8182	0.1	5022.2
7466	4.35	4.	0.1	5028.3
7467	4.35	4.1818	0.1	5035.5
7468	4.35	4.3636	0.1	5043.7
7469	4.35	4.5455	0.1	5052.7
7470	4.35	4.7273	0.1	5062.6
7471	4.35	4.9091	0.1	5073.1
7472	4.35	5.0909	0.1	5084.3
7473	4.35	5.2727	0.1	5096.1
7474	4.35	5.4545	0.1	5108.3
7475	4.35	5.6364	0.1	5121.
7476	4.35	5.8182	0.1	5134.8
7477	4.5313	0.18182	0.1	5064.9
7478	4.5313	0.36364	0.1	5053.
7479	4.5313	0.54545	0.1	5042.2
7480	4.5313	0.72727	0.1	5031.9
7481	4.5313	0.90909	0.1	5022.1
7482	4.5313	1.0909	0.1	5012.9
7483	4.5313	1.2727	0.1	5004.2
7484	4.5313	1.4545	0.1	4996.1
7485	4.5313	1.6364	0.1	4988.7
7486	4.5313	1.8182	0.1	4982.1
7487	4.5313	2.	0.1	4976.3
7488	4.5313	2.1818	0.1	4971.3
7489	4.5313	2.3636	0.1	4967.3
7490	4.5313	2.5455	0.1	4964.2
7491	4.5313	2.7273	0.1	4962.1
7492	4.5313	2.9091	0.1	4961.1
7493	4.5313	3.0909	0.1	4961.1
7494	4.5313	3.2727	0.1	4962.1
7495	4.5313	3.4545	0.1	4964.2
7496	4.5313	3.6364	0.1	4967.3
7497	4.5313	3.8182	0.1	4971.3
7498	4.5313	4.	0.1	4976.3
7499	4.5313	4.1818	0.1	4982.1
7500	4.5313	4.3636	0.1	4988.7
7501	4.5313	4.5455	0.1	4996.1
7502	4.5313	4.7273	0.1	5004.2
7503	4.5313	4.9091	0.1	5012.9
7504	4.5313	5.0909	0.1	5022.1
7505	4.5313	5.2727	0.1	5031.9
7506	4.5313	5.4545	0.1	5042.2
7507	4.5313	5.6364	0.1	5053.
7508	4.5313	5.8182	0.1	5064.9
7509	4.7125	0.18182	0.1	4994.
7510	4.7125	0.36364	0.1	4984.1
7511	4.7125	0.54545	0.1	4975.3
7512	4.7125	0.72727	0.1	4967.1
7513	4.7125	0.90909	0.1	4959.5
7514	4.7125	1.0909	0.1	4952.4
7515	4.7125	1.2727	0.1	4945.8
7516	4.7125	1.4545	0.1	4939.8
7517	4.7125	1.6364	0.1	4934.3
7518	4.7125	1.8182	0.1	4929.5
7519	4.7125	2.	0.1	4925.2
7520	4.7125	2.1818	0.1	4921.6
7521	4.7125	2.3636	0.1	4918.6
7522	4.7125	2.5455	0.1	4916.4
7523	4.7125	2.7273	0.1	4914.9
7524	4.7125	2.9091	0.1	4914.2
7525	4.7125	3.0909	0.1	4914.2
7526	4.7125	3.2727	0.1	4914.9
7527	4.7125	3.4545	0.1	4916.4
7528	4.7125	3.6364	0.1	4918.6
7529	4.7125	3.8182	0.1	4921.6
7530	4.7125	4.	0.1	4925.2
7531	4.7125	4.1818	0.1	4929.5
7532	4.7125	4.3636	0.1	4934.3
7533	4.7125	4.5455	0.1	4939.8
7534	4.7125	4.7273	0.1	4945.8
7535	4.7125	4.9091	0.1	4952.4
7536	4.7125	5.0909	0.1	4959.5
7537	4.7125	5.2727	0.1	4967.1
7538	4.7125	5.4545	0.1	4975.3
7539	4.7125	5.6364	0.1	4984.1
7540	4.7125	5.8182	0.1	4994.
7541	4.8938	0.18182	0.1	4921.7
7542	4.8938	0.36364	0.1	4913.9
7543	4.8938	0.54545	0.1	4907.3
7544	4.8938	0.72727	0.1	4901.5
7545	4.8938	0.90909	0.1	4896.3
7546	4.8938	1.0909	0.1	4891.6
7547	4.8938	1.2727	0.1	4887.5
7548	4.8938	1.4545	0.1	4883.8
7549	4.8938	1.6364	0.1	4880.5
7550	4.8938	1.8182	0.1	4877.7
7551	4.8938	2.	0.1	4875.3
7552	4.8938	2.1818	0.1	4873.3
7553	4.8938	2.3636	0.1	4871.7
7554	4.8938	2.5455	0.1	4870.5
7555	4.8938	2.7273	0.1	4869.7
7556	4.8938	2.9091	0.1	4869.2
7557	4.8938	3.0909	0.1	4869.2
7558	4.8938	3.2727	0.1	4869.7
7559	4.8938	3.4545	0.1	4870.5
7560	4.8938	3.6364	0.1	4871.7
7561	4.8938	3.8182	0.1	4873.3
7562	4.8938	4.	0.1	4875.3
7563	4.8938	4.1818	0.1	4877.7
7564	4.8938	4.3636	0.1	4880.5
7565	4.8938	4.5455	0.1	4883.8
7566	4.8938	4.7273	0.1	4887.5
7567	4.8938	4.9091	0.1	4891.6
7568	4.8938	5.0909	0.1	4896.3
7569	4.8938	5.2727	0.1	4901.5
7570	4.8938	5.4545	0.1	4907.3
7571	4.8938	5.6364	0.1	4913.9
7572	4.8938	5.8182	0.1	4921.7
7573	5.075	0.18182	0.1	4847.5
7574	5.075	0.36364	0.1	4841.9
7575	5.075	0.54545	0.1	4837.8
7576	5.075	0.72727	0.1	4834.6
7577	5.075	0.90909	0.1	4832.1
7578	5.075	1.0909	0.1	4830.3
7579	5.075	1.2727	0.1	4828.9
7580	5.075	1.4545	0.1	4828.
7581	5.075	1.6364	0.1	4827.4
7582	5.075	1.8182	0.1	4827.
7583	5.075	2.	0.1	4826.8
7584	5.075	2.1818	0.1	4826.7
7585	5.075	2.3636	0.1	4826.7
7586	5.075	2.5455	0.1	4826.7
7587	5.075	2.7273	0.1	4826.7
7588	5.075	2.9091	0.1	4826.8
7589	5.075	3.0909	0.1	4826.8
7590	5.075	3.2727	0.1	4826.7
7591	5.075	3.4545	0.1	4826.7
7592	5.075	3.6364	0.1	4826.7
7593	5.075	3.8182	0.1	4826.7
7594	5.075	4.	0.1	4826.8
7595	5.075	4.1818	0.1	4827.
7596	5.075	4.3636	0.1	4827.4
7597	5.075	4.5455	0.1	4828.
7598	5.075	4.7273	0.1	4828.9
7599	5.075	4.9091	0.1	4830.3
7600	5.075	5.0909	0.1	4832.1
7601	5.075	5.2727	0.1	4834.6
7602	5.075	5.4545	0.1	4837.8
7603	5.075	5.6364	0.1	4841.9
7604	5.075	5.8182	0.1	4847.5
7605	5.2562	0.18182	0.1	4770.6
7606	5.2562	0.36364	0.1	4767.6
7607	5.2562	0.54545	0.1	4766.1
7608	5.2562	0.72727	0.1	4765.9
7609	5.2562	0.90909	0.1	4766.6
7610	5.2562	1.0909	0.1	4768.1
7611	5.2562	1.2727	0.1	4770.1
7612	5.2562	1.4545	0.1	4772.4
7613	5.2562	1.6364	0.1	4775.
7614	5.2562	1.8182	0.1	4777.6
7615	5.2562	2.	0.1	4780.1
7616	5.2562	2.1818	0.1	4782.3
7617	5.2562	2.3636	0.1	4784.2
7618	5.2562	2.5455	0.1	4785.8
7619	5.2562	2.7273	0.1	4786.8
7620	5.2562	2.9091	0.1	4787.3
7621	5.2562	3.0909	0.1	4787.3
7622	5.2562	3.2727	0.1	4786.8
7623	5.2562	3.4545	0.1	4785.8
7624	5.2562	3.6364	0.1	4784.2
7625	5.2562	3.8182	0.1	4782.3
7626	5.2562	4.	0.1	4780.1
7627	5.2562	4.1818	0.1	4777.6
7628	5.2562	4.3636	0.1	4775.
7629	5.2562	4.5455	0.1	4772.4
7630	5.2562	4.7273	0.1	4770.1
7631	5.2562	4.9091	0.1	4768.1
7632	5.2562	5.0909	0.1	4766.6
7633	5.2562	5.2727	0.1	4765.9
7634	5.2562	5.4545	0.1	4766.1
7635	5.2562	5.6364	0.1	4767.6
7636	5.2562	5.8182	0.1	4770.6
7637	5.4375	0.18182	0.1	4690.3
7638	5.4375	0.36364	0.1	4690.
7639	5.4375	0.54545	0.1	4691.7
7640	5.4375	0.72727	0.1	4694.9
7641	5.4375	0.90909	0.1	4699.3
7642	5.4375	1.0909	0.1	4704.7
7643	5.4375	1.2727	0.1	4710.7
7644	5.4375	1.4545	0.1	4717.
7645	5.4375	1.6364	0.1	4723.4
7646	5.4375	1.8182	0.1	4729.6
7647	5.4375	2.	0.1	4735.4
7648	5.4375	2.1818	0.1	4740.6
7649	5.4375	2.3636	0.1	4744.9
7650	5.4375	2.5455	0.1	4748.3
7651	5.4375	2.7273	0.1	4750.6
7652	5.4375	2.9091	0.1	4751.8
7653	5.4375	3.0909	0.1	4751.8
7654	5.4375	3.2727	0.1	4750.6
7655	5.4375	3.4545	0.1	4748.3
7656	5.4375	3.6364	0.1	4744.9
7657	5.4375	3.8182	0.1	4740.6
7658	5.4375	4.	0.1	4735.4
7659	5.4375	4.1818	0.1	4729.6
7660	5.4375	4.3636	0.1	4723.4
7661	5.4375	4.5455	0.1	4717.
7662	5.4375	4.7273	0.1	4710.7
7663	5.4375	4.9091	0.1	4704.7
7664	5.4375	5.0909	0.1	4699.3
7665	5.4375	5.2727	0.1	4694.9
7666	5.4375	5.4545	0.1	4691.7
7667	5.4375	5.6364	0.1	4690.
7668	5.4375	5.8182	0.1	4690.3
7669	5.6188	0.18182	0.1	4605.5
7670	5.6188	0.36364	0.1	4608.2
7671	5.6188	0.54545	0.1	4613.5
7672	5.6188	0.72727	0.1	4620.8
7673	5.6188	0.90909	0.1	4629.6
7674	5.6188	1.0909	0.1	4639.7
7675	5.6188	1.2727	0.1	4650.5
7676	5.6188	1.4545	0.1	4661.7
7677	5.6188	1.6364	0.1	4672.8
7678	5.6188	1.8182	0.1	4683.5
7679	5.6188	2.	0.1	4693.4
7680	5.6188	2.1818	0.1	4702.2
7681	5.6188	2.3636	0.1	4709.5
7682	5.6188	2.5455	0.1	4715.3
7683	5.6188	2.7273	0.1	4719.2
7684	5.6188	2.9091	0.1	4721.2
7685	5.6188	3.0909	0.1	4721.2
7686	5.6188	3.2727	0.1	4719.2
7687	5.6188	3.4545	0.1	4715.3
7688	5.6188	3.6364	0.1	4709.5
7689	5.6188	3.8182	0.1	4702.2
7690	5.6188	4.	0.1	4693.4
7691	5.6188	4.1818	0.1	4683.5
7692	5.6188	4.3636	0.1	4672.8
7693	5.6188	4.5455	0.1	4661.7
7694	5.6188	4.7273	0.1	4650.5
7695	5.6188	4.9091	0.1	4639.7
7696	5.6188	5.0909	0.1	4629.6
7697	5.6188	5.2727	0.1	4620.8
7698	5.6188	5.4545	0.1	4613.5
7699	5.6188	5.6364	0.1	4608.2
7700	5.6188	5.8182	0.1	4605.5
7701	5.8	0.18182	0.1	4514.8
7702	5.8	0.36364	0.1	4521.1
7703	5.8	0.54545	0.1	4530.6
7704	5.8	0.72727	0.1	4542.6
7705	5.8	0.90909	0.1	4556.8
7706	5.8	1.0909	0.1	4572.5
7707	5.8	1.2727	0.1	4589.3
7708	5.8	1.4545	0.1	4606.4
7709	5.8	1.6364	0.1	4623.4
7710	5.8	1.8182	0.1	4639.7
7711	5.8	2.	0.1	4654.7
7712	5.8	2.1818	0.1	4668.
7713	5.8	2.3636	0.1	4679.2
7714	5.8	2.5455	0.1	4687.9
7715	5.8	2.7273	0.1	4693.9
7716	5.8	2.9091	0.1	4697.
7717	5.8	3.0909	0.1	4697.
7718	5.8	3.2727	0.1	4693.9
7719	5.8	3.4545	0.1	4687.9
7720	5.8	3.6364	0.1	4679.2
7721	5.8	3.8182	0.1	4668.
7722	5.8	4.	0.1	4654.7
7723	5.8	4.1818	0.1	4639.7
7724	5.8	4.3636	0.1	4623.4
7725	5.8	4.5455	0.1	4606.4
7726	5.8	4.7273	0.1	4589.3
7727	5.8	4.9091	0.1	4572.5
7728	5.8	5.0909	0.1	4556.8
7729	5.8	5.2727	0.1	4542.6
7730	5.8	5.4545	0.1	4530.6
7731	5.8	5.6364	0.1	4521.1
7732	5.8	5.8182	0.1	4514.8
7733	5.9812	0.18182	0.1	4416.9
7734	5.9812	0.36364	0.1	4427.2
7735	5.9812	0.54545	0.1	4441.5
7736	5.9812	0.72727	0.1	4459.2
7737	5.9812	0.90909	0.1	4479.8
7738	5.9812	1.0909	0.1	4502.5
7739	5.9812	1.2727	0.1	4526.5
7740	5.9812	1.4545	0.1	4551.1
7741	5.9812	1.6364	0.1	4575.3
7742	5.9812	1.8182	0.1	4598.6
7743	5.9812	2.	0.1	4620.1
7744	5.9812	2.1818	0.1	4639.2
7745	5.9812	2.3636	0.1	4655.3
7746	5.9812	2.5455	0.1	4667.8
7747	5.9812	2.7273	0.1	4676.4
7748	5.9812	2.9091	0.1	4680.8
7749	5.9812	3.0909	0.1	4680.8
7750	5.9812	3.2727	0.1	4676.4
7751	5.9812	3.4545	0.1	4667.8
7752	5.9812	3.6364	0.1	4655.3
7753	5.9812	3.8182	0.1	4639.2
7754	5.9812	4.	0.1	4620.1
7755	5.9812	4.1818	0.1	4598.6
7756	5.9812	4.3636	0.1	4575.3
7757	5.9812	4.5455	0.1	4551.1
7758	5.9812	4.7273	0.1	4526.5
7759	5.9812	4.9091	0.1	4502.5
7760	5.9812	5.0909	0.1	4479.8
7761	5.9812	5.2727	0.1	4459.2
7762	5.9812	5.4545	0.1	4441.5
7763	5.9812	5.6364	0.1	4427.2
7764	5.9812	5.8182	0.1	4416.9
7765	6.1625	0.18182	0.1	4309.6
7766	6.1625	0.36364	0.1	4324.5
7767	6.1625	0.54545	0.1	4344.6
7768	6.1625	0.72727	0.1	4369.2
7769	6.1625	0.90909	0.1	4397.5
7770	6.1625	1.0909	0.1	4428.7
7771	6.1625	1.2727	0.1	4461.7
7772	6.1625	1.4545	0.1	4495.5
7773	6.1625	1.6364	0.1	4528.9
7774	6.1625	1.8182	0.1	4561.
7775	6.1625	2.	0.1	4590.7
7776	6.1625	2.1818	0.1	4617.2
7777	6.1625	2.3636	0.1	4639.4
7778	6.1625	2.5455	0.1	4656.9
7779	6.1625	2.7273	0.1	4668.9
7780	6.1625	2.9091	0.1	4675.
7781	6.1625	3.0909	0.1	4675.
7782	6.1625	3.2727	0.1	4668.9
7783	6.1625	3.4545	0.1	4656.9
7784	6.1625	3.6364	0.1	4639.4
7785	6.1625	3.8182	0.1	4617.2
7786	6.1625	4.	0.1	4590.7
7787	6.1625	4.1818	0.1	4561.
7788	6.1625	4.3636	0.1	4528.9
7789	6.1625	4.5455	0.1	4495.5
7790	6.1625	4.7273	0.1	4461.7
7791	6.1625	4.9091	0.1	4428.7
7792	6.1625	5.0909	0.1	4397.5
7793	6.1625	5.2727	0.1	4369.2
7794	6.1625	5.4545	0.1	4344.6
7795	6.1625	5.6364	0.1	4324.5
7796	6.1625	5.8182	0.1	4309.6
7797	6.3438	0.18182	0.1	4190.8
7798	6.3438	0.36364	0.1	4211.1
7799	6.3438	0.54545	0.1	4237.8
7800	6.3438	0.72727	0.1	4270.6
7801	6.3438	0.90909	0.1	4308.4
7802	6.3438	1.0909	0.1	4350.
7803	6.3438	1.2727	0.1	4394.2
7804	6.3438	1.4545	0.1	4439.5
7805	6.3438	1.6364	0.1	4484.5
7806	6.3438	1.8182	0.1	4527.8
7807	6.3438	2.	0.1	4567.9
7808	6.3438	2.1818	0.1	4603.7
7809	6.3438	2.3636	0.1	4634.
7810	6.3438	2.5455	0.1	4657.7
7811	6.3438	2.7273	0.1	4674.1
7812	6.3438	2.9091	0.1	4682.4
7813	6.3438	3.0909	0.1	4682.4
7814	6.3438	3.2727	0.1	4674.1
7815	6.3438	3.4545	0.1	4657.7
7816	6.3438	3.6364	0.1	4634.
7817	6.3438	3.8182	0.1	4603.7
7818	6.3438	4.	0.1	4567.9
7819	6.3438	4.1818	0.1	4527.8
7820	6.3438	4.3636	0.1	4484.5
7821	6.3438	4.5455	0.1	4439.5
7822	6.3438	4.7273	0.1	4394.2
7823	6.3438	4.9091	0.1	4350.
7824	6.3438	5.0909	0.1	4308.4
7825	6.3438	5.2727	0.1	4270.6
7826	6.3438	5.4545	0.1	4237.8
7827	6.3438	5.6364	0.1	4211.1
7828	6.3438	5.8182	0.1	4190.8
7829	6.525	0.18182	0.1	4057.8
7830	6.525	0.36364	0.1	4084.1
7831	6.525	0.54545	0.1	4118.8
7832	6.525	0.72727	0.1	4161.3
7833	6.525	0.90909	0.1	4210.6
7834	6.525	1.0909	0.1	4265.1
7835	6.525	1.2727	0.1	4323.3
7836	6.525	1.4545	0.1	4383.1
7837	6.525	1.6364	0.1	4442.7
7838	6.525	1.8182	0.1	4500.1
7839	6.525	2.	0.1	4553.5
7840	6.525	2.1818	0.1	4601.3
7841	6.525	2.3636	0.1	4641.8
7842	6.525	2.5455	0.1	4673.6
7843	6.525	2.7273	0.1	4695.6
7844	6.525	2.9091	0.1	4706.9
7845	6.525	3.0909	0.1	4706.9
7846	6.525	3.2727	0.1	4695.6
7847	6.525	3.4545	0.1	4673.6
7848	6.525	3.6364	0.1	4641.8
7849	6.525	3.8182	0.1	4601.3
7850	6.525	4.	0.1	4553.5
7851	6.525	4.1818	0.1	4500.1
7852	6.525	4.3636	0.1	4442.7
7853	6.525	4.5455	0.1	4383.1
7854	6.525	4.7273	0.1	4323.3
7855	6.525	4.9091	0.1	4265.1
7856	6.525	5.0909	0.1	4210.6
7857	6.525	5.2727	0.1	4161.3
7858	6.525	5.4545	0.1	4118.8
7859	6.525	5.6364	0.1	4084.1
7860	6.525	5.8182	0.1	4057.8
7861	6.7063	0.18182	0.1	3907.3
7862	6.7063	0.36364	0.1	3940.5
7863	6.7063	0.54545	0.1	3984.4
7864	6.7063	0.72727	0.1	4038.7
7865	6.7063	0.90909	0.1	4101.9
7866	6.7063	1.0909	0.1	4172.4
7867	6.7063	1.2727	0.1	4247.9
7868	6.7063	1.4545	0.1	4326.
7869	6.7063	1.6364	0.1	4404.
7870	6.7063	1.8182	0.1	4479.4
7871	6.7063	2.	0.1	4549.8
7872	6.7063	2.1818	0.1	4612.9
7873	6.7063	2.3636	0.1	4666.6
7874	6.7063	2.5455	0.1	4708.9
7875	6.7063	2.7273	0.1	4738.2
7876	6.7063	2.9091	0.1	4753.2
7877	6.7063	3.0909	0.1	4753.2
7878	6.7063	3.2727	0.1	4738.2
7879	6.7063	3.4545	0.1	4708.9
7880	6.7063	3.6364	0.1	4666.6
7881	6.7063	3.8182	0.1	4612.9
7882	6.7063	4.	0.1	4549.8
7883	6.7063	4.1818	0.1	4479.4
7884	6.7063	4.3636	0.1	4404.
7885	6.7063	4.5455	0.1	4326.
7886	6.7063	4.7273	0.1	4247.9
7887	6.7063	4.9091	0.1	4172.4
7888	6.7063	5.0909	0.1	4101.9
7889	6.7063	5.2727	0.1	4038.7
7890	6.7063	5.4545	0.1	3984.4
7891	6.7063	5.6364	0.1	3940.5
7892	6.7063	5.8182	0.1	3907.3
7893	6.8875	0.18182	0.1	3735.8
7894	6.8875	0.36364	0.1	3776.5
7895	6.8875	0.54545	0.1	3831.3
7896	6.8875	0.72727	0.1	3899.5
7897	6.8875	0.90909	0.1	3979.7
7898	6.8875	1.0909	0.1	4069.8
7899	6.8875	1.2727	0.1	4167.
7900	6.8875	1.4545	0.1	4268.1
7901	6.8875	1.6364	0.1	4369.4
7902	6.8875	1.8182	0.1	4467.8
7903	6.8875	2.	0.1	4559.8
7904	6.8875	2.1818	0.1	4642.6
7905	6.8875	2.3636	0.1	4713.2
7906	6.8875	2.5455	0.1	4769.1
7907	6.8875	2.7273	0.1	4807.8
7908	6.8875	2.9091	0.1	4827.7
7909	6.8875	3.0909	0.1	4827.7
7910	6.8875	3.2727	0.1	4807.8
7911	6.8875	3.4545	0.1	4769.1
7912	6.8875	3.6364	0.1	4713.2
7913	6.8875	3.8182	0.1	4642.6
7914	6.8875	4.	0.1	4559.8
7915	6.8875	4.1818	0.1	4467.8
7916	6.8875	4.3636	0.1	4369.4
7917	6.8875	4.5455	0.1	4268.1
7918	6.8875	4.7273	0.1	4167.
7919	6.8875	4.9091	0.1	4069.8
7920	6.8875	5.0909	0.1	3979.7
7921	6.8875	5.2727	0.1	3899.5
7922	6.8875	5.4545	0.1	3831.3
7923	6.8875	5.6364	0.1	3776.5
7924	6.8875	5.8182	0.1	3735.8
7925	7.0687	0.18182	0.1	3539.1
7926	7.0687	0.36364	0.1	3588.2
7927	7.0687	0.54545	0.1	3655.3
7928	7.0687	0.72727	0.1	3740.
7929	7.0687	0.90909	0.1	3840.8
7930	7.0687	1.0909	0.1	3955.1
7931	7.0687	1.2727	0.1	4079.4
7932	7.0687	1.4545	0.1	4209.4
7933	7.0687	1.6364	0.1	4340.5
7934	7.0687	1.8182	0.1	4468.1
7935	7.0687	2.	0.1	4587.9
7936	7.0687	2.1818	0.1	4695.9
7937	7.0687	2.3636	0.1	4788.2
7938	7.0687	2.5455	0.1	4861.4
7939	7.0687	2.7273	0.1	4912.2
7940	7.0687	2.9091	0.1	4938.2
7941	7.0687	3.0909	0.1	4938.2
7942	7.0687	3.2727	0.1	4912.2
7943	7.0687	3.4545	0.1	4861.4
7944	7.0687	3.6364	0.1	4788.2
7945	7.0687	3.8182	0.1	4695.9
7946	7.0687	4.	0.1	4587.9
7947	7.0687	4.1818	0.1	4468.1
7948	7.0687	4.3636	0.1	4340.5
7949	7.0687	4.5455	0.1	4209.4
7950	7.0687	4.7273	0.1	4079.4
7951	7.0687	4.9091	0.1	3955.1
7952	7.0687	5.0909	0.1	3840.8
7953	7.0687	5.2727	0.1	3740.
7954	7.0687	5.4545	0.1	3655.3
7955	7.0687	5.6364	0.1	3588.2
7956	7.0687	5.8182	0.1	3539.1
7957	7.25	0.18182	0.1	3312.9
7958	7.25	0.36364	0.1	3370.8
7959	7.25	0.54545	0.1	3452.
7960	7.25	0.72727	0.1	3556.
7961	7.25	0.90909	0.1	3681.5
7962	7.25	1.0909	0.1	3825.4
7963	7.25	1.2727	0.1	3983.5
7964	7.25	1.4545	0.1	4150.3
7965	7.25	1.6364	0.1	4319.4
7966	7.25	1.8182	0.1	4484.6
7967	7.25	2.	0.1	4640.1
7968	7.25	2.1818	0.1	4780.4
7969	7.25	2.3636	0.1	4900.4
7970	7.25	2.5455	0.1	4995.4
7971	7.25	2.7273	0.1	5061.3
7972	7.25	2.9091	0.1	5095.
7973	7.25	3.0909	0.1	5095.
7974	7.25	3.2727	0.1	5061.3
7975	7.25	3.4545	0.1	4995.4
7976	7.25	3.6364	0.1	4900.4
7977	7.25	3.8182	0.1	4780.4
7978	7.25	4.	0.1	4640.1
7979	7.25	4.1818	0.1	4484.6
7980	7.25	4.3636	0.1	4319.4
7981	7.25	4.5455	0.1	4150.3
7982	7.25	4.7273	0.1	3983.5
7983	7.25	4.9091	0.1	3825.4
7984	7.25	5.0909	0.1	3681.5
7985	7.25	5.2727	0.1	3556.
7986	7.25	5.4545	0.1	3452.
7987	7.25	5.6364	0.1	3370.8
7988	7.25	5.8182	0.1	3312.9
7989	7.4313	0.18182	0.1	3052.8
7990	7.4313	0.36364	0.1	3119.9
7991	7.4313	0.54545	0.1	3216.8
7992	7.4313	0.72727	0.1	3343.2
7993	7.4313	0.90909	0.1	3497.9
7994	7.4313	1.0909	0.1	3677.9
7995	7.4313	1.2727	0.1	3878.
7996	7.4313	1.4545	0.1	4091.3
7997	7.4313	1.6364	0.1	4309.4
7998	7.4313	1.8182	0.1	4523.4
7999	7.4313	2.	0.1	4725.1
8000	7.4313	2.1818	0.1	4907.
8001	7.4313	2.3636	0.1	5062.1
8002	7.4313	2.5455	0.1	5184.
8003	7.4313	2.7273	0.1	5267.9
8004	7.4313	2.9091	0.1	5310.6
8005	7.4313	3.0909	0.1	5310.6
8006	7.4313	3.2727	0.1	5267.9
8007	7.4313	3.4545	0.1	5184.
8008	7.4313	3.6364	0.1	5062.1
8009	7.4313	3.8182	0.1	4907.
8010	7.4313	4.	0.1	4725.1
8011	7.4313	4.1818	0.1	4523.4
8012	7.4313	4.3636	0.1	4309.4
8013	7.4313	4.5455	0.1	4091.3
8014	7.4313	4.7273	0.1	3878.
8015	7.4313	4.9091	0.1	3677.9
8016	7.4313	5.0909	0.1	3497.9
8017	7.4313	5.2727	0.1	3343.2
8018	7.4313	5.4545	0.1	3216.8
8019	7.4313	5.6364	0.1	3119.9
8020	7.4313	5.8182	0.1	3052.8
8021	7.6125	0.18182	0.1	2755.
8022	7.6125	0.36364	0.1	2831.3
8023	7.6125	0.54545	0.1	2945.7
8024	7.6125	0.72727	0.1	3097.7
8025	7.6125	0.90909	0.1	3286.5
8026	7.6125	1.0909	0.1	3509.4
8027	7.6125	1.2727	0.1	3761.1
8028	7.6125	1.4545	0.1	4033.4
8029	7.6125	1.6364	0.1	4315.4
8030	7.6125	1.8182	0.1	4594.
8031	7.6125	2.	0.1	4856.8
8032	7.6125	2.1818	0.1	5092.5
8033	7.6125	2.3636	0.1	5291.1
8034	7.6125	2.5455	0.1	5444.6
8035	7.6125	2.7273	0.1	5547.8
8036	7.6125	2.9091	0.1	5599.4
8037	7.6125	3.0909	0.1	5599.4
8038	7.6125	3.2727	0.1	5547.8
8039	7.6125	3.4545	0.1	5444.6
8040	7.6125	3.6364	0.1	5291.1
8041	7.6125	3.8182	0.1	5092.5
8042	7.6125	4.	0.1	4856.8
8043	7.6125	4.1818	0.1	4594.
8044	7.6125	4.3636	0.1	4315.4
8045	7.6125	4.5455	0.1	4033.4
8046	7.6125	4.7273	0.1	3761.1
8047	7.6125	4.9091	0.1	3509.4
8048	7.6125	5.0909	0.1	3286.5
8049	7.6125	5.2727	0.1	3097.7
8050	7.6125	5.4545	0.1	2945.7
8051	7.6125	5.6364	0.1	2831.3
8052	7.6125	5.8182	0.1	2755.
8053	7.7937	0.18182	0.1	2416.6
8054	7.7937	0.36364	0.1	2502.4
8055	7.7937	0.54545	0.1	2636.4
8056	7.7937	0.72727	0.1	2817.5
8057	7.7937	0.90909	0.1	3045.
8058	7.7937	1.0909	0.1	3317.4
8059	7.7937	1.2727	0.1	3630.9
8060	7.7937	1.4545	0.1	3978.
8061	7.7937	1.6364	0.1	4344.5
8062	7.7937	1.8182	0.1	4711.3
8063	7.7937	2.	0.1	5057.5
8064	7.7937	2.1818	0.1	5364.2
8065	7.7937	2.3636	0.1	5615.3
8066	7.7937	2.5455	0.1	5800.8
8067	7.7937	2.7273	0.1	5919.3
8068	7.7937	2.9091	0.1	5976.1
8069	7.7937	3.0909	0.1	5976.1
8070	7.7937	3.2727	0.1	5919.3
8071	7.7937	3.4545	0.1	5800.8
8072	7.7937	3.6364	0.1	5615.3
8073	7.7937	3.8182	0.1	5364.2
8074	7.7937	4.	0.1	5057.5
8075	7.7937	4.1818	0.1	4711.3
8076	7.7937	4.3636	0.1	4344.5
8077	7.7937	4.5455	0.1	3978.
8078	7.7937	4.7273	0.1	3630.9
8079	7.7937	4.9091	0.1	3317.4
8080	7.7937	5.0909	0.1	3045.
8081	7.7937	5.2727	0.1	2817.5
8082	7.7937	5.4545	0.1	2636.4
8083	7.7937	5.6364	0.1	2502.4
8084	7.7937	5.8182	0.1	2416.6
8085	7.975	0.18182	0.1	2036.7
8086	7.975	0.36364	0.1	2133.8
8087	7.975	0.54545	0.1	2291.5
8088	7.975	0.72727	0.1	2505.7
8089	7.975	0.90909	0.1	2775.2
8090	7.975	1.0909	0.1	3101.1
8091	7.975	1.2727	0.1	3484.7
8092	7.975	1.4545	0.1	3924.
8093	7.975	1.6364	0.1	4406.3
8094	7.975	1.8182	0.1	4900.4
8095	7.975	2.	0.1	5368.
8096	7.975	2.1818	0.1	5770.7
8097	7.975	2.3636	0.1	6079.6
8098	7.975	2.5455	0.1	6284.6
8099	7.975	2.7273	0.1	6399.7
8100	7.975	2.9091	0.1	6449.4
8101	7.975	3.0909	0.1	6449.4
8102	7.975	3.2727	0.1	6399.7
8103	7.975	3.4545	0.1	6284.6
8104	7.975	3.6364	0.1	6079.6
8105	7.975	3.8182	0.1	5770.7
8106	7.975	4.	0.1	5368.
8107	7.975	4.1818	0.1	4900.4
8108	7.975	4.3636	0.1	4406.3
8109	7.975	4.5455	0.1	3924.
8110	7.975	4.7273	0.1	3484.7
8111	7.975	4.9091	0.1	3101.1
8112	7.975	5.0909	0.1	2775.2
8113	7.975	5.2727	0.1	2505.7
8114	7.975	5.4545	0.1	2291.5
8115	7.975	5.6364	0.1	2133.8
8116	7.975	5.8182	0.1	2036.7
8117	8.1563	0.18182	0.1	1618.
8118	8.1563	0.36364	0.1	1733.3
8119	8.1563	0.54545	0.1	1923.7
8120	8.1563	0.72727	0.1	2176.1
8121	8.1563	0.90909	0.1	2487.6
8122	8.1563	1.0909	0.1	2863.8
8123	8.1563	1.2727	0.1	3317.6
8124	8.1563	1.4545	0.1	3866.3
8125	8.1563	1.6364	0.1	4506.7
8126	8.1563	1.8182	0.1	5204.7
8127	8.1563	2.	0.1	5875.7
8128	8.1563	2.1818	0.1	6409.9
8129	8.1563	2.3636	0.1	6764.
8130	8.1563	2.5455	0.1	6934.1
8131	8.1563	2.7273	0.1	6994.2
8132	8.1563	2.9091	0.1	7008.9
8133	8.1563	3.0909	0.1	7008.9
8134	8.1563	3.2727	0.1	6994.2
8135	8.1563	3.4545	0.1	6934.1
8136	8.1563	3.6364	0.1	6764.
8137	8.1563	3.8182	0.1	6409.9
8138	8.1563	4.	0.1	5875.7
8139	8.1563	4.1818	0.1	5204.7
8140	8.1563	4.3636	0.1	4506.7
8141	8.1563	4.5455	0.1	3866.3
8142	8.1563	4.7273	0.1	3317.6
8143	8.1563	4.9091	0.1	2863.8
8144	8.1563	5.0909	0.1	2487.6
8145	8.1563	5.2727	0.1	2176.1
8146	8.1563	5.4545	0.1	1923.7
8147	8.1563	5.6364	0.1	1733.3
8148	8.1563	5.8182	0.1	1618.
8149	8.3375	0.18182	0.1	1167.9
8150	8.3375	0.36364	0.1	1325.4
8151	8.3375	0.54545	0.1	1566.7
8152	8.3375	0.72727	0.1	1861.1
8153	8.3375	0.90909	0.1	2207.1
8154	8.3375	1.0909	0.1	2618.7
8155	8.3375	1.2727	0.1	3125.5
8156	8.3375	1.4545	0.1	3771.4
8157	8.3375	1.6364	0.1	4634.3
8158	8.3375	1.8182	0.1	5722.5
8159	8.3375	2.	0.1	6749.
8160	8.3375	2.1818	0.1	7541.5
8161	8.3375	2.3636	0.1	7801.1
8162	8.3375	2.5455	0.1	7767.3
8163	8.3375	2.7273	0.1	7667.3
8164	8.3375	2.9091	0.1	7602.4
8165	8.3375	3.0909	0.1	7602.4
8166	8.3375	3.2727	0.1	7667.3
8167	8.3375	3.4545	0.1	7767.3
8168	8.3375	3.6364	0.1	7801.1
8169	8.3375	3.8182	0.1	7541.5
8170	8.3375	4.	0.1	6749.
8171	8.3375	4.1818	0.1	5722.5
8172	8.3375	4.3636	0.1	4634.3
8173	8.3375	4.5455	0.1	3771.4
8174	8.3375	4.7273	0.1	3125.5
8175	8.3375	4.9091	0.1	2618.7
8176	8.3375	5.0909	0.1	2207.1
8177	8.3375	5.2727	0.1	1861.1
8178	8.3375	5.4545	0.1	1566.7
8179	8.3375	5.6364	0.1	1325.4
8180	8.3375	5.8182	0.1	1167.9
8181	8.5188	0.18182	0.1	734.52
8182	8.5188	0.36364	0.1	1010.9
8183	8.5188	0.54545	0.1	1329.1
8184	8.5188	0.72727	0.1	1670.2
8185	8.5188	0.90909	0.1	2048.1
8186	8.5188	1.0909	0.1	2486.9
8187	8.5188	1.2727	0.1	3024.8
8188	8.5188	1.4545	0.1	3750.3
8189	8.5188	1.6364	0.1	4793.7
8190	8.5188	1.8182	0.1	6887.1
8191	8.5188	2.	0.1	9669.6
8192	8.5188	2.1818	0.1	9806.1
8193	8.5188	2.3636	0.1	9299.5
8194	8.5188	2.5455	0.1	8667.8
8195	8.5188	2.7273	0.1	8295.7
8196	8.5188	2.9091	0.1	8117.1
8197	8.5188	3.0909	0.1	8117.1
8198	8.5188	3.2727	0.1	8295.7
8199	8.5188	3.4545	0.1	8667.8
8200	8.5188	3.6364	0.1	9299.5
8201	8.5188	3.8182	0.1	9806.1
8202	8.5188	4.	0.1	9669.6
8203	8.5188	4.1818	0.1	6887.1
8204	8.5188	4.3636	0.1	4793.7
8205	8.5188	4.5455	0.1	3750.3
8206	8.5188	4.7273	0.1	3024.8
8207	8.5188	4.9091	0.1	2486.9
8208	8.5188	5.0909	0.1	2048.1
8209	8.5188	5.2727	0.1	1670.2
8210	8.5188	5.4545	0.1	1329.1
8211	8.5188	5.6364	0.1	1010.9
8212	8.5188	5.8182	0.1	734.52
8213	8.8667	3.8182	0.1	13198
8214	8.8667	3.6364	0.1	10492
8215	8.8667	3.4545	0.1	9252.7
8216	8.8667	3.2727	0.1	8626.5
8217	8.8667	3.0909	0.1	8359.
8218	8.8667	2.9091	0.1	8359.
8219	8.8667	2.7273	0.1	8626.5
8220	8.8667	2.5455	0.1	9252.7
8221	8.8667	2.3636	0.1	10492
8222	8.8667	2.1818	0.1	13198
8223	8.7	3.8182	0.1	13182
8224	8.7	3.6364	0.1	10504
8225	8.7	3.4545	0.1	9285.5
8226	8.7	3.2727	0.1	8666.1
8227	8.7	3.0909	0.1	8401.6
8228	8.7	2.9091	0.1	8401.6
8229	8.7	2.7273	0.1	8666.1
8230	8.7	2.5455	0.1	9285.5
8231	8.7	2.3636	0.1	10504
8232	8.7	2.1818	0.1	13182
8233	8.8667	5.8182	0.1	343.17
8234	8.8667	5.6364	0.1	602.18
8235	8.8667	5.4545	0.1	831.02
8236	8.8667	5.2727	0.1	1061.6
8237	8.8667	5.0909	0.1	1311.6
8238	8.8667	4.9091	0.1	1600.8
8239	8.8667	4.7273	0.1	1956.5
8240	8.8667	4.5455	0.1	2442.2
8241	8.8667	4.3636	0.1	3111.7
8242	8.8667	4.1818	0.1	4724.4
8243	8.8667	4.	0.1	18992
8244	8.7	4.	0.1	18810
8245	8.7	4.1818	0.1	4453.7
8246	8.7	4.3636	0.1	2981.2
8247	8.7	4.5455	0.1	2388.4
8248	8.7	4.7273	0.1	1950.8
8249	8.7	4.9091	0.1	1626.6
8250	8.7	5.0909	0.1	1355.8
8251	8.7	5.2727	0.1	1115.3
8252	8.7	5.4545	0.1	886.39
8253	8.7	5.6364	0.1	651.99
8254	8.7	5.8182	0.1	377.63
8255	8.8667	0.18182	0.1	343.17
8256	8.8667	0.36364	0.1	602.18
8257	8.8667	0.54545	0.1	831.02
8258	8.8667	0.72727	0.1	1061.6
8259	8.8667	0.90909	0.1	1311.6
8260	8.8667	1.0909	0.1	1600.8
8261	8.8667	1.2727	0.1	1956.5
8262	8.8667	1.4545	0.1	2442.2
8263	8.8667	1.6364	0.1	3111.7
8264	8.8667	1.8182	0.1	4724.4
8265	8.8667	2.	0.1	18992
8266	8.7	2.	0.1	18810
8267	8.7	1.8182	0.1	4453.7
8268	8.7	1.6364	0.1	2981.2
8269	8.7	1.4545	0.1	2388.4
8270	8.7	1.2727	0.1	1950.8
8271	8.7	1.0909	0.1	1626.6
8272	8.7	0.90909	0.1	1355.8
8273	8.7	0.72727	0.1	1115.3
8274	8.7	0.54545	0.1	886.39
8275	8.7	0.36364	0.1	651.99
8276	8.7	0.18182	0.1	377.63
8277	8.8667	6.	0.1	44.307
8278	9.0512	6.	0.1	455.43
8279	9.2358	6.	0.1	888.7
8280	9.4203	6.	0.1	1270.1
8281	9.6049	6.	0.1	1604.3
8282	9.7894	6.	0.1	1890.4
8283	9.974	6.	0.1	2128.8
8284	10.159	6.	0.1	2322.
8285	10.343	6.	0.1	2474.1
8286	10.528	6.	0.1	2590.
8287	10.712	6.	0.1	2674.9
8288	10.897	6.	0.1	2733.7
8289	11.081	6.	0.1	2770.9
8290	11.266	6.	0.1	2790.4
8291	11.45	6.	0.1	2795.5
8292	11.635	6.	0.1	2789.
8293	11.82	6.	0.1	2773.2
8294	12.004	6.	0.1	2750.2
8295	12.189	6.	0.1	2721.3
8296	12.373	6.	0.1	2687.8
8297	12.558	6.	0.1	2650.8
8298	12.742	6.	0.1	2611.1
8299	12.927	6.	0.1	2569.2
8300	13.111	6.	0.1	2525.8
8301	13.296	6.	0.1	2481.1
8302	13.48	6.	0.1	2435.6
8303	13.665	6.	0.1	2389.4
8304	13.85	6.	0.1	2342.7
8305	14.034	6.	0.1	2295.8
8306	14.219	6.	0.1	2248.7
8307	14.403	6.	0.1	2201.6
8308	14.588	6.	0.1	2154.4
8309	14.772	6.	0.1	2107.3
8310	14.957	6.	0.1	2060.3
8311	15.141	6.	0.1	2013.5
8312	15.326	6.	0.1	1966.8
8313	15.511	6.	0.1	1920.2
8314	15.695	6.	0.1	1873.9
8315	15.88	6.	0.1	1827.7
8316	16.064	6.	0.1	1781.7
8317	16.249	6.	0.1	1736.
8318	16.433	6.	0.1	1690.4
8319	16.618	6.	0.1	1645.1
8320	16.802	6.	0.1	1600.
8321	16.987	6.	0.1	1555.
8322	17.172	6.	0.1	1510.3
8323	17.356	6.	0.1	1465.8
8324	17.541	6.	0.1	1421.5
8325	17.725	6.	0.1	1377.5
8326	17.91	6.	0.1	1333.6
8327	18.094	6.	0.1	1289.9
8328	18.279	6.	0.1	1246.4
8329	18.463	6.	0.1	1203.1
8330	18.648	6.	0.1	1160.
8331	18.833	6.	0.1	1117.1
8332	19.017	6.	0.1	1074.3
8333	19.202	6.	0.1	1031.8
8334	19.386	6.	0.1	989.42
8335	19.571	6.	0.1	947.23
8336	19.755	6.	0.1	905.21
8337	19.94	6.	0.1	863.37
8338	20.124	6.	0.1	821.69
8339	20.309	6.	0.1	780.17
8340	20.493	6.	0.1	738.82
8341	20.678	6.	0.1	697.63
8342	20.863	6.	0.1	656.6
8343	21.047	6.	0.1	615.73
8344	21.232	6.	0.1	575.01
8345	21.416	6.	0.1	534.45
8346	21.601	6.	0.1	494.06
8347	21.785	6.	0.1	453.83
8348	21.97	6.	0.1	413.77
8349	22.154	6.	0.1	373.9
8350	22.339	6.	0.1	334.24
8351	22.524	6.	0.1	294.81
8352	22.708	6.	0.1	255.65
8353	22.893	6.	0.1	216.81
8354	23.077	6.	0.1	178.38
8355	23.262	6.	0.1	140.49
8356	23.446	6.	0.1	103.34
8357	23.631	6.	0.1	67.352
8358	23.815	6.	0.1	33.438
8359	24.	6.	0.1	5.1907
8360	24.	5.8182	0.1	6.7439
8361	24.	5.6364	0.1	7.1293
8362	24.	5.4545	0.1	7.2508
8363	24.	5.2727	0.1	7.2897
8364	24.	5.0909	0.1	7.2686
8365	24.	4.9091	0.1	7.2289
8366	24.	4.7273	0.1	7.1792
8367	24.	4.5455	0.1	7.1273
8368	24.	4.3636	0.1	7.0768
8369	24.	4.1818	0.1	7.0301
8370	24.	4.	0.1	6.9885
8371	24.	3.8182	0.1	6.953
8372	24.	3.6364	0.1	6.9241
8373	24.	3.4545	0.1	6.9022
8374	24.	3.2727	0.1	6.8875
8375	24.	3.0909	0.1	6.8801
8376	24.	2.9091	0.1	6.8801
8377	24.	2.7273	0.1	6.8875
8378	24.	2.5455	0.1	6.9022
8379	24.	2.3636	0.1	6.9241
8380	24.	2.1818	0.1	6.953
8381	24.	2.	0.1	6.9885
8382	24.	1.8182	0.1	7.0301
8383	24.	1.6364	0.1	7.0768
8384	24.	1.4545	0.1	7.1273
8385	24.	1.2727	0.1	7.1792
8386	24.	1.0909	0.1	7.2289
8387	24.	0.90909	0.1	7.2686
8388	24.	0.72727	0.1	7.2897
8389	24.	0.54545	0.1	7.2508
8390	24.	0.36364	0.1	7.1293
8391	24.	0.18182	0.1	6.7439
8392	1.5894e-015	0.18182	0.1	2494.1
8393	3.1789e-015	0.36364	0.1	4638.
8394	4.7683e-015	0.54545	0.1	5688.6
8395	6.3578e-015	0.72727	0.1	6334.5
8396	7.9472e-015	0.90909	0.1	6765.5
8397	9.5366e-015	1.0909	0.1	7073.1
8398	1.1126e-014	1.2727	0.1	7300.8
8399	1.2716e-014	1.4545	0.1	7473.6
8400	1.4305e-014	1.6364	0.1	7606.5
8401	1.5894e-014	1.8182	0.1	7709.6
8402	1.7484e-014	2.	0.1	7789.5
8403	1.9073e-014	2.1818	0.1	7850.8
8404	2.0663e-014	2.3636	0.1	7896.6
8405	2.2252e-014	2.5455	0.1	7929.3
8406	2.3842e-014	2.7273	0.1	7950.3
8407	2.5431e-014	2.9091	0.1	7960.6
8408	2.702e-014	3.0909	0.1	7960.6
8409	2.861e-014	3.2727	0.1	7950.3
8410	3.0199e-014	3.4545	0.1	7929.3
8411	3.1789e-014	3.6364	0.1	7896.6
8412	3.3378e-014	3.8182	0.1	7850.8
8413	3.4968e-014	4.	0.1	7789.5
8414	3.6557e-014	4.1818	0.1	7709.6
8415	3.8147e-014	4.3636	0.1	7606.5
8416	3.9736e-014	4.5455	0.1	7473.6
8417	4.1325e-014	4.7273	0.1	7300.8
8418	4.2915e-014	4.9091	0.1	7073.1
8419	4.4504e-014	5.0909	0.1	6765.5
8420	4.6094e-014	5.2727	0.1	6334.5
8421	4.7683e-014	5.4545	0.1	5688.6
8422	4.9273e-014	5.6364	0.1	4638.
8423	5.0862e-014	5.8182	0.1	2494.1
8424	24.	0.	0.1	5.1907
8425	23.815	0.	0.1	33.438
8426	23.631	0.	0.1	67.352
8427	23.446	0.	0.1	103.34
8428	23.262	0.	0.1	140.49
8429	23.077	0.	0.1	178.38
8430	22.893	0.	0.1	216.81
8431	22.708	0.	0.1	255.65
8432	22.524	0.	0.1	294.81
8433	22.339	0.	0.1	334.24
8434	22.154	0.	0.1	373.9
8435	21.97	0.	0.1	413.77
8436	21.785	0.	0.1	453.83
8437	21.601	0.	0.1	494.06
8438	21.416	0.	0.1	534.45
8439	21.232	0.	0.1	575.01
8440	21.047	0.	0.1	615.73
8441	20.863	0.	0.1	656.6
8442	20.678	0.	0.1	697.63
8443	20.493	0.	0.1	738.82
8444	20.309	0.	0.1	780.17
8445	20.124	0.	0.1	821.69
8446	19.94	0.	0.1	863.37
8447	19.755	0.	0.1	905.21
8448	19.571	0.	0.1	947.23
8449	19.386	0.	0.1	989.42
8450	19.202	0.	0.1	1031.8
8451	19.017	0.	0.1	1074.3
8452	18.833	0.	0.1	1117.1
8453	18.648	0.	0.1	1160.
8454	18.463	0.	0.1	1203.1
8455	18.279	0.	0.1	1246.4
8456	18.094	0.	0.1	1289.9
8457	17.91	0.	0.1	1333.6
8458	17.725	0.	0.1	1377.5
8459	17.541	0.	0.1	1421.5
8460	17.356	0.	0.1	1465.8
8461	17.172	0.	0.1	1510.3
8462	16.987	0.	0.1	1555.
8463	16.802	0.	0.1	1600.
8464	16.618	0.	0.1	1645.1
8465	16.433	0.	0.1	1690.4
8466	16.249	0.	0.1	1736.
8467	16.064	0.	0.1	1781.7
8468	15.88	0.	0.1	1827.7
8469	15.695	0.	0.1	1873.9
8470	15.511	0.	0.1	1920.2
8471	15.326	0.	0.1	1966.8
8472	15.141	0.	0.1	2013.5
8473	14.957	0.	0.1	2060.3
8474	14.772	0.	0.1	2107.3
8475	14.588	0.	0.1	2154.4
8476	14.403	0.	0.1	2201.6
8477	14.219	0.	0.1	2248.7
8478	14.034	0.	0.1	2295.8
8479	13.85	0.	0.1	2342.7
8480	13.665	0.	0.1	2389.4
8481	13.48	0.	0.1	2435.6
8482	13.296	0.	0.1	2481.1
8483	13.111	0.	0.1	2525.8
8484	12.927	0.	0.1	2569.2
8485	12.742	0.	0.1	2611.1
8486	12.558	0.	0.1	2650.8
8487	12.373	0.	0.1	2687.8
8488	12.189	0.	0.1	2721.3
8489	12.004	0.	0.1	2750.2
8490	11.82	0.	0.1	2773.2
8491	11.635	0.	0.1	2789.
8492	11.45	0.	0.1	2795.5
8493	11.266	0.	0.1	2790.4
8494	11.081	0.	0.1	2770.9
8495	10.897	0.	0.1	2733.7
8496	10.712	0.	0.1	2674.9
8497	10.528	0.	0.1	2590.
8498	10.343	0.	0.1	2474.1
8499	10.159	0.	0.1	2322.
8500	9.974	0.	0.1	2128.8
8501	9.7894	0.	0.1	1890.4
8502	9.6049	0.	0.1	1604.3
8503	9.4203	0.	0.1	1270.1
8504	9.2358	0.	0.1	888.7
8505	9.0512	0.	0.1	455.43
8506	8.8667	0.	0.1	44.307
8507	8.7	0.	0.1	48.601
8508	8.5188	-7.365e-030	0.1	523.92
8509	8.3375	-7.2083e-030	0.1	1044.
8510	8.1563	-7.0516e-030	0.1	1519.5
8511	7.975	-6.8949e-030	0.1	1954.8
8512	7.7937	-6.7382e-030	0.1	2348.
8513	7.6125	-6.5815e-030	0.1	2697.9
8514	7.4313	-6.4248e-030	0.1	3005.8
8515	7.25	-6.2681e-030	0.1	3274.5
8516	7.0687	-6.1114e-030	0.1	3508.1
8517	6.8875	-5.9547e-030	0.1	3711.
8518	6.7063	-5.798e-030	0.1	3887.9
8519	6.525	-5.6413e-030	0.1	4042.8
8520	6.3438	-5.4846e-030	0.1	4179.6
8521	6.1625	-5.3279e-030	0.1	4301.7
8522	5.9812	-5.1712e-030	0.1	4411.7
8523	5.8	-5.0145e-030	0.1	4512.2
8524	5.6188	-4.8578e-030	0.1	4604.9
8525	5.4375	-4.7011e-030	0.1	4691.6
8526	5.2562	-4.5444e-030	0.1	4773.6
8527	5.075	-4.3877e-030	0.1	4851.9
8528	4.8938	-4.231e-030	0.1	4927.4
8529	4.7125	-4.0743e-030	0.1	5000.7
8530	4.5313	-3.9176e-030	0.1	5072.5
8531	4.35	-3.7609e-030	0.1	5143.1
8532	4.1687	-3.6042e-030	0.1	5212.9
8533	3.9875	-3.4475e-030	0.1	5282.
8534	3.8063	-3.2908e-030	0.1	5350.6
8535	3.625	-3.1341e-030	0.1	5418.8
8536	3.4437	-2.9774e-030	0.1	5486.4
8537	3.2625	-2.8207e-030	0.1	5553.5
8538	3.0812	-2.664e-030	0.1	5619.6
8539	2.9	-2.5072e-030	0.1	5684.6
8540	2.7188	-2.3505e-030	0.1	5747.8
8541	2.5375	-2.1938e-030	0.1	5808.6
8542	2.3563	-2.0371e-030	0.1	5866.
8543	2.175	-1.8804e-030	0.1	5918.7
8544	1.9937	-1.7237e-030	0.1	5964.9
8545	1.8125	-1.567e-030	0.1	6002.1
8546	1.6313	-1.4103e-030	0.1	6026.9
8547	1.45	-1.2536e-030	0.1	6034.5
8548	1.2687	-1.0969e-030	0.1	6017.8
8549	1.0875	-9.4022e-031	0.1	5966.
8550	0.90625	-7.8351e-031	0.1	5861.4
8551	0.725	-6.2681e-031	0.1	5675.
8552	0.54375	-4.7011e-031	0.1	5345.3
8553	0.3625	-3.1341e-031	0.1	4763.6
8554	0.18125	-1.567e-031	0.1	3544.1
8555	0.	0.	0.1	747.13
8556	3.937e-014	6.	0.1	747.13
8557	0.18125	6.	0.1	3544.1
8558	0.3625	6.	0.1	4763.6
8559	0.54375	6.	0.1	5345.3
8560	0.725	6.	0.1	5675.
8561	0.90625	6.	0.1	5861.4
8562	1.0875	6.	0.1	5966.
8563	1.2687	6.	0.1	6017.8
8564	1.45	6.	0.1	6034.5
8565	1.6313	6.	0.1	6026.9
8566	1.8125	6.	0.1	6002.1
8567	1.9937	6.	0.1	5964.9
8568	2.175	6.	0.1	5918.7
8569	2.3563	6.	0.1	5866.
8570	2.5375	6.	0.1	5808.7
8571	2.7188	6.	0.1	5747.8
8572	2.9	6.	0.1	5684.6
8573	3.0812	6.	0.1	5619.6
8574	3.2625	6.	0.1	5553.5
8575	3.4437	6.	0.1	5486.4
8576	3.625	6.	0.1	5418.8
8577	3.8063	6.	0.1	5350.6
8578	3.9875	6.	0.1	5282.
8579	4.1687	6.	0.1	5212.9
8580	4.35	6.	0.1	5143.1
8581	4.5313	6.	0.1	5072.5
8582	4.7125	6.	0.1	5000.7
8583	4.8938	6.	0.1	4927.4
8584	5.075	6.	0.1	4851.9
8585	5.2562	6.	0.1	4773.6
8586	5.4375	6.	0.1	4691.6
8587	5.6188	6.	0.1	4604.9
8588	5.8	6.	0.1	4512.2
8589	5.9812	6.	0.1	4411.7
8590	6.1625	6.	0.1	4301.7
8591	6.3438	6.	0.1	4179.6
8592	6.525	6.	0.1	4042.8
8593	6.7063	6.	0.1	3887.9
8594	6.8875	6.	0.1	3711.
8595	7.0687	6.	0.1	3508.1
8596	7.25	6.	0.1	3274.5
8597	7.4313	6.	0.1	3005.8
8598	7.6125	6.	0.1	2697.9
8599	7.7937	6.	0.1	2348.
8600	7.975	6.	0.1	1954.8
8601	8.1563	6.	0.1	1519.5
8602	8.3375	6.	0.1	1044.
8603	8.5188	6.	0.1	523.92
8604	8.7	6.	0.1	48.601
8605	8.5188	6.	0.	16.203
8606	8.3375	6.	0.	17.296
8607	8.1563	6.	0.	17.856
8608	7.975	6.	0.	16.876
8609	7.7937	6.	0.	14.901
8610	7.6125	6.	0.	12.694
8611	7.4313	6.	0.	10.547
8612	7.25	6.	0.	8.6184
8613	7.0687	6.	0.	6.9478
8614	6.8875	6.	0.	5.5259
8615	6.7063	6.	0.	4.3186
8616	6.525	6.	0.	3.2859
8617	6.3438	6.	0.	2.3911
8618	6.1625	6.	0.	1.6043
8619	5.9812	6.	0.	0.90534
8620	5.8	6.	0.	0.30885
8621	5.6188	6.	0.	0.25966
8622	5.4375	6.	0.	0.42364
8623	5.2562	6.	0.	0.58742
8624	5.075	6.	0.	0.74592
8625	4.8938	6.	0.	0.90025
8626	4.7125	6.	0.	1.0523
8627	4.5313	6.	0.	1.2044
8628	4.35	6.	0.	1.3588
8629	4.1687	6.	0.	1.5182
8630	3.9875	6.	0.	1.6856
8631	3.8063	6.	0.	1.8657
8632	3.625	6.	0.	2.0664
8633	3.4437	6.	0.	2.3058
8634	3.2625	6.	0.	2.6419
8635	3.0812	6.	0.	3.3094
8636	2.9	6.	0.	4.7851
8637	2.7188	6.	0.	7.0606
8638	2.5375	6.	0.	10.019
8639	2.3563	6.	0.	13.713
8640	2.175	6.	0.	18.263
8641	1.9937	6.	0.	23.845
8642	1.8125	6.	0.	30.689
8643	1.6313	6.	0.	39.112
8644	1.45	6.	0.	49.546
8645	1.2687	6.	0.	62.67
8646	1.0875	6.	0.	79.389
8647	0.90625	6.	0.	101.71
8648	0.725	6.	0.	131.94
8649	0.54375	6.	0.	178.7
8650	0.3625	6.	0.	259.92
8651	0.18125	6.	0.	445.19
8652	8.7	6.	0.	11.939
8653	3.937e-014	6.	0.	1837.1
8654	0.18125	-1.567e-031	0.	445.19
8655	0.3625	-3.1341e-031	0.	259.92
8656	0.54375	-4.7011e-031	0.	178.7
8657	0.725	-6.2681e-031	0.	131.94
8658	0.90625	-7.8351e-031	0.	101.71
8659	1.0875	-9.4022e-031	0.	79.389
8660	1.2687	-1.0969e-030	0.	62.67
8661	1.45	-1.2536e-030	0.	49.546
8662	1.6313	-1.4103e-030	0.	39.112
8663	1.8125	-1.567e-030	0.	30.689
8664	1.9937	-1.7237e-030	0.	23.845
8665	2.175	-1.8804e-030	0.	18.263
8666	2.3563	-2.0371e-030	0.	13.713
8667	2.5375	-2.1938e-030	0.	10.019
8668	2.7188	-2.3505e-030	0.	7.0606
8669	2.9	-2.5072e-030	0.	4.7851
8670	3.0812	-2.664e-030	0.	3.3094
8671	3.2625	-2.8207e-030	0.	2.6419
8672	3.4437	-2.9774e-030	0.	2.3058
8673	3.625	-3.1341e-030	0.	2.0664
8674	3.8063	-3.2908e-030	0.	1.8657
8675	3.9875	-3.4475e-030	0.	1.6856
8676	4.1687	-3.6042e-030	0.	1.5182
8677	4.35	-3.7609e-030	0.	1.3588
8678	4.5313	-3.9176e-030	0.	1.2044
8679	4.7125	-4.0743e-030	0.	1.0523
8680	4.8938	-4.231e-030	0.	0.90025
8681	5.075	-4.3877e-030	0.	0.74592
8682	5.2562	-4.5444e-030	0.	0.58742
8683	5.4375	-4.7011e-030	0.	0.42364
8684	5.6188	-4.8578e-030	0.	0.25966
8685	5.8	-5.0145e-030	0.	0.30885
8686	5.9812	-5.1712e-030	0.	0.90534
8687	6.1625	-5.3279e-030	0.	1.6043
8688	6.3438	-5.4846e-030	0.	2.3911
8689	6.525	-5.6413e-030	0.	3.2859
8690	6.7063	-5.798e-030	0.	4.3186
8691	6.8875	-5.9547e-030	0.	5.5259
8692	7.0687	-6.1114e-030	0.	6.9478
8693	7.25	-6.2681e-030	0.	8.6184
8694	7.4313	-6.4248e-030	0.	10.547
8695	7.6125	-6.5815e-030	0.	12.694
8696	7.7937	-6.7382e-030	0.	14.901
8697	7.975	-6.8949e-030	0.	16.876
8698	8.1563	-7.0516e-030	0.	17.856
8699	8.3375	-7.2083e-030	0.	17.296
8700	8.5188	-7.365e-030	0.	16.203
8701	8.7	0.	0.	11.939
8702	0.	0.	0.	1837.1
8703	9.0512	0.	0.	16.579
8704	9.2358	0.	0.	19.653
8705	9.4203	0.	0.	21.523
8706	9.6049	0.	0.	21.266
8707	9.7894	0.	0.	19.59
8708	9.974	0.	0.	17.37
8709	10.159	0.	0.	15.013
8710	10.343	0.	0.	12.777
8711	10.528	0.	0.	10.778
8712	10.712	0.	0.	9.0604
8713	10.897	0.	0.	7.6257
8714	11.081	0.	0.	6.4535
8715	11.266	0.	0.	5.5145
8716	11.45	0.	0.	4.7781
8717	11.635	0.	0.	4.2148
8718	11.82	0.	0.	3.7985
8719	12.004	0.	0.	3.5062
8720	12.189	0.	0.	3.3183
8721	12.373	0.	0.	3.2179
8722	12.558	0.	0.	3.1905
8723	12.742	0.	0.	3.2238
8724	12.927	0.	0.	3.3073
8725	13.111	0.	0.	3.4319
8726	13.296	0.	0.	3.5898
8727	13.48	0.	0.	3.7745
8728	13.665	0.	0.	3.9804
8729	13.85	0.	0.	4.2028
8730	14.034	0.	0.	4.4377
8731	14.219	0.	0.	4.6819
8732	14.403	0.	0.	4.9327
8733	14.588	0.	0.	5.1879
8734	14.772	0.	0.	5.4456
8735	14.957	0.	0.	5.7046
8736	15.141	0.	0.	5.9638
8737	15.326	0.	0.	6.2223
8738	15.511	0.	0.	6.4796
8739	15.695	0.	0.	6.7352
8740	15.88	0.	0.	6.9891
8741	16.064	0.	0.	7.2409
8742	16.249	0.	0.	7.4908
8743	16.433	0.	0.	7.7388
8744	16.618	0.	0.	7.985
8745	16.802	0.	0.	8.2296
8746	16.987	0.	0.	8.4729
8747	17.172	0.	0.	8.715
8748	17.356	0.	0.	8.9562
8749	17.541	0.	0.	9.1967
8750	17.725	0.	0.	9.4369
8751	17.91	0.	0.	9.6769
8752	18.094	0.	0.	9.917
8753	18.279	0.	0.	10.157
8754	18.463	0.	0.	10.398
8755	18.648	0.	0.	10.639
8756	18.833	0.	0.	10.881
8757	19.017	0.	0.	11.123
8758	19.202	0.	0.	11.366
8759	19.386	0.	0.	11.609
8760	19.571	0.	0.	11.853
8761	19.755	0.	0.	12.096
8762	19.94	0.	0.	12.339
8763	20.124	0.	0.	12.582
8764	20.309	0.	0.	12.822
8765	20.493	0.	0.	13.061
8766	20.678	0.	0.	13.296
8767	20.863	0.	0.	13.527
8768	21.047	0.	0.	13.753
8769	21.232	0.	0.	13.971
8770	21.416	0.	0.	14.179
8771	21.601	0.	0.	14.376
8772	21.785	0.	0.	14.558
8773	21.97	0.	0.	14.722
8774	22.154	0.	0.	14.863
8775	22.339	0.	0.	14.976
8776	22.524	0.	0.	15.053
8777	22.708	0.	0.	15.084
8778	22.893	0.	0.	15.055
8779	23.077	0.	0.	14.945
8780	23.262	0.	0.	14.722
8781	23.446	0.	0.	14.298
8782	23.631	0.	0.	13.666
8783	23.815	0.	0.	11.413
8784	8.8667	0.	0.	9.9214
8785	24.	0.	0.	5.7076
8786	5.0862e-014	5.8182	0.	-1058.
8787	4.9273e-014	5.6364	0.	-2242.4
8788	4.7683e-014	5.4545	0.	-2786.1
8789	4.6094e-014	5.2727	0.	-3110.7
8790	4.4504e-014	5.0909	0.	-3326.
8791	4.2915e-014	4.9091	0.	-3479.3
8792	4.1325e-014	4.7273	0.	-3592.6
8793	3.9736e-014	4.5455	0.	-3678.5
8794	3.8147e-014	4.3636	0.	-3744.6
8795	3.6557e-014	4.1818	0.	-3795.8
8796	3.4968e-014	4.	0.	-3835.5
8797	3.3378e-014	3.8182	0.	-3866.
8798	3.1789e-014	3.6364	0.	-3888.8
8799	3.0199e-014	3.4545	0.	-3905.1
8800	2.861e-014	3.2727	0.	-3915.7
8801	2.702e-014	3.0909	0.	-3920.9
8802	2.5431e-014	2.9091	0.	-3920.9
8803	2.3842e-014	2.7273	0.	-3915.7
8804	2.2252e-014	2.5455	0.	-3905.1
8805	2.0663e-014	2.3636	0.	-3888.8
8806	1.9073e-014	2.1818	0.	-3866.
8807	1.7484e-014	2.	0.	-3835.5
8808	1.5894e-014	1.8182	0.	-3795.8
8809	1.4305e-014	1.6364	0.	-3744.6
8810	1.2716e-014	1.4545	0.	-3678.5
8811	1.1126e-014	1.2727	0.	-3592.6
8812	9.5366e-015	1.0909	0.	-3479.3
8813	7.9472e-015	0.90909	0.	-3326.
8814	6.3578e-015	0.72727	0.	-3110.7
8815	4.7683e-015	0.54545	0.	-2786.1
8816	3.1789e-015	0.36364	0.	-2242.4
8817	1.5894e-015	0.18182	0.	-1058.
8818	24.	0.18182	0.	36.462
8819	24.	0.36364	0.	63.721
8820	24.	0.54545	0.	84.751
8821	24.	0.72727	0.	102.21
8822	24.	0.90909	0.	117.09
8823	24.	1.0909	0.	129.93
8824	24.	1.2727	0.	141.04
8825	24.	1.4545	0.	150.65
8826	24.	1.6364	0.	158.92
8827	24.	1.8182	0.	165.97
8828	24.	2.	0.	171.88
8829	24.	2.1818	0.	176.72
8830	24.	2.3636	0.	180.53
8831	24.	2.5455	0.	183.37
8832	24.	2.7273	0.	185.24
8833	24.	2.9091	0.	186.17
8834	24.	3.0909	0.	186.17
8835	24.	3.2727	0.	185.24
8836	24.	3.4545	0.	183.37
8837	24.	3.6364	0.	180.53
8838	24.	3.8182	0.	176.72
8839	24.	4.	0.	171.88
8840	24.	4.1818	0.	165.97
8841	24.	4.3636	0.	158.92
8842	24.	4.5455	0.	150.65
8843	24.	4.7273	0.	141.04
8844	24.	4.9091	0.	129.93
8845	24.	5.0909	0.	117.09
8846	24.	5.2727	0.	102.21
8847	24.	5.4545	0.	84.751
8848	24.	5.6364	0.	63.721
8849	24.	5.8182	0.	36.462
8850	24.	6.	0.	5.7076
8851	23.815	6.	0.	11.413
8852	23.631	6.	0.	13.666
8853	23.446	6.	0.	14.298
8854	23.262	6.	0.	14.722
8855	23.077	6.	0.	14.945
8856	22.893	6.	0.	15.055
8857	22.708	6.	0.	15.084
8858	22.524	6.	0.	15.053
8859	22.339	6.	0.	14.976
8860	22.154	6.	0.	14.863
8861	21.97	6.	0.	14.722
8862	21.785	6.	0.	14.558
8863	21.601	6.	0.	14.376
8864	21.416	6.	0.	14.179
8865	21.232	6.	0.	13.971
8866	21.047	6.	0.	13.753
8867	20.863	6.	0.	13.527
8868	20.678	6.	0.	13.296
8869	20.493	6.	0.	13.061
8870	20.309	6.	0.	12.823
8871	20.124	6.	0.	12.582
8872	19.94	6.	0.	12.339
8873	19.755	6.	0.	12.096
8874	19.571	6.	0.	11.853
8875	19.386	6.	0.	11.609
8876	19.202	6.	0.	11.366
8877	19.017	6.	0.	11.123
8878	18.833	6.	0.	10.881
8879	18.648	6.	0.	10.639
8880	18.463	6.	0.	10.398
8881	18.279	6.	0.	10.157
8882	18.094	6.	0.	9.917
8883	17.91	6.	0.	9.6769
8884	17.725	6.	0.	9.4369
8885	17.541	6.	0.	9.1968
8886	17.356	6.	0.	8.9562
8887	17.172	6.	0.	8.715
8888	16.987	6.	0.	8.4729
8889	16.802	6.	0.	8.2296
8890	16.618	6.	0.	7.985
8891	16.433	6.	0.	7.7388
8892	16.249	6.	0.	7.4908
8893	16.064	6.	0.	7.241
8894	15.88	6.	0.	6.9891
8895	15.695	6.	0.	6.7353
8896	15.511	6.	0.	6.4796
8897	15.326	6.	0.	6.2223
8898	15.141	6.	0.	5.9638
8899	14.957	6.	0.	5.7046
8900	14.772	6.	0.	5.4456
8901	14.588	6.	0.	5.1879
8902	14.403	6.	0.	4.9327
8903	14.219	6.	0.	4.6819
8904	14.034	6.	0.	4.4377
8905	13.85	6.	0.	4.2028
8906	13.665	6.	0.	3.9804
8907	13.48	6.	0.	3.7745
8908	13.296	6.	0.	3.5898
8909	13.111	6.	0.	3.4319
8910	12.927	6.	0.	3.3073
8911	12.742	6.	0.	3.2239
8912	12.558	6.	0.	3.1905
8913	12.373	6.	0.	3.2179
8914	12.189	6.	0.	3.3183
8915	12.004	6.	0.	3.5062
8916	11.82	6.	0.	3.7985
8917	11.635	6.	0.	4.2148
8918	11.45	6.	0.	4.7781
8919	11.266	6.	0.	5.5145
8920	11.081	6.	0.	6.4535
8921	10.897	6.	0.	7.6257
8922	10.712	6.	0.	9.0604
8923	10.528	6.	0.	10.778
8924	10.343	6.	0.	12.777
8925	10.159	6.	0.	15.013
8926	9.974	6.	0.	17.37
8927	9.7894	6.	0.	19.59
8928	9.6049	6.	0.	21.266
8929	9.4203	6.	0.	21.523
8930	9.2358	6.	0.	19.653
8931	9.0512	6.	0.	16.579
8932	8.8667	6.	0.	9.9214
8933	8.7	1.8182	0.	5076.1
8934	8.7	1.6364	0.	2517.8
8935	8.7	1.4545	0.	1945.2
8936	8.7	1.2727	0.	1442.4
8937	8.7	1.0909	0.	1085.3
8938	8.7	0.90909	0.	804.47
8939	8.7	0.72727	0.	574.52
8940	8.7	0.54545	0.	382.02
8941	8.7	0.36364	0.	220.21
8942	8.7	0.18182	0.	86.692
8943	8.7	2.	0.	4002.5
8944	8.8667	0.18182	0.	66.13
8945	8.8667	0.36364	0.	166.16
8946	8.8667	0.54545	0.	285.05
8947	8.8667	0.72727	0.	424.93
8948	8.8667	0.90909	0.	591.35
8949	8.8667	1.0909	0.	795.05
8950	8.8667	1.2727	0.	1055.7
8951	8.8667	1.4545	0.	1431.5
8952	8.8667	1.6364	0.	1818.2
8953	8.8667	1.8182	0.	3995.8
8954	8.8667	2.	0.	2640.9
8955	8.7	4.1818	0.	5076.1
8956	8.7	4.3636	0.	2517.8
8957	8.7	4.5455	0.	1945.2
8958	8.7	4.7273	0.	1442.4
8959	8.7	4.9091	0.	1085.3
8960	8.7	5.0909	0.	804.47
8961	8.7	5.2727	0.	574.52
8962	8.7	5.4545	0.	382.02
8963	8.7	5.6364	0.	220.21
8964	8.7	5.8182	0.	86.692
8965	8.7	4.	0.	4002.5
8966	8.8667	5.8182	0.	66.13
8967	8.8667	5.6364	0.	166.16
8968	8.8667	5.4545	0.	285.05
8969	8.8667	5.2727	0.	424.93
8970	8.8667	5.0909	0.	591.35
8971	8.8667	4.9091	0.	795.05
8972	8.8667	4.7273	0.	1055.7
8973	8.8667	4.5455	0.	1431.5
8974	8.8667	4.3636	0.	1818.2
8975	8.8667	4.1818	0.	3995.8
8976	8.8667	4.	0.	2640.9
8977	8.7	2.2727	0.	1456.6
8978	8.7833	2.1818	0.	1366.2
8979	8.6094	2.1818	0.	1388.9
8980	8.7	2.1818	5.e-002	478.6
8981	8.7	2.0909	0.	2601.4
8982	8.7	2.4545	0.	1184.9
8983	8.7833	2.3636	0.	1213.3
8984	8.6094	2.3636	0.	1160.
8985	8.7	2.3636	5.e-002	81.95
8986	8.7	2.6364	0.	1023.1
8987	8.7833	2.5455	0.	1044.2
8988	8.6094	2.5455	0.	990.69
8989	8.7	2.5455	5.e-002	38.966
8990	8.7	2.8182	0.	941.14
8991	8.7833	2.7273	0.	944.94
8992	8.6094	2.7273	0.	906.11
8993	8.7	2.7273	5.e-002	20.086
8994	8.7	3.	0.	915.59
8995	8.7833	2.9091	0.	898.46
8996	8.6094	2.9091	0.	865.76
8997	8.7	2.9091	5.e-002	11.174
8998	8.7	3.1818	0.	941.14
8999	8.7833	3.0909	0.	898.46
9000	8.6094	3.0909	0.	865.76
9001	8.7	3.0909	5.e-002	11.174
9002	8.7	3.3636	0.	1023.1
9003	8.7833	3.2727	0.	944.94
9004	8.6094	3.2727	0.	906.11
9005	8.7	3.2727	5.e-002	20.086
9006	8.7	3.5455	0.	1184.9
9007	8.7833	3.4545	0.	1044.2
9008	8.6094	3.4545	0.	990.69
9009	8.7	3.4545	5.e-002	38.966
9010	8.7	3.7273	0.	1456.6
9011	8.7833	3.6364	0.	1213.3
9012	8.6094	3.6364	0.	1160.
9013	8.7	3.6364	5.e-002	81.949
9014	8.7833	3.8182	0.	1366.2
9015	8.6094	3.8182	0.	1388.9
9016	8.7	3.8182	5.e-002	478.6
9017	8.7	3.9091	0.	2601.4
9018	8.8667	2.2727	0.	1272.9
9019	8.9589	2.1818	0.	1023.6
9020	8.8667	2.1818	5.e-002	441.88
9021	8.8667	2.0909	0.	1792.7
9022	8.8667	2.4545	0.	1116.5
9023	8.9589	2.3636	0.	996.76
9024	8.8667	2.3636	5.e-002	88.73
9025	8.8667	2.6364	0.	977.44
9026	8.9589	2.5455	0.	884.43
9027	8.8667	2.5455	5.e-002	43.118
9028	8.8667	2.8182	0.	904.38
9029	8.9589	2.7273	0.	824.34
9030	8.8667	2.7273	5.e-002	24.019
9031	8.8667	3.	0.	881.21
9032	8.9589	2.9091	0.	793.52
9033	8.8667	2.9091	5.e-002	15.957
9034	8.8667	3.1818	0.	904.38
9035	8.9589	3.0909	0.	793.52
9036	8.8667	3.0909	5.e-002	15.957
9037	8.8667	3.3636	0.	977.44
9038	8.9589	3.2727	0.	824.34
9039	8.8667	3.2727	5.e-002	24.019
9040	8.8667	3.5455	0.	1116.5
9041	8.9589	3.4545	0.	884.43
9042	8.8667	3.4545	5.e-002	43.118
9043	8.8667	3.7273	0.	1272.9
9044	8.9589	3.6364	0.	996.76
9045	8.8667	3.6364	5.e-002	88.73
9046	8.9589	3.8182	0.	1023.6
9047	8.8667	3.8182	5.e-002	441.88
9048	8.8667	3.9091	0.	1792.7
9049	8.5188	5.7273	0.	198.89
9050	8.4281	5.8182	0.	97.681
9051	8.5188	5.8182	5.e-002	61.055
9052	8.5188	5.9091	0.	48.597
9053	8.6094	5.8182	0.	62.434
9054	8.5188	5.5455	0.	395.54
9055	8.4281	5.6364	0.	204.3
9056	8.5188	5.6364	5.e-002	54.96
9057	8.6094	5.6364	0.	207.15
9058	8.5188	5.3636	0.	651.74
9059	8.4281	5.4545	0.	399.6
9060	8.5188	5.4545	5.e-002	57.995
9061	8.6094	5.4545	0.	400.31
9062	8.5188	5.1818	0.	951.87
9063	8.4281	5.2727	0.	642.48
9064	8.5188	5.2727	5.e-002	64.333
9065	8.6094	5.2727	0.	627.31
9066	8.5188	5.	0.	1301.6
9067	8.4281	5.0909	0.	924.6
9068	8.5188	5.0909	5.e-002	73.929
9069	8.6094	5.0909	0.	892.55
9070	8.5188	4.8182	0.	1717.6
9071	8.4281	4.9091	0.	1248.2
9072	8.5188	4.9091	5.e-002	87.583
9073	8.6094	4.9091	0.	1208.
9074	8.5188	4.6364	0.	2222.1
9075	8.4281	4.7273	0.	1622.3
9076	8.5188	4.7273	5.e-002	108.75
9077	8.6094	4.7273	0.	1595.4
9078	8.5188	4.4545	0.	2885.8
9079	8.4281	4.5455	0.	2042.8
9080	8.5188	4.5455	5.e-002	135.81
9081	8.6094	4.5455	0.	2104.2
9082	8.5188	4.2727	0.	3517.6
9083	8.4281	4.3636	0.	2527.
9084	8.5188	4.3636	5.e-002	203.66
9085	8.6094	4.3636	0.	2717.3
9086	8.5188	4.0909	0.	3214.4
9087	8.4281	4.1818	0.	2796.4
9088	8.5188	4.1818	5.e-002	392.44
9089	8.6094	4.1818	0.	4140.3
9090	8.5188	3.9091	0.	1942.2
9091	8.4281	4.	0.	2030.7
9092	8.5188	4.	5.e-002	701.71
9093	8.6094	4.	0.	2985.4
9094	8.5188	3.7273	0.	1177.4
9095	8.4281	3.8182	0.	1098.4
9096	8.5188	3.8182	5.e-002	318.24
9097	8.5188	3.5455	0.	988.51
9098	8.4281	3.6364	0.	885.56
9099	8.5188	3.6364	5.e-002	135.7
9100	8.5188	3.3636	0.	880.46
9101	8.4281	3.4545	0.	786.67
9102	8.5188	3.4545	5.e-002	74.354
9103	8.5188	3.1818	0.	831.21
9104	8.4281	3.2727	0.	741.85
9105	8.5188	3.2727	5.e-002	43.89
9106	8.5188	3.	0.	814.83
9107	8.4281	3.0909	0.	720.91
9108	8.5188	3.0909	5.e-002	33.282
9109	8.5188	2.8182	0.	831.21
9110	8.4281	2.9091	0.	720.91
9111	8.5188	2.9091	5.e-002	33.282
9112	8.5188	2.6364	0.	880.46
9113	8.4281	2.7273	0.	741.85
9114	8.5188	2.7273	5.e-002	43.89
9115	8.5188	2.4545	0.	988.51
9116	8.4281	2.5455	0.	786.67
9117	8.5188	2.5455	5.e-002	74.354
9118	8.5188	2.2727	0.	1177.4
9119	8.4281	2.3636	0.	885.56
9120	8.5188	2.3636	5.e-002	135.7
9121	8.5188	2.0909	0.	1942.2
9122	8.4281	2.1818	0.	1098.4
9123	8.5188	2.1818	5.e-002	318.24
9124	8.5188	1.9091	0.	3214.4
9125	8.4281	2.	0.	2030.7
9126	8.5188	2.	5.e-002	701.71
9127	8.6094	2.	0.	2985.4
9128	8.5188	1.7273	0.	3517.6
9129	8.4281	1.8182	0.	2796.4
9130	8.5188	1.8182	5.e-002	392.44
9131	8.6094	1.8182	0.	4140.3
9132	8.5188	1.5455	0.	2885.8
9133	8.4281	1.6364	0.	2527.
9134	8.5188	1.6364	5.e-002	203.66
9135	8.6094	1.6364	0.	2717.3
9136	8.5188	1.3636	0.	2222.1
9137	8.4281	1.4545	0.	2042.8
9138	8.5188	1.4545	5.e-002	135.81
9139	8.6094	1.4545	0.	2104.2
9140	8.5188	1.1818	0.	1717.6
9141	8.4281	1.2727	0.	1622.3
9142	8.5188	1.2727	5.e-002	108.75
9143	8.6094	1.2727	0.	1595.4
9144	8.5188	1.	0.	1301.6
9145	8.4281	1.0909	0.	1248.2
9146	8.5188	1.0909	5.e-002	87.583
9147	8.6094	1.0909	0.	1208.
9148	8.5188	0.81818	0.	951.87
9149	8.4281	0.90909	0.	924.6
9150	8.5188	0.90909	5.e-002	73.929
9151	8.6094	0.90909	0.	892.55
9152	8.5188	0.63636	0.	651.74
9153	8.4281	0.72727	0.	642.48
9154	8.5188	0.72727	5.e-002	64.333
9155	8.6094	0.72727	0.	627.31
9156	8.5188	0.45455	0.	395.54
9157	8.4281	0.54545	0.	399.6
9158	8.5188	0.54545	5.e-002	57.995
9159	8.6094	0.54545	0.	400.31
9160	8.5188	0.27273	0.	198.89
9161	8.4281	0.36364	0.	204.3
9162	8.5188	0.36364	5.e-002	54.96
9163	8.6094	0.36364	0.	207.15
9164	8.4281	0.18182	0.	97.681
9165	8.5188	0.18182	5.e-002	61.055
9166	8.5188	9.0909e-002	0.	48.597
9167	8.6094	0.18182	0.	62.434
9168	8.3375	5.7273	0.	125.96
9169	8.2469	5.8182	0.	87.894
9170	8.3375	5.8182	5.e-002	55.71
9171	8.3375	5.9091	0.	38.699
9172	8.3375	5.5455	0.	243.78
9173	8.2469	5.6364	0.	150.5
9174	8.3375	5.6364	5.e-002	48.61
9175	8.3375	5.3636	0.	427.57
9176	8.2469	5.4545	0.	282.46
9177	8.3375	5.4545	5.e-002	48.987
9178	8.3375	5.1818	0.	653.31
9179	8.2469	5.2727	0.	460.31
9180	8.3375	5.2727	5.e-002	51.536
9181	8.3375	5.	0.	912.36
9182	8.2469	5.0909	0.	670.29
9183	8.3375	5.0909	5.e-002	56.071
9184	8.3375	4.8182	0.	1201.
9185	8.2469	4.9091	0.	903.11
9186	8.3375	4.9091	5.e-002	62.897
9187	8.3375	4.6364	0.	1502.9
9188	8.2469	4.7273	0.	1148.
9189	8.3375	4.7273	5.e-002	71.573
9190	8.3375	4.4545	0.	1771.5
9191	8.2469	4.5455	0.	1375.1
9192	8.3375	4.5455	5.e-002	88.11
9193	8.3375	4.2727	0.	1878.7
9194	8.2469	4.3636	0.	1523.6
9195	8.3375	4.3636	5.e-002	84.862
9196	8.3375	4.0909	0.	1587.9
9197	8.2469	4.1818	0.	1456.6
9198	8.3375	4.1818	5.e-002	123.17
9199	8.3375	3.9091	0.	1093.8
9200	8.2469	4.	0.	1063.5
9201	8.3375	4.	5.e-002	108.03
9202	8.3375	3.7273	0.	778.79
9203	8.2469	3.8182	0.	717.41
9204	8.3375	3.8182	5.e-002	152.03
9205	8.3375	3.5455	0.	673.11
9206	8.2469	3.6364	0.	573.88
9207	8.3375	3.6364	5.e-002	104.68
9208	8.3375	3.3636	0.	642.79
9209	8.2469	3.4545	0.	538.75
9210	8.3375	3.4545	5.e-002	77.549
9211	8.3375	3.1818	0.	627.37
9212	8.2469	3.2727	0.	525.
9213	8.3375	3.2727	5.e-002	55.184
9214	8.3375	3.	0.	622.93
9215	8.2469	3.0909	0.	520.69
9216	8.3375	3.0909	5.e-002	45.669
9217	8.3375	2.8182	0.	627.37
9218	8.2469	2.9091	0.	520.69
9219	8.3375	2.9091	5.e-002	45.669
9220	8.3375	2.6364	0.	642.79
9221	8.2469	2.7273	0.	525.
9222	8.3375	2.7273	5.e-002	55.184
9223	8.3375	2.4545	0.	673.11
9224	8.2469	2.5455	0.	538.75
9225	8.3375	2.5455	5.e-002	77.549
9226	8.3375	2.2727	0.	778.79
9227	8.2469	2.3636	0.	573.88
9228	8.3375	2.3636	5.e-002	104.68
9229	8.3375	2.0909	0.	1093.8
9230	8.2469	2.1818	0.	717.41
9231	8.3375	2.1818	5.e-002	152.03
9232	8.3375	1.9091	0.	1587.9
9233	8.2469	2.	0.	1063.5
9234	8.3375	2.	5.e-002	108.03
9235	8.3375	1.7273	0.	1878.7
9236	8.2469	1.8182	0.	1456.6
9237	8.3375	1.8182	5.e-002	123.17
9238	8.3375	1.5455	0.	1771.5
9239	8.2469	1.6364	0.	1523.6
9240	8.3375	1.6364	5.e-002	84.862
9241	8.3375	1.3636	0.	1502.9
9242	8.2469	1.4545	0.	1375.1
9243	8.3375	1.4545	5.e-002	88.11
9244	8.3375	1.1818	0.	1201.
9245	8.2469	1.2727	0.	1148.
9246	8.3375	1.2727	5.e-002	71.573
9247	8.3375	1.	0.	912.36
9248	8.2469	1.0909	0.	903.11
9249	8.3375	1.0909	5.e-002	62.897
9250	8.3375	0.81818	0.	653.31
9251	8.2469	0.90909	0.	670.29
9252	8.3375	0.90909	5.e-002	56.071
9253	8.3375	0.63636	0.	427.57
9254	8.2469	0.72727	0.	460.31
9255	8.3375	0.72727	5.e-002	51.536
9256	8.3375	0.45455	0.	243.78
9257	8.2469	0.54545	0.	282.46
9258	8.3375	0.54545	5.e-002	48.987
9259	8.3375	0.27273	0.	125.96
9260	8.2469	0.36364	0.	150.5
9261	8.3375	0.36364	5.e-002	48.61
9262	8.2469	0.18182	0.	87.894
9263	8.3375	0.18182	5.e-002	55.71
9264	8.3375	9.0909e-002	0.	38.699
9265	8.1563	5.7273	0.	118.71
9266	8.0656	5.8182	0.	89.293
9267	8.1563	5.8182	5.e-002	52.695
9268	8.1563	5.9091	0.	43.371
9269	8.1563	5.5455	0.	204.3
9270	8.0656	5.6364	0.	145.23
9271	8.1563	5.6364	5.e-002	45.826
9272	8.1563	5.3636	0.	337.35
9273	8.0656	5.4545	0.	242.35
9274	8.1563	5.4545	5.e-002	45.908
9275	8.1563	5.1818	0.	503.51
9276	8.0656	5.2727	0.	371.39
9277	8.1563	5.2727	5.e-002	47.33
9278	8.1563	5.	0.	690.37
9279	8.0656	5.0909	0.	522.23
9280	8.1563	5.0909	5.e-002	49.642
9281	8.1563	4.8182	0.	882.54
9282	8.0656	4.9091	0.	682.25
9283	8.1563	4.9091	5.e-002	52.587
9284	8.1563	4.6364	0.	1054.9
9285	8.0656	4.7273	0.	832.94
9286	8.1563	4.7273	5.e-002	55.246
9287	8.1563	4.4545	0.	1157.2
9288	8.0656	4.5455	0.	945.65
9289	8.1563	4.5455	5.e-002	54.692
9290	8.1563	4.2727	0.	1119.7
9291	8.0656	4.3636	0.	970.04
9292	8.1563	4.3636	5.e-002	54.045
9293	8.1563	4.0909	0.	928.93
9294	8.0656	4.1818	0.	860.75
9295	8.1563	4.1818	5.e-002	52.565
9296	8.1563	3.9091	0.	678.31
9297	8.0656	4.	0.	653.67
9298	8.1563	4.	5.e-002	67.475
9299	8.1563	3.7273	0.	499.55
9300	8.0656	3.8182	0.	458.83
9301	8.1563	3.8182	5.e-002	73.501
9302	8.1563	3.5455	0.	428.62
9303	8.0656	3.6364	0.	358.05
9304	8.1563	3.6364	5.e-002	73.703
9305	8.1563	3.3636	0.	412.98
9306	8.0656	3.4545	0.	327.82
9307	8.1563	3.4545	5.e-002	62.33
9308	8.1563	3.1818	0.	412.03
9309	8.0656	3.2727	0.	323.17
9310	8.1563	3.2727	5.e-002	53.174
9311	8.1563	3.	0.	412.69
9312	8.0656	3.0909	0.	324.14
9313	8.1563	3.0909	5.e-002	47.844
9314	8.1563	2.8182	0.	412.03
9315	8.0656	2.9091	0.	324.14
9316	8.1563	2.9091	5.e-002	47.844
9317	8.1563	2.6364	0.	412.98
9318	8.0656	2.7273	0.	323.17
9319	8.1563	2.7273	5.e-002	53.174
9320	8.1563	2.4545	0.	428.62
9321	8.0656	2.5455	0.	327.81
9322	8.1563	2.5455	5.e-002	62.33
9323	8.1563	2.2727	0.	499.55
9324	8.0656	2.3636	0.	358.05
9325	8.1563	2.3636	5.e-002	73.703
9326	8.1563	2.0909	0.	678.31
9327	8.0656	2.1818	0.	458.83
9328	8.1563	2.1818	5.e-002	73.501
9329	8.1563	1.9091	0.	928.93
9330	8.0656	2.	0.	653.67
9331	8.1563	2.	5.e-002	67.475
9332	8.1563	1.7273	0.	1119.7
9333	8.0656	1.8182	0.	860.75
9334	8.1563	1.8182	5.e-002	52.565
9335	8.1563	1.5455	0.	1157.2
9336	8.0656	1.6364	0.	970.04
9337	8.1563	1.6364	5.e-002	54.045
9338	8.1563	1.3636	0.	1054.9
9339	8.0656	1.4545	0.	945.65
9340	8.1563	1.4545	5.e-002	54.692
9341	8.1563	1.1818	0.	882.54
9342	8.0656	1.2727	0.	832.94
9343	8.1563	1.2727	5.e-002	55.246
9344	8.1563	1.	0.	690.37
9345	8.0656	1.0909	0.	682.25
9346	8.1563	1.0909	5.e-002	52.587
9347	8.1563	0.81818	0.	503.51
9348	8.0656	0.90909	0.	522.23
9349	8.1563	0.90909	5.e-002	49.642
9350	8.1563	0.63636	0.	337.35
9351	8.0656	0.72727	0.	371.39
9352	8.1563	0.72727	5.e-002	47.33
9353	8.1563	0.45455	0.	204.3
9354	8.0656	0.54545	0.	242.35
9355	8.1563	0.54545	5.e-002	45.908
9356	8.1563	0.27273	0.	118.71
9357	8.0656	0.36364	0.	145.23
9358	8.1563	0.36364	5.e-002	45.826
9359	8.0656	0.18182	0.	89.293
9360	8.1563	0.18182	5.e-002	52.695
9361	8.1563	9.0909e-002	0.	43.371
9362	7.975	5.7273	0.	118.64
9363	7.8844	5.8182	0.	87.968
9364	7.975	5.8182	5.e-002	48.662
9365	7.975	5.9091	0.	46.002
9366	7.975	5.5455	0.	190.16
9367	7.8844	5.6364	0.	144.55
9368	7.975	5.6364	5.e-002	41.86
9369	7.975	5.3636	0.	288.59
9370	7.8844	5.4545	0.	221.27
9371	7.975	5.4545	5.e-002	41.572
9372	7.975	5.1818	0.	406.56
9373	7.8844	5.2727	0.	314.72
9374	7.975	5.2727	5.e-002	41.956
9375	7.975	5.	0.	533.47
9376	7.8844	5.0909	0.	418.59
9377	7.975	5.0909	5.e-002	42.445
9378	7.975	4.8182	0.	653.5
9379	7.8844	4.9091	0.	521.67
9380	7.975	4.9091	5.e-002	42.564
9381	7.975	4.6364	0.	743.81
9382	7.8844	4.7273	0.	607.59
9383	7.975	4.7273	5.e-002	41.544
9384	7.975	4.4545	0.	774.58
9385	7.8844	4.5455	0.	654.37
9386	7.975	4.5455	5.e-002	39.034
9387	7.975	4.2727	0.	719.86
9388	7.8844	4.3636	0.	638.
9389	7.975	4.3636	5.e-002	35.947
9390	7.975	4.0909	0.	588.44
9391	7.8844	4.1818	0.	548.18
9392	7.975	4.1818	5.e-002	36.755
9393	7.975	3.9091	0.	433.46
9394	7.8844	4.	0.	413.66
9395	7.975	4.	5.e-002	42.451
9396	7.975	3.7273	0.	313.68
9397	7.8844	3.8182	0.	287.51
9398	7.975	3.8182	5.e-002	47.305
9399	7.975	3.5455	0.	251.86
9400	7.8844	3.6364	0.	207.07
9401	7.975	3.6364	5.e-002	49.263
9402	7.975	3.3636	0.	232.26
9403	7.8844	3.4545	0.	172.54
9404	7.975	3.4545	5.e-002	47.999
9405	7.975	3.1818	0.	229.77
9406	7.8844	3.2727	0.	163.14
9407	7.975	3.2727	5.e-002	45.317
9408	7.975	3.	0.	230.23
9409	7.8844	3.0909	0.	162.06
9410	7.975	3.0909	5.e-002	43.409
9411	7.975	2.8182	0.	229.77
9412	7.8844	2.9091	0.	162.06
9413	7.975	2.9091	5.e-002	43.409
9414	7.975	2.6364	0.	232.26
9415	7.8844	2.7273	0.	163.14
9416	7.975	2.7273	5.e-002	45.317
9417	7.975	2.4545	0.	251.86
9418	7.8844	2.5455	0.	172.54
9419	7.975	2.5455	5.e-002	47.999
9420	7.975	2.2727	0.	313.68
9421	7.8844	2.3636	0.	207.07
9422	7.975	2.3636	5.e-002	49.263
9423	7.975	2.0909	0.	433.46
9424	7.8844	2.1818	0.	287.51
9425	7.975	2.1818	5.e-002	47.305
9426	7.975	1.9091	0.	588.44
9427	7.8844	2.	0.	413.66
9428	7.975	2.	5.e-002	42.451
9429	7.975	1.7273	0.	719.86
9430	7.8844	1.8182	0.	548.18
9431	7.975	1.8182	5.e-002	36.755
9432	7.975	1.5455	0.	774.58
9433	7.8844	1.6364	0.	638.
9434	7.975	1.6364	5.e-002	35.947
9435	7.975	1.3636	0.	743.81
9436	7.8844	1.4545	0.	654.37
9437	7.975	1.4545	5.e-002	39.034
9438	7.975	1.1818	0.	653.5
9439	7.8844	1.2727	0.	607.59
9440	7.975	1.2727	5.e-002	41.544
9441	7.975	1.	0.	533.47
9442	7.8844	1.0909	0.	521.67
9443	7.975	1.0909	5.e-002	42.564
9444	7.975	0.81818	0.	406.56
9445	7.8844	0.90909	0.	418.59
9446	7.975	0.90909	5.e-002	42.445
9447	7.975	0.63636	0.	288.59
9448	7.8844	0.72727	0.	314.72
9449	7.975	0.72727	5.e-002	41.956
9450	7.975	0.45455	0.	190.16
9451	7.8844	0.54545	0.	221.27
9452	7.975	0.54545	5.e-002	41.572
9453	7.975	0.27273	0.	118.64
9454	7.8844	0.36364	0.	144.55
9455	7.975	0.36364	5.e-002	41.86
9456	7.8844	0.18182	0.	87.968
9457	7.975	0.18182	5.e-002	48.662
9458	7.975	9.0909e-002	0.	46.002
9459	7.7937	5.7273	0.	115.57
9460	7.7031	5.8182	0.	83.082
9461	7.7937	5.8182	5.e-002	43.948
9462	7.7937	5.9091	0.	45.298
9463	7.7937	5.5455	0.	179.29
9464	7.7031	5.6364	0.	140.1
9465	7.7937	5.6364	5.e-002	37.468
9466	7.7937	5.3636	0.	254.23
9467	7.7031	5.4545	0.	203.25
9468	7.7937	5.4545	5.e-002	36.808
9469	7.7937	5.1818	0.	336.57
9470	7.7031	5.2727	0.	271.41
9471	7.7937	5.2727	5.e-002	36.423
9472	7.7937	5.	0.	418.73
9473	7.7031	5.0909	0.	340.77
9474	7.7937	5.0909	5.e-002	35.755
9475	7.7937	4.8182	0.	488.5
9476	7.7031	4.9091	0.	403.12
9477	7.7937	4.9091	5.e-002	34.45
9478	7.7937	4.6364	0.	530.04
9479	7.7031	4.7273	0.	446.72
9480	7.7937	4.7273	5.e-002	32.243
9481	7.7937	4.4545	0.	527.11
9482	7.7031	4.5455	0.	458.06
9483	7.7937	4.5455	5.e-002	29.279
9484	7.7937	4.2727	0.	472.25
9485	7.7031	4.3636	0.	426.54
9486	7.7937	4.3636	5.e-002	27.04
9487	7.7937	4.0909	0.	376.47
9488	7.7031	4.1818	0.	353.58
9489	7.7937	4.1818	5.e-002	27.57
9490	7.7937	3.9091	0.	268.75
9491	7.7031	4.	0.	257.2
9492	7.7937	4.	5.e-002	30.213
9493	7.7937	3.7273	0.	180.29
9494	7.7031	3.8182	0.	165.53
9495	7.7937	3.8182	5.e-002	33.041
9496	7.7937	3.5455	0.	125.57
9497	7.7031	3.6364	0.	99.337
9498	7.7937	3.6364	5.e-002	35.208
9499	7.7937	3.3636	0.	100.15
9500	7.7031	3.4545	0.	62.129
9501	7.7937	3.4545	5.e-002	36.337
9502	7.7937	3.1818	0.	91.627
9503	7.7031	3.2727	0.	45.816
9504	7.7937	3.2727	5.e-002	36.456
9505	7.7937	3.	0.	89.946
9506	7.7031	3.0909	0.	40.522
9507	7.7937	3.0909	5.e-002	36.264
9508	7.7937	2.8182	0.	91.627
9509	7.7031	2.9091	0.	40.522
9510	7.7937	2.9091	5.e-002	36.264
9511	7.7937	2.6364	0.	100.15
9512	7.7031	2.7273	0.	45.816
9513	7.7937	2.7273	5.e-002	36.456
9514	7.7937	2.4545	0.	125.57
9515	7.7031	2.5455	0.	62.129
9516	7.7937	2.5455	5.e-002	36.337
9517	7.7937	2.2727	0.	180.29
9518	7.7031	2.3636	0.	99.337
9519	7.7937	2.3636	5.e-002	35.208
9520	7.7937	2.0909	0.	268.75
9521	7.7031	2.1818	0.	165.53
9522	7.7937	2.1818	5.e-002	33.041
9523	7.7937	1.9091	0.	376.47
9524	7.7031	2.	0.	257.2
9525	7.7937	2.	5.e-002	30.213
9526	7.7937	1.7273	0.	472.25
9527	7.7031	1.8182	0.	353.58
9528	7.7937	1.8182	5.e-002	27.57
9529	7.7937	1.5455	0.	527.11
9530	7.7031	1.6364	0.	426.54
9531	7.7937	1.6364	5.e-002	27.04
9532	7.7937	1.3636	0.	530.04
9533	7.7031	1.4545	0.	458.06
9534	7.7937	1.4545	5.e-002	29.279
9535	7.7937	1.1818	0.	488.5
9536	7.7031	1.2727	0.	446.72
9537	7.7937	1.2727	5.e-002	32.243
9538	7.7937	1.	0.	418.73
9539	7.7031	1.0909	0.	403.12
9540	7.7937	1.0909	5.e-002	34.45
9541	7.7937	0.81818	0.	336.57
9542	7.7031	0.90909	0.	340.77
9543	7.7937	0.90909	5.e-002	35.755
9544	7.7937	0.63636	0.	254.23
9545	7.7031	0.72727	0.	271.41
9546	7.7937	0.72727	5.e-002	36.423
9547	7.7937	0.45455	0.	179.29
9548	7.7031	0.54545	0.	203.25
9549	7.7937	0.54545	5.e-002	36.808
9550	7.7937	0.27273	0.	115.57
9551	7.7031	0.36364	0.	140.1
9552	7.7937	0.36364	5.e-002	37.468
9553	7.7031	0.18182	0.	83.082
9554	7.7937	0.18182	5.e-002	43.948
9555	7.7937	9.0909e-002	0.	45.298
9556	7.6125	5.7273	0.	108.73
9557	7.5219	5.8182	0.	75.777
9558	7.6125	5.8182	5.e-002	38.968
9559	7.6125	5.9091	0.	42.452
9560	7.6125	5.5455	0.	166.19
9561	7.5219	5.6364	0.	131.09
9562	7.6125	5.6364	5.e-002	33.039
9563	7.6125	5.3636	0.	224.39
9564	7.5219	5.4545	0.	183.83
9565	7.6125	5.4545	5.e-002	32.118
9566	7.6125	5.1818	0.	281.38
9567	7.5219	5.2727	0.	233.78
9568	7.6125	5.2727	5.e-002	31.275
9569	7.6125	5.	0.	332.25
9570	7.5219	5.0909	0.	278.8
9571	7.6125	5.0909	5.e-002	30.035
9572	7.6125	4.8182	0.	368.88
9573	7.5219	4.9091	0.	313.52
9574	7.6125	4.9091	5.e-002	28.227
9575	7.6125	4.6364	0.	381.75
9576	7.5219	4.7273	0.	330.6
9577	7.6125	4.7273	5.e-002	25.845
9578	7.6125	4.4545	0.	363.11
9579	7.5219	4.5455	0.	322.77
9580	7.6125	4.5455	5.e-002	23.308
9581	7.6125	4.2727	0.	311.76
9582	7.5219	4.3636	0.	286.25
9583	7.6125	4.3636	5.e-002	21.544
9584	7.6125	4.0909	0.	236.7
9585	7.5219	4.1818	0.	224.58
9586	7.6125	4.1818	5.e-002	21.387
9587	7.6125	3.9091	0.	155.24
9588	7.5219	4.	0.	149.83
9589	7.6125	4.	5.e-002	22.546
9590	7.6125	3.7273	0.	85.009
9591	7.5219	3.8182	0.	78.307
9592	7.6125	3.8182	5.e-002	24.234
9593	7.6125	3.5455	0.	35.962
9594	7.5219	3.6364	0.	23.942
9595	7.6125	3.6364	5.e-002	25.968
9596	7.6125	3.3636	0.	8.8701
9597	7.5219	3.4545	0.	2.9604
9598	7.6125	3.4545	5.e-002	27.434
9599	7.6125	3.1818	0.	1.3272
9600	7.5219	3.2727	0.	0.96479
9601	7.6125	3.2727	5.e-002	28.373
9602	7.6125	3.	0.	0.67719
9603	7.5219	3.0909	0.	0.62494
9604	7.6125	3.0909	5.e-002	28.789
9605	7.6125	2.8182	0.	1.3271
9606	7.5219	2.9091	0.	0.62493
9607	7.6125	2.9091	5.e-002	28.789
9608	7.6125	2.6364	0.	8.87
9609	7.5219	2.7273	0.	0.96478
9610	7.6125	2.7273	5.e-002	28.373
9611	7.6125	2.4545	0.	35.962
9612	7.5219	2.5455	0.	2.9603
9613	7.6125	2.5455	5.e-002	27.434
9614	7.6125	2.2727	0.	85.009
9615	7.5219	2.3636	0.	23.942
9616	7.6125	2.3636	5.e-002	25.968
9617	7.6125	2.0909	0.	155.24
9618	7.5219	2.1818	0.	78.307
9619	7.6125	2.1818	5.e-002	24.234
9620	7.6125	1.9091	0.	236.7
9621	7.5219	2.	0.	149.83
9622	7.6125	2.	5.e-002	22.546
9623	7.6125	1.7273	0.	311.76
9624	7.5219	1.8182	0.	224.58
9625	7.6125	1.8182	5.e-002	21.387
9626	7.6125	1.5455	0.	363.11
9627	7.5219	1.6364	0.	286.25
9628	7.6125	1.6364	5.e-002	21.544
9629	7.6125	1.3636	0.	381.75
9630	7.5219	1.4545	0.	322.77
9631	7.6125	1.4545	5.e-002	23.308
9632	7.6125	1.1818	0.	368.88
9633	7.5219	1.2727	0.	330.6
9634	7.6125	1.2727	5.e-002	25.845
9635	7.6125	1.	0.	332.25
9636	7.5219	1.0909	0.	313.52
9637	7.6125	1.0909	5.e-002	28.227
9638	7.6125	0.81818	0.	281.38
9639	7.5219	0.90909	0.	278.8
9640	7.6125	0.90909	5.e-002	30.035
9641	7.6125	0.63636	0.	224.39
9642	7.5219	0.72727	0.	233.78
9643	7.6125	0.72727	5.e-002	31.275
9644	7.6125	0.45455	0.	166.19
9645	7.5219	0.54545	0.	183.83
9646	7.6125	0.54545	5.e-002	32.118
9647	7.6125	0.27273	0.	108.73
9648	7.5219	0.36364	0.	131.09
9649	7.6125	0.36364	5.e-002	33.039
9650	7.5219	0.18182	0.	75.777
9651	7.6125	0.18182	5.e-002	38.968
9652	7.6125	9.0909e-002	0.	42.452
9653	7.4313	5.7273	0.	98.877
9654	7.3406	5.8182	0.	67.059
9655	7.4313	5.8182	5.e-002	34.062
9656	7.4313	5.9091	0.	38.297
9657	7.4313	5.5455	0.	150.04
9658	7.3406	5.6364	0.	118.47
9659	7.4313	5.6364	5.e-002	28.85
9660	7.4313	5.3636	0.	195.58
9661	7.3406	5.4545	0.	162.34
9662	7.4313	5.4545	5.e-002	27.813
9663	7.4313	5.1818	0.	234.6
9664	7.3406	5.2727	0.	198.84
9665	7.4313	5.2727	5.e-002	26.768
9666	7.4313	5.	0.	264.22
9667	7.3406	5.0909	0.	226.89
9668	7.4313	5.0909	5.e-002	25.348
9669	7.4313	4.8182	0.	279.64
9670	7.3406	4.9091	0.	243.35
9671	7.4313	4.9091	5.e-002	23.501
9672	7.4313	4.6364	0.	275.73
9673	7.3406	4.7273	0.	244.18
9674	7.4313	4.7273	5.e-002	21.335
9675	7.4313	4.4545	0.	249.3
9676	7.3406	4.5455	0.	225.95
9677	7.4313	4.5455	5.e-002	19.2
9678	7.4313	4.2727	0.	201.55
9679	7.3406	4.3636	0.	188.03
9680	7.4313	4.3636	5.e-002	17.652
9681	7.4313	4.0909	0.	139.35
9682	7.3406	4.1818	0.	134.22
9683	7.4313	4.1818	5.e-002	17.077
9684	7.4313	3.9091	0.	73.914
9685	7.3406	4.	0.	73.037
9686	7.4313	4.	5.e-002	17.386
9687	7.4313	3.7273	0.	19.332
9688	7.3406	3.8182	0.	18.498
9689	7.4313	3.8182	5.e-002	18.249
9690	7.4313	3.5455	0.	2.5338
9691	7.3406	3.6364	0.	2.5492
9692	7.4313	3.6364	5.e-002	19.411
9693	7.4313	3.3636	0.	0.94673
9694	7.3406	3.4545	0.	0.97226
9695	7.4313	3.4545	5.e-002	20.603
9696	7.4313	3.1818	0.	0.58828
9697	7.3406	3.2727	0.	0.57318
9698	7.4313	3.2727	5.e-002	21.547
9699	7.4313	3.	0.	0.51201
9700	7.3406	3.0909	0.	0.45541
9701	7.4313	3.0909	5.e-002	22.052
9702	7.4313	2.8182	0.	0.58828
9703	7.3406	2.9091	0.	0.45541
9704	7.4313	2.9091	5.e-002	22.052
9705	7.4313	2.6364	0.	0.94673
9706	7.3406	2.7273	0.	0.57318
9707	7.4313	2.7273	5.e-002	21.547
9708	7.4313	2.4545	0.	2.5338
9709	7.3406	2.5455	0.	0.97226
9710	7.4313	2.5455	5.e-002	20.603
9711	7.4313	2.2727	0.	19.332
9712	7.3406	2.3636	0.	2.5492
9713	7.4313	2.3636	5.e-002	19.411
9714	7.4313	2.0909	0.	73.914
9715	7.3406	2.1818	0.	18.498
9716	7.4313	2.1818	5.e-002	18.249
9717	7.4313	1.9091	0.	139.34
9718	7.3406	2.	0.	73.037
9719	7.4313	2.	5.e-002	17.386
9720	7.4313	1.7273	0.	201.55
9721	7.3406	1.8182	0.	134.22
9722	7.4313	1.8182	5.e-002	17.077
9723	7.4313	1.5455	0.	249.3
9724	7.3406	1.6364	0.	188.03
9725	7.4313	1.6364	5.e-002	17.652
9726	7.4313	1.3636	0.	275.73
9727	7.3406	1.4545	0.	225.95
9728	7.4313	1.4545	5.e-002	19.2
9729	7.4313	1.1818	0.	279.64
9730	7.3406	1.2727	0.	244.18
9731	7.4313	1.2727	5.e-002	21.335
9732	7.4313	1.	0.	264.22
9733	7.3406	1.0909	0.	243.35
9734	7.4313	1.0909	5.e-002	23.501
9735	7.4313	0.81818	0.	234.6
9736	7.3406	0.90909	0.	226.89
9737	7.4313	0.90909	5.e-002	25.348
9738	7.4313	0.63636	0.	195.58
9739	7.3406	0.72727	0.	198.84
9740	7.4313	0.72727	5.e-002	26.768
9741	7.4313	0.45455	0.	150.04
9742	7.3406	0.54545	0.	162.34
9743	7.4313	0.54545	5.e-002	27.813
9744	7.4313	0.27273	0.	98.877
9745	7.3406	0.36364	0.	118.47
9746	7.4313	0.36364	5.e-002	28.85
9747	7.3406	0.18182	0.	67.059
9748	7.4313	0.18182	5.e-002	34.062
9749	7.4313	9.0909e-002	0.	38.297
9750	7.25	5.7273	0.	87.13
9751	7.1594	5.8182	0.	57.736
9752	7.25	5.8182	5.e-002	29.475
9753	7.25	5.9091	0.	33.49
9754	7.25	5.5455	0.	131.6
9755	7.1594	5.6364	0.	103.58
9756	7.25	5.6364	5.e-002	25.059
9757	7.25	5.3636	0.	167.02
9758	7.1594	5.4545	0.	139.45
9759	7.25	5.4545	5.e-002	24.027
9760	7.25	5.1818	0.	193.12
9761	7.1594	5.2727	0.	165.64
9762	7.25	5.2727	5.e-002	22.954
9763	7.25	5.	0.	208.43
9764	7.1594	5.0909	0.	181.79
9765	7.25	5.0909	5.e-002	21.572
9766	7.25	4.8182	0.	210.43
9767	7.1594	4.9091	0.	186.29
9768	7.25	4.9091	5.e-002	19.887
9769	7.25	4.6364	0.	196.78
9770	7.1594	4.7273	0.	177.24
9771	7.25	4.7273	5.e-002	18.019
9772	7.25	4.4545	0.	166.68
9773	7.1594	4.5455	0.	153.49
9774	7.25	4.5455	5.e-002	16.217
9775	7.25	4.2727	0.	122.21
9776	7.1594	4.3636	0.	115.86
9777	7.25	4.3636	5.e-002	14.788
9778	7.25	4.0909	0.	68.915
9779	7.1594	4.1818	0.	68.063
9780	7.25	4.1818	5.e-002	13.945
9781	7.25	3.9091	0.	18.13
9782	7.1594	4.	0.	19.406
9783	7.25	4.	5.e-002	13.698
9784	7.25	3.7273	0.	2.6042
9785	7.1594	3.8182	0.	2.7552
9786	7.25	3.8182	5.e-002	13.939
9787	7.25	3.5455	0.	1.0022
9788	7.1594	3.6364	0.	1.0516
9789	7.25	3.6364	5.e-002	14.534
9790	7.25	3.3636	0.	0.56304
9791	7.1594	3.4545	0.	0.57234
9792	7.25	3.4545	5.e-002	15.294
9793	7.25	3.1818	0.	0.40975
9794	7.1594	3.2727	0.	0.39023
9795	7.25	3.2727	5.e-002	15.976
9796	7.25	3.	0.	0.37103
9797	7.1594	3.0909	0.	0.3256
9798	7.25	3.0909	5.e-002	16.373
9799	7.25	2.8182	0.	0.40975
9800	7.1594	2.9091	0.	0.3256
9801	7.25	2.9091	5.e-002	16.373
9802	7.25	2.6364	0.	0.56304
9803	7.1594	2.7273	0.	0.39023
9804	7.25	2.7273	5.e-002	15.976
9805	7.25	2.4545	0.	1.0022
9806	7.1594	2.5455	0.	0.57234
9807	7.25	2.5455	5.e-002	15.294
9808	7.25	2.2727	0.	2.6042
9809	7.1594	2.3636	0.	1.0516
9810	7.25	2.3636	5.e-002	14.534
9811	7.25	2.0909	0.	18.13
9812	7.1594	2.1818	0.	2.7552
9813	7.25	2.1818	5.e-002	13.939
9814	7.25	1.9091	0.	68.915
9815	7.1594	2.	0.	19.406
9816	7.25	2.	5.e-002	13.698
9817	7.25	1.7273	0.	122.21
9818	7.1594	1.8182	0.	68.063
9819	7.25	1.8182	5.e-002	13.945
9820	7.25	1.5455	0.	166.68
9821	7.1594	1.6364	0.	115.86
9822	7.25	1.6364	5.e-002	14.788
9823	7.25	1.3636	0.	196.78
9824	7.1594	1.4545	0.	153.49
9825	7.25	1.4545	5.e-002	16.217
9826	7.25	1.1818	0.	210.43
9827	7.1594	1.2727	0.	177.24
9828	7.25	1.2727	5.e-002	18.019
9829	7.25	1.	0.	208.43
9830	7.1594	1.0909	0.	186.29
9831	7.25	1.0909	5.e-002	19.887
9832	7.25	0.81818	0.	193.12
9833	7.1594	0.90909	0.	181.79
9834	7.25	0.90909	5.e-002	21.572
9835	7.25	0.63636	0.	167.02
9836	7.1594	0.72727	0.	165.64
9837	7.25	0.72727	5.e-002	22.954
9838	7.25	0.45455	0.	131.6
9839	7.1594	0.54545	0.	139.45
9840	7.25	0.54545	5.e-002	24.027
9841	7.25	0.27273	0.	87.13
9842	7.1594	0.36364	0.	103.58
9843	7.25	0.36364	5.e-002	25.059
9844	7.1594	0.18182	0.	57.736
9845	7.25	0.18182	5.e-002	29.475
9846	7.25	9.0909e-002	0.	33.49
9847	7.0687	5.7273	0.	74.471
9848	6.9781	5.8182	0.	48.367
9849	7.0687	5.8182	5.e-002	25.351
9850	7.0687	5.9091	0.	28.469
9851	7.0687	5.5455	0.	111.95
9852	6.9781	5.6364	0.	87.593
9853	7.0687	5.6364	5.e-002	21.736
9854	7.0687	5.3636	0.	138.93
9855	6.9781	5.4545	0.	116.05
9856	7.0687	5.4545	5.e-002	20.788
9857	7.0687	5.1818	0.	155.48
9858	6.9781	5.2727	0.	134.06
9859	7.0687	5.2727	5.e-002	19.791
9860	7.0687	5.	0.	161.03
9861	6.9781	5.0909	0.	141.66
9862	7.0687	5.0909	5.e-002	18.549
9863	7.0687	4.8182	0.	154.55
9864	6.9781	4.9091	0.	138.25
9865	7.0687	4.9091	5.e-002	17.09
9866	7.0687	4.6364	0.	135.32
9867	6.9781	4.7273	0.	123.24
9868	7.0687	4.7273	5.e-002	15.512
9869	7.0687	4.4545	0.	103.82
9870	6.9781	4.5455	0.	96.754
9871	7.0687	4.5455	5.e-002	13.971
9872	7.0687	4.2727	0.	62.558
9873	6.9781	4.3636	0.	60.404
9874	7.0687	4.3636	5.e-002	12.638
9875	7.0687	4.0909	0.	18.733
9876	6.9781	4.1818	0.	19.712
9877	7.0687	4.1818	5.e-002	11.637
9878	7.0687	3.9091	0.	2.7242
9879	6.9781	4.	0.	2.8307
9880	7.0687	4.	5.e-002	11.012
9881	7.0687	3.7273	0.	1.0594
9882	6.9781	3.8182	0.	1.0915
9883	7.0687	3.8182	5.e-002	10.76
9884	7.0687	3.5455	0.	0.57378
9885	6.9781	3.6364	0.	0.58862
9886	7.0687	3.6364	5.e-002	10.841
9887	7.0687	3.3636	0.	0.37195
9888	6.9781	3.4545	0.	0.37046
9889	7.0687	3.4545	5.e-002	11.149
9890	7.0687	3.1818	0.	0.28645
9891	6.9781	3.2727	0.	0.26912
9892	7.0687	3.2727	5.e-002	11.507
9893	7.0687	3.	0.	0.26282
9894	6.9781	3.0909	0.	0.22896
9895	7.0687	3.0909	5.e-002	11.738
9896	7.0687	2.8182	0.	0.28645
9897	6.9781	2.9091	0.	0.22896
9898	7.0687	2.9091	5.e-002	11.738
9899	7.0687	2.6364	0.	0.37195
9900	6.9781	2.7273	0.	0.26912
9901	7.0687	2.7273	5.e-002	11.507
9902	7.0687	2.4545	0.	0.57378
9903	6.9781	2.5455	0.	0.37046
9904	7.0687	2.5455	5.e-002	11.149
9905	7.0687	2.2727	0.	1.0594
9906	6.9781	2.3636	0.	0.58862
9907	7.0687	2.3636	5.e-002	10.841
9908	7.0687	2.0909	0.	2.7242
9909	6.9781	2.1818	0.	1.0915
9910	7.0687	2.1818	5.e-002	10.76
9911	7.0687	1.9091	0.	18.733
9912	6.9781	2.	0.	2.8307
9913	7.0687	2.	5.e-002	11.012
9914	7.0687	1.7273	0.	62.558
9915	6.9781	1.8182	0.	19.712
9916	7.0687	1.8182	5.e-002	11.637
9917	7.0687	1.5455	0.	103.82
9918	6.9781	1.6364	0.	60.404
9919	7.0687	1.6364	5.e-002	12.638
9920	7.0687	1.3636	0.	135.32
9921	6.9781	1.4545	0.	96.754
9922	7.0687	1.4545	5.e-002	13.971
9923	7.0687	1.1818	0.	154.55
9924	6.9781	1.2727	0.	123.24
9925	7.0687	1.2727	5.e-002	15.512
9926	7.0687	1.	0.	161.03
9927	6.9781	1.0909	0.	138.25
9928	7.0687	1.0909	5.e-002	17.09
9929	7.0687	0.81818	0.	155.48
9930	6.9781	0.90909	0.	141.66
9931	7.0687	0.90909	5.e-002	18.549
9932	7.0687	0.63636	0.	138.93
9933	6.9781	0.72727	0.	134.06
9934	7.0687	0.72727	5.e-002	19.791
9935	7.0687	0.45455	0.	111.95
9936	6.9781	0.54545	0.	116.05
9937	7.0687	0.54545	5.e-002	20.788
9938	7.0687	0.27273	0.	74.471
9939	6.9781	0.36364	0.	87.593
9940	7.0687	0.36364	5.e-002	21.736
9941	6.9781	0.18182	0.	48.367
9942	7.0687	0.18182	5.e-002	25.351
9943	7.0687	9.0909e-002	0.	28.469
9944	6.8875	5.7273	0.	61.635
9945	6.7969	5.8182	0.	39.308
9946	6.8875	5.8182	5.e-002	21.754
9947	6.8875	5.9091	0.	23.514
9948	6.8875	5.5455	0.	92.009
9949	6.7969	5.6364	0.	71.384
9950	6.8875	5.6364	5.e-002	18.893
9951	6.8875	5.3636	0.	111.7
9952	6.7969	5.4545	0.	92.92
9953	6.8875	5.4545	5.e-002	18.073
9954	6.8875	5.1818	0.	120.93
9955	6.7969	5.2727	0.	104.18
9956	6.8875	5.2727	5.e-002	17.2
9957	6.8875	5.	0.	119.67
9958	6.7969	5.0909	0.	105.43
9959	6.8875	5.0909	5.e-002	16.134
9960	6.8875	4.8182	0.	107.76
9961	6.7969	4.9091	0.	96.661
9962	6.8875	4.9091	5.e-002	14.905
9963	6.8875	4.6364	0.	85.443
9964	6.7969	4.7273	0.	78.071
9965	6.8875	4.7273	5.e-002	13.581
9966	6.8875	4.4545	0.	53.968
9967	6.7969	4.5455	0.	50.567
9968	6.8875	4.5455	5.e-002	12.256
9969	6.8875	4.2727	0.	17.86
9970	6.7969	4.3636	0.	17.707
9971	6.8875	4.3636	5.e-002	11.02
9972	6.8875	4.0909	0.	2.6461
9973	6.7969	4.1818	0.	2.6179
9974	6.8875	4.1818	5.e-002	9.9435
9975	6.8875	3.9091	0.	1.0543
9976	6.7969	4.	0.	1.0454
9977	6.8875	4.	5.e-002	9.0692
9978	6.8875	3.7273	0.	0.58004
9979	6.7969	3.8182	0.	0.58271
9980	6.8875	3.8182	5.e-002	8.4335
9981	6.8875	3.5455	0.	0.36236
9982	6.7969	3.6364	0.	0.36442
9983	6.8875	3.6364	5.e-002	8.0632
9984	6.8875	3.3636	0.	0.25178
9985	6.7969	3.4545	0.	0.24725
9986	6.8875	3.4545	5.e-002	7.9363
9987	6.8875	3.1818	0.	0.19917
9988	6.7969	3.2727	0.	0.1856
9989	6.8875	3.2727	5.e-002	7.9609
9990	6.8875	3.	0.	0.18369
9991	6.7969	3.0909	0.	0.15916
9992	6.8875	3.0909	5.e-002	8.0146
9993	6.8875	2.8182	0.	0.19917
9994	6.7969	2.9091	0.	0.15916
9995	6.8875	2.9091	5.e-002	8.0146
9996	6.8875	2.6364	0.	0.25178
9997	6.7969	2.7273	0.	0.1856
9998	6.8875	2.7273	5.e-002	7.9609
9999	6.8875	2.4545	0.	0.36236
10000	6.7969	2.5455	0.	0.24725
10001	6.8875	2.5455	5.e-002	7.9363
10002	6.8875	2.2727	0.	0.58004
10003	6.7969	2.3636	0.	0.36442
10004	6.8875	2.3636	5.e-002	8.0631
10005	6.8875	2.0909	0.	1.0543
10006	6.7969	2.1818	0.	0.58271
10007	6.8875	2.1818	5.e-002	8.4335
10008	6.8875	1.9091	0.	2.6461
10009	6.7969	2.	0.	1.0454
10010	6.8875	2.	5.e-002	9.0691
10011	6.8875	1.7273	0.	17.86
10012	6.7969	1.8182	0.	2.6179
10013	6.8875	1.8182	5.e-002	9.9435
10014	6.8875	1.5455	0.	53.968
10015	6.7969	1.6364	0.	17.706
10016	6.8875	1.6364	5.e-002	11.02
10017	6.8875	1.3636	0.	85.443
10018	6.7969	1.4545	0.	50.567
10019	6.8875	1.4545	5.e-002	12.256
10020	6.8875	1.1818	0.	107.76
10021	6.7969	1.2727	0.	78.071
10022	6.8875	1.2727	5.e-002	13.581
10023	6.8875	1.	0.	119.67
10024	6.7969	1.0909	0.	96.661
10025	6.8875	1.0909	5.e-002	14.905
10026	6.8875	0.81818	0.	120.93
10027	6.7969	0.90909	0.	105.43
10028	6.8875	0.90909	5.e-002	16.134
10029	6.8875	0.63636	0.	111.7
10030	6.7969	0.72727	0.	104.18
10031	6.8875	0.72727	5.e-002	17.2
10032	6.8875	0.45455	0.	92.009
10033	6.7969	0.54545	0.	92.92
10034	6.8875	0.54545	5.e-002	18.073
10035	6.8875	0.27273	0.	61.635
10036	6.7969	0.36364	0.	71.384
10037	6.8875	0.36364	5.e-002	18.893
10038	6.7969	0.18182	0.	39.308
10039	6.8875	0.18182	5.e-002	21.754
10040	6.8875	9.0909e-002	0.	23.514
10041	6.7063	5.7273	0.	49.114
10042	6.6156	5.8182	0.	30.76
10043	6.7063	5.8182	5.e-002	18.697
10044	6.7063	5.9091	0.	18.785
10045	6.7063	5.5455	0.	72.472
10046	6.6156	5.6364	0.	55.549
10047	6.7063	5.6364	5.e-002	16.504
10048	6.7063	5.3636	0.	85.699
10049	6.6156	5.4545	0.	70.599
10050	6.7063	5.4545	5.e-002	15.828
10051	6.7063	5.1818	0.	89.072
10052	6.6156	5.2727	0.	76.1
10053	6.7063	5.2727	5.e-002	15.096
10054	6.7063	5.	0.	82.864
10055	6.6156	5.0909	0.	72.414
10056	6.7063	5.0909	5.e-002	14.21
10057	6.7063	4.8182	0.	67.422
10058	6.6156	4.9091	0.	59.888
10059	6.7063	4.9091	5.e-002	13.192
10060	6.7063	4.6364	0.	43.614
10061	6.6156	4.7273	0.	39.259
10062	6.7063	4.7273	5.e-002	12.086
10063	6.7063	4.4545	0.	14.728
10064	6.6156	4.5455	0.	13.379
10065	6.7063	4.5455	5.e-002	10.944
10066	6.7063	4.2727	0.	2.2722
10067	6.6156	4.3636	0.	2.0963
10068	6.7063	4.3636	5.e-002	9.8136
10069	6.7063	4.0909	0.	0.95784
10070	6.6156	4.1818	0.	0.90771
10071	6.7063	4.1818	5.e-002	8.7282
10072	6.7063	3.9091	0.	0.55227
10073	6.6156	4.	0.	0.53633
10074	6.7063	4.	5.e-002	7.7148
10075	6.7063	3.7273	0.	0.35222
10076	6.6156	3.8182	0.	0.34819
10077	6.7063	3.8182	5.e-002	6.8089
10078	6.7063	3.5455	0.	0.23783
10079	6.6156	3.6364	0.	0.23597
10080	6.7063	3.6364	5.e-002	6.061
10081	6.7063	3.3636	0.	0.17175
10082	6.6156	3.4545	0.	0.16709
10083	6.7063	3.4545	5.e-002	5.518
10084	6.7063	3.1818	0.	0.13754
10085	6.6156	3.2727	0.	0.12743
10086	6.7063	3.2727	5.e-002	5.1904
10087	6.7063	3.	0.	0.12701
10088	6.6156	3.0909	0.	0.10942
10089	6.7063	3.0909	5.e-002	5.0455
10090	6.7063	2.8182	0.	0.13754
10091	6.6156	2.9091	0.	0.10942
10092	6.7063	2.9091	5.e-002	5.0455
10093	6.7063	2.6364	0.	0.17175
10094	6.6156	2.7273	0.	0.12743
10095	6.7063	2.7273	5.e-002	5.1904
10096	6.7063	2.4545	0.	0.23783
10097	6.6156	2.5455	0.	0.16709
10098	6.7063	2.5455	5.e-002	5.518
10099	6.7063	2.2727	0.	0.35222
10100	6.6156	2.3636	0.	0.23597
10101	6.7063	2.3636	5.e-002	6.061
10102	6.7063	2.0909	0.	0.55227
10103	6.6156	2.1818	0.	0.34819
10104	6.7063	2.1818	5.e-002	6.8089
10105	6.7063	1.9091	0.	0.95784
10106	6.6156	2.	0.	0.53633
10107	6.7063	2.	5.e-002	7.7148
10108	6.7063	1.7273	0.	2.2722
10109	6.6156	1.8182	0.	0.90771
10110	6.7063	1.8182	5.e-002	8.7282
10111	6.7063	1.5455	0.	14.728
10112	6.6156	1.6364	0.	2.0963
10113	6.7063	1.6364	5.e-002	9.8137
10114	6.7063	1.3636	0.	43.614
10115	6.6156	1.4545	0.	13.379
10116	6.7063	1.4545	5.e-002	10.944
10117	6.7063	1.1818	0.	67.422
10118	6.6156	1.2727	0.	39.258
10119	6.7063	1.2727	5.e-002	12.086
10120	6.7063	1.	0.	82.864
10121	6.6156	1.0909	0.	59.888
10122	6.7063	1.0909	5.e-002	13.192
10123	6.7063	0.81818	0.	89.072
10124	6.6156	0.90909	0.	72.414
10125	6.7063	0.90909	5.e-002	14.21
10126	6.7063	0.63636	0.	85.698
10127	6.6156	0.72727	0.	76.1
10128	6.7063	0.72727	5.e-002	15.097
10129	6.7063	0.45455	0.	72.472
10130	6.6156	0.54545	0.	70.599
10131	6.7063	0.54545	5.e-002	15.828
10132	6.7063	0.27273	0.	49.114
10133	6.6156	0.36364	0.	55.549
10134	6.7063	0.36364	5.e-002	16.504
10135	6.6156	0.18182	0.	30.76
10136	6.7063	0.18182	5.e-002	18.697
10137	6.7063	9.0909e-002	0.	18.785
10138	6.525	5.7273	0.	37.199
10139	6.4344	5.8182	0.	22.814
10140	6.525	5.8182	5.e-002	16.156
10141	6.525	5.9091	0.	14.361
10142	6.525	5.5455	0.	53.77
10143	6.4344	5.6364	0.	40.446
10144	6.525	5.6364	5.e-002	14.527
10145	6.525	5.3636	0.	61.165
10146	6.4344	5.4545	0.	49.424
10147	6.525	5.4545	5.e-002	13.994
10148	6.525	5.1818	0.	59.658
10149	6.4344	5.2727	0.	49.863
10150	6.525	5.2727	5.e-002	13.402
10151	6.525	5.	0.	49.684
10152	6.4344	5.0909	0.	42.176
10153	6.525	5.0909	5.e-002	12.681
10154	6.525	4.8182	0.	31.991
10155	6.4344	4.9091	0.	27.029
10156	6.525	4.9091	5.e-002	11.847
10157	6.525	4.6364	0.	9.7068
10158	6.4344	4.7273	0.	7.6136
10159	6.525	4.7273	5.e-002	10.926
10160	6.525	4.4545	0.	1.6794
10161	6.4344	4.5455	0.	1.4333
10162	6.525	4.5455	5.e-002	9.9468
10163	6.525	4.2727	0.	0.79082
10164	6.4344	4.3636	0.	0.71466
10165	6.525	4.3636	5.e-002	8.9302
10166	6.525	4.0909	0.	0.48822
10167	6.4344	4.1818	0.	0.45671
10168	6.525	4.1818	5.e-002	7.8896
10169	6.525	3.9091	0.	0.32697
10170	6.4344	4.	0.	0.31413
10171	6.525	4.	5.e-002	6.8358
10172	6.525	3.7273	0.	0.22556
10173	6.4344	3.8182	0.	0.22078
10174	6.525	3.8182	5.e-002	5.7862
10175	6.525	3.5455	0.	0.15908
10176	6.4344	3.6364	0.	0.15653
10177	6.525	3.6364	5.e-002	4.7752
10178	6.525	3.3636	0.	0.11711
10179	6.4344	3.4545	0.	0.11326
10180	6.525	3.4545	5.e-002	3.8593
10181	6.525	3.1818	0.	9.4032e-002
10182	6.4344	3.2727	0.	8.668e-002
10183	6.525	3.2727	5.e-002	3.1246
10184	6.525	3.	0.	8.6695e-002
10185	6.4344	3.0909	0.	7.4092e-002
10186	6.525	3.0909	5.e-002	2.6958
10187	6.525	2.8182	0.	9.4032e-002
10188	6.4344	2.9091	0.	7.4092e-002
10189	6.525	2.9091	5.e-002	2.6958
10190	6.525	2.6364	0.	0.11711
10191	6.4344	2.7273	0.	8.668e-002
10192	6.525	2.7273	5.e-002	3.1246
10193	6.525	2.4545	0.	0.15908
10194	6.4344	2.5455	0.	0.11326
10195	6.525	2.5455	5.e-002	3.8593
10196	6.525	2.2727	0.	0.22556
10197	6.4344	2.3636	0.	0.15653
10198	6.525	2.3636	5.e-002	4.7752
10199	6.525	2.0909	0.	0.32697
10200	6.4344	2.1818	0.	0.22078
10201	6.525	2.1818	5.e-002	5.7862
10202	6.525	1.9091	0.	0.48822
10203	6.4344	2.	0.	0.31413
10204	6.525	2.	5.e-002	6.8358
10205	6.525	1.7273	0.	0.79082
10206	6.4344	1.8182	0.	0.45671
10207	6.525	1.8182	5.e-002	7.8896
10208	6.525	1.5455	0.	1.6794
10209	6.4344	1.6364	0.	0.71466
10210	6.525	1.6364	5.e-002	8.9302
10211	6.525	1.3636	0.	9.7067
10212	6.4344	1.4545	0.	1.4333
10213	6.525	1.4545	5.e-002	9.9469
10214	6.525	1.1818	0.	31.991
10215	6.4344	1.2727	0.	7.6135
10216	6.525	1.2727	5.e-002	10.926
10217	6.525	1.	0.	49.683
10218	6.4344	1.0909	0.	27.028
10219	6.525	1.0909	5.e-002	11.847
10220	6.525	0.81818	0.	59.658
10221	6.4344	0.90909	0.	42.176
10222	6.525	0.90909	5.e-002	12.681
10223	6.525	0.63636	0.	61.165
10224	6.4344	0.72727	0.	49.863
10225	6.525	0.72727	5.e-002	13.402
10226	6.525	0.45455	0.	53.77
10227	6.4344	0.54545	0.	49.424
10228	6.525	0.54545	5.e-002	13.994
10229	6.525	0.27273	0.	37.199
10230	6.4344	0.36364	0.	40.446
10231	6.525	0.36364	5.e-002	14.527
10232	6.4344	0.18182	0.	22.814
10233	6.525	0.18182	5.e-002	16.156
10234	6.525	9.0909e-002	0.	14.361
10235	6.3438	5.7273	0.	26.035
10236	6.2531	5.8182	0.	15.489
10237	6.3438	5.8182	5.e-002	14.093
10238	6.3438	5.9091	0.	10.269
10239	6.3438	5.5455	0.	36.142
10240	6.2531	5.6364	0.	26.259
10241	6.3438	5.6364	5.e-002	12.915
10242	6.3438	5.3636	0.	38.209
10243	6.2531	5.4545	0.	29.561
10244	6.3438	5.4545	5.e-002	12.511
10245	6.3438	5.1818	0.	32.505
10246	6.2531	5.2727	0.	25.483
10247	6.3438	5.2727	5.e-002	12.047
10248	6.3438	5.	0.	19.723
10249	6.2531	5.0909	0.	14.679
10250	6.3438	5.0909	5.e-002	11.471
10251	6.3438	4.8182	0.	4.3302
10252	6.2531	4.9091	0.	2.7467
10253	6.3438	4.9091	5.e-002	10.794
10254	6.3438	4.6364	0.	1.0726
10255	6.2531	4.7273	0.	0.86058
10256	6.3438	4.7273	5.e-002	10.032
10257	6.3438	4.4545	0.	0.59491
10258	6.2531	4.5455	0.	0.51577
10259	6.3438	4.5455	5.e-002	9.198
10260	6.3438	4.2727	0.	0.40042
10261	6.2531	4.3636	0.	0.36225
10262	6.3438	4.3636	5.e-002	8.3004
10263	6.3438	4.0909	0.	0.2856
10264	6.2531	4.1818	0.	0.26663
10265	6.3438	4.1818	5.e-002	7.3436
10266	6.3438	3.9091	0.	0.20633
10267	6.2531	4.	0.	0.19754
10268	6.3438	4.	5.e-002	6.3295
10269	6.3438	3.7273	0.	0.14866
10270	6.2531	3.8182	0.	0.14491
10271	6.3438	3.8182	5.e-002	5.2634
10272	6.3438	3.5455	0.	0.10719
10273	6.2531	3.6364	0.	0.10506
10274	6.3438	3.6364	5.e-002	4.1567
10275	6.3438	3.3636	0.	7.9261e-002
10276	6.2531	3.4545	0.	7.6394e-002
10277	6.3438	3.4545	5.e-002	3.0287
10278	6.3438	3.1818	0.	6.3215e-002
10279	6.2531	3.2727	0.	5.7931e-002
10280	6.3438	3.2727	5.e-002	1.9128
10281	6.3438	3.	0.	5.7991e-002
10282	6.2531	3.0909	0.	4.892e-002
10283	6.3438	3.0909	5.e-002	0.93667
10284	6.3438	2.8182	0.	6.3215e-002
10285	6.2531	2.9091	0.	4.892e-002
10286	6.3438	2.9091	5.e-002	0.93665
10287	6.3438	2.6364	0.	7.9261e-002
10288	6.2531	2.7273	0.	5.7931e-002
10289	6.3438	2.7273	5.e-002	1.9128
10290	6.3438	2.4545	0.	0.10719
10291	6.2531	2.5455	0.	7.6395e-002
10292	6.3438	2.5455	5.e-002	3.0287
10293	6.3438	2.2727	0.	0.14866
10294	6.2531	2.3636	0.	0.10506
10295	6.3438	2.3636	5.e-002	4.1567
10296	6.3438	2.0909	0.	0.20633
10297	6.2531	2.1818	0.	0.14491
10298	6.3438	2.1818	5.e-002	5.2635
10299	6.3438	1.9091	0.	0.2856
10300	6.2531	2.	0.	0.19754
10301	6.3438	2.	5.e-002	6.3295
10302	6.3438	1.7273	0.	0.40042
10303	6.2531	1.8182	0.	0.26663
10304	6.3438	1.8182	5.e-002	7.3436
10305	6.3438	1.5455	0.	0.59491
10306	6.2531	1.6364	0.	0.36225
10307	6.3438	1.6364	5.e-002	8.3004
10308	6.3438	1.3636	0.	1.0726
10309	6.2531	1.4545	0.	0.51577
10310	6.3438	1.4545	5.e-002	9.198
10311	6.3438	1.1818	0.	4.3301
10312	6.2531	1.2727	0.	0.86058
10313	6.3438	1.2727	5.e-002	10.032
10314	6.3438	1.	0.	19.723
10315	6.2531	1.0909	0.	2.7466
10316	6.3438	1.0909	5.e-002	10.794
10317	6.3438	0.81818	0.	32.505
10318	6.2531	0.90909	0.	14.679
10319	6.3438	0.90909	5.e-002	11.471
10320	6.3438	0.63636	0.	38.209
10321	6.2531	0.72727	0.	25.483
10322	6.3438	0.72727	5.e-002	12.047
10323	6.3438	0.45455	0.	36.141
10324	6.2531	0.54545	0.	29.561
10325	6.3438	0.54545	5.e-002	12.511
10326	6.3438	0.27273	0.	26.035
10327	6.2531	0.36364	0.	26.259
10328	6.3438	0.36364	5.e-002	12.915
10329	6.2531	0.18182	0.	15.489
10330	6.3438	0.18182	5.e-002	14.093
10331	6.3438	9.0909e-002	0.	10.269
10332	6.1625	5.7273	0.	15.676
10333	6.0719	5.8182	0.	8.7707
10334	6.1625	5.8182	5.e-002	12.461
10335	6.1625	5.9091	0.	6.508
10336	6.1625	5.5455	0.	19.695
10337	6.0719	5.6364	0.	13.069
10338	6.1625	5.6364	5.e-002	11.617
10339	6.1625	5.3636	0.	16.905
10340	6.0719	5.4545	0.	11.153
10341	6.1625	5.4545	5.e-002	11.324
10342	6.1625	5.1818	0.	8.0288
10343	6.0719	5.2727	0.	4.0417
10344	6.1625	5.2727	5.e-002	10.972
10345	6.1625	5.	0.	1.3693
10346	6.0719	5.0909	0.	0.86115
10347	6.1625	5.0909	5.e-002	10.52
10348	6.1625	4.8182	0.	0.62134
10349	6.0719	4.9091	0.	0.48509
10350	6.1625	4.9091	5.e-002	9.9772
10351	6.1625	4.6364	0.	0.41554
10352	6.0719	4.7273	0.	0.35087
10353	6.1625	4.7273	5.e-002	9.3501
10354	6.1625	4.4545	0.	0.30863
10355	6.0719	4.5455	0.	0.2726
10356	6.1625	4.5455	5.e-002	8.6455
10357	6.1625	4.2727	0.	0.23608
10358	6.0719	4.3636	0.	0.2155
10359	6.1625	4.3636	5.e-002	7.8673
10360	6.1625	4.0909	0.	0.18033
10361	6.0719	4.1818	0.	0.16912
10362	6.1625	4.1818	5.e-002	7.0171
10363	6.1625	3.9091	0.	0.13549
10364	6.0719	4.	0.	0.12999
10365	6.1625	4.	5.e-002	6.0965
10366	6.1625	3.7273	0.	9.9627e-002
10367	6.0719	3.8182	0.	9.7182e-002
10368	6.1625	3.8182	5.e-002	5.1108
10369	6.1625	3.5455	0.	7.2123e-002
10370	6.0719	3.6364	0.	7.0697e-002
10371	6.1625	3.6364	5.e-002	4.0705
10372	6.1625	3.3636	0.	5.2735e-002
10373	6.0719	3.4545	0.	5.0755e-002
10374	6.1625	3.4545	5.e-002	2.9947
10375	6.1625	3.1818	0.	4.1242e-002
10376	6.0719	3.2727	0.	3.7476e-002
10377	6.1625	3.2727	5.e-002	1.9211
10378	6.1625	3.	0.	3.744e-002
10379	6.0719	3.0909	0.	3.0858e-002
10380	6.1625	3.0909	5.e-002	0.99476
10381	6.1625	2.8182	0.	4.1242e-002
10382	6.0719	2.9091	0.	3.0858e-002
10383	6.1625	2.9091	5.e-002	0.99477
10384	6.1625	2.6364	0.	5.2736e-002
10385	6.0719	2.7273	0.	3.7476e-002
10386	6.1625	2.7273	5.e-002	1.9212
10387	6.1625	2.4545	0.	7.2123e-002
10388	6.0719	2.5455	0.	5.0755e-002
10389	6.1625	2.5455	5.e-002	2.9948
10390	6.1625	2.2727	0.	9.9627e-002
10391	6.0719	2.3636	0.	7.0698e-002
10392	6.1625	2.3636	5.e-002	4.0706
10393	6.1625	2.0909	0.	0.13549
10394	6.0719	2.1818	0.	9.7182e-002
10395	6.1625	2.1818	5.e-002	5.1108
10396	6.1625	1.9091	0.	0.18033
10397	6.0719	2.	0.	0.12999
10398	6.1625	2.	5.e-002	6.0965
10399	6.1625	1.7273	0.	0.23608
10400	6.0719	1.8182	0.	0.16912
10401	6.1625	1.8182	5.e-002	7.0171
10402	6.1625	1.5455	0.	0.30863
10403	6.0719	1.6364	0.	0.2155
10404	6.1625	1.6364	5.e-002	7.8673
10405	6.1625	1.3636	0.	0.41554
10406	6.0719	1.4545	0.	0.2726
10407	6.1625	1.4545	5.e-002	8.6456
10408	6.1625	1.1818	0.	0.62134
10409	6.0719	1.2727	0.	0.35087
10410	6.1625	1.2727	5.e-002	9.3501
10411	6.1625	1.	0.	1.3692
10412	6.0719	1.0909	0.	0.48509
10413	6.1625	1.0909	5.e-002	9.9772
10414	6.1625	0.81818	0.	8.0288
10415	6.0719	0.90909	0.	0.86115
10416	6.1625	0.90909	5.e-002	10.52
10417	6.1625	0.63636	0.	16.905
10418	6.0719	0.72727	0.	4.0417
10419	6.1625	0.72727	5.e-002	10.972
10420	6.1625	0.45455	0.	19.695
10421	6.0719	0.54545	0.	11.153
10422	6.1625	0.54545	5.e-002	11.324
10423	6.1625	0.27273	0.	15.676
10424	6.0719	0.36364	0.	13.069
10425	6.1625	0.36364	5.e-002	11.617
10426	6.0719	0.18182	0.	8.7707
10427	6.1625	0.18182	5.e-002	12.461
10428	6.1625	9.0909e-002	0.	6.508
10429	5.9812	5.7273	0.	6.1445
10430	5.8906	5.8182	0.	2.6791
10431	5.9812	5.8182	5.e-002	11.211
10432	5.9812	5.9091	0.	3.0619
10433	5.9812	5.5455	0.	4.6923
10434	5.8906	5.6364	0.	1.5651
10435	5.9812	5.6364	5.e-002	10.589
10436	5.9812	5.3636	0.	1.0873
10437	5.8906	5.4545	0.	0.51528
10438	5.9812	5.4545	5.e-002	10.387
10439	5.9812	5.1818	0.	0.49453
10440	5.8906	5.2727	0.	0.34483
10441	5.9812	5.2727	5.e-002	10.128
10442	5.9812	5.	0.	0.35191
10443	5.8906	5.0909	0.	0.27823
10444	5.9812	5.0909	5.e-002	9.781
10445	5.9812	4.8182	0.	0.2793
10446	5.8906	4.9091	0.	0.23497
10447	5.9812	4.9091	5.e-002	9.3492
10448	5.9812	4.6364	0.	0.22885
10449	5.8906	4.7273	0.	0.20043
10450	5.9812	4.7273	5.e-002	8.837
10451	5.9812	4.4545	0.	0.18775
10452	5.8906	4.5455	0.	0.16949
10453	5.9812	4.5455	5.e-002	8.2478
10454	5.9812	4.2727	0.	0.15179
10455	5.8906	4.3636	0.	0.14057
10456	5.9812	4.3636	5.e-002	7.5841
10457	5.9812	4.0909	0.	0.11966
10458	5.8906	4.1818	0.	0.11336
10459	5.9812	4.1818	5.e-002	6.8487
10460	5.9812	3.9091	0.	9.132e-002
10461	5.8906	4.	0.	8.8254e-002
10462	5.9812	4.	5.e-002	6.0473
10463	5.9812	3.7273	0.	6.7224e-002
10464	5.8906	3.8182	0.	6.5949e-002
10465	5.9812	3.8182	5.e-002	5.1912
10466	5.9812	3.5455	0.	4.7942e-002
10467	5.8906	3.6364	0.	4.7205e-002
10468	5.9812	3.6364	5.e-002	4.3022
10469	5.9812	3.3636	0.	3.3922e-002
10470	5.8906	3.4545	0.	3.2663e-002
10471	5.9812	3.4545	5.e-002	3.4217
10472	5.9812	3.1818	0.	2.5432e-002
10473	5.8906	3.2727	0.	2.2767e-002
10474	5.9812	3.2727	5.e-002	2.6339
10475	5.9812	3.	0.	2.2591e-002
10476	5.8906	3.0909	0.	1.7766e-002
10477	5.9812	3.0909	5.e-002	2.1163
10478	5.9812	2.8182	0.	2.5432e-002
10479	5.8906	2.9091	0.	1.7766e-002
10480	5.9812	2.9091	5.e-002	2.1163
10481	5.9812	2.6364	0.	3.3922e-002
10482	5.8906	2.7273	0.	2.2767e-002
10483	5.9812	2.7273	5.e-002	2.6339
10484	5.9812	2.4545	0.	4.7942e-002
10485	5.8906	2.5455	0.	3.2663e-002
10486	5.9812	2.5455	5.e-002	3.4217
10487	5.9812	2.2727	0.	6.7225e-002
10488	5.8906	2.3636	0.	4.7205e-002
10489	5.9812	2.3636	5.e-002	4.3022
10490	5.9812	2.0909	0.	9.132e-002
10491	5.8906	2.1818	0.	6.5949e-002
10492	5.9812	2.1818	5.e-002	5.1912
10493	5.9812	1.9091	0.	0.11966
10494	5.8906	2.	0.	8.8254e-002
10495	5.9812	2.	5.e-002	6.0473
10496	5.9812	1.7273	0.	0.15179
10497	5.8906	1.8182	0.	0.11336
10498	5.9812	1.8182	5.e-002	6.8488
10499	5.9812	1.5455	0.	0.18775
10500	5.8906	1.6364	0.	0.14057
10501	5.9812	1.6364	5.e-002	7.5841
10502	5.9812	1.3636	0.	0.22885
10503	5.8906	1.4545	0.	0.16949
10504	5.9812	1.4545	5.e-002	8.2478
10505	5.9812	1.1818	0.	0.2793
10506	5.8906	1.2727	0.	0.20043
10507	5.9812	1.2727	5.e-002	8.837
10508	5.9812	1.	0.	0.35191
10509	5.8906	1.0909	0.	0.23498
10510	5.9812	1.0909	5.e-002	9.3492
10511	5.9812	0.81818	0.	0.49453
10512	5.8906	0.90909	0.	0.27823
10513	5.9812	0.90909	5.e-002	9.781
10514	5.9812	0.63636	0.	1.0873
10515	5.8906	0.72727	0.	0.34483
10516	5.9812	0.72727	5.e-002	10.128
10517	5.9812	0.45455	0.	4.6923
10518	5.8906	0.54545	0.	0.51528
10519	5.9812	0.54545	5.e-002	10.387
10520	5.9812	0.27273	0.	6.1445
10521	5.8906	0.36364	0.	1.5651
10522	5.9812	0.36364	5.e-002	10.589
10523	5.8906	0.18182	0.	2.6791
10524	5.9812	0.18182	5.e-002	11.211
10525	5.9812	9.0909e-002	0.	3.0619
10526	5.8	5.7273	0.	0.29929
10527	5.7094	5.8182	0.	0.2167
10528	5.8	5.8182	5.e-002	10.297
10529	5.8	5.9091	0.	0.23694
10530	5.8	5.5455	0.	0.25615
10531	5.7094	5.6364	0.	0.19503
10532	5.8	5.6364	5.e-002	9.79
10533	5.8	5.3636	0.	0.23259
10534	5.7094	5.4545	0.	0.1838
10535	5.8	5.4545	5.e-002	9.6582
10536	5.8	5.1818	0.	0.21068
10537	5.7094	5.2727	0.	0.17575
10538	5.8	5.2727	5.e-002	9.4759
10539	5.8	5.	0.	0.19
10540	5.7094	5.0909	0.	0.16382
10541	5.8	5.0909	5.e-002	9.214
10542	5.8	4.8182	0.	0.16898
10543	5.7094	4.9091	0.	0.14975
10544	5.8	4.9091	5.e-002	8.8746
10545	5.8	4.6364	0.	0.14743
10546	5.7094	4.7273	0.	0.13365
10547	5.8	4.7273	5.e-002	8.4596
10548	5.8	4.4545	0.	0.12547
10549	5.7094	4.5455	0.	0.1161
10550	5.8	4.5455	5.e-002	7.9715
10551	5.8	4.2727	0.	0.10352
10552	5.7094	4.3636	0.	9.7681e-002
10553	5.8	4.3636	5.e-002	7.4134
10554	5.8	4.0909	0.	8.229e-002
10555	5.7094	4.1818	0.	7.9122e-002
10556	5.8	4.1818	5.e-002	6.7903
10557	5.8	3.9091	0.	6.2575e-002
10558	5.7094	4.	0.	6.1234e-002
10559	5.8	4.	5.e-002	6.1119
10560	5.8	3.7273	0.	4.5217e-002
10561	5.7094	3.8182	0.	4.4862e-002
10562	5.8	3.8182	5.e-002	5.3953
10563	5.8	3.5455	0.	3.0965e-002
10564	5.7094	3.6364	0.	3.0798e-002
10565	5.8	3.6364	5.e-002	4.6701
10566	5.8	3.3636	0.	2.0402e-002
10567	5.7094	3.4545	0.	1.9701e-002
10568	5.8	3.4545	5.e-002	3.9857
10569	5.8	3.1818	0.	1.392e-002
10570	5.7094	3.2727	0.	1.205e-002
10571	5.8	3.2727	5.e-002	3.4215
10572	5.8	3.	0.	1.1737e-002
10573	5.7094	3.0909	0.	8.1521e-003
10574	5.8	3.0909	5.e-002	3.0895
10575	5.8	2.8182	0.	1.392e-002
10576	5.7094	2.9091	0.	8.1522e-003
10577	5.8	2.9091	5.e-002	3.0895
10578	5.8	2.6364	0.	2.0402e-002
10579	5.7094	2.7273	0.	1.205e-002
10580	5.8	2.7273	5.e-002	3.4215
10581	5.8	2.4545	0.	3.0966e-002
10582	5.7094	2.5455	0.	1.9701e-002
10583	5.8	2.5455	5.e-002	3.9857
10584	5.8	2.2727	0.	4.5217e-002
10585	5.7094	2.3636	0.	3.0799e-002
10586	5.8	2.3636	5.e-002	4.6701
10587	5.8	2.0909	0.	6.2575e-002
10588	5.7094	2.1818	0.	4.4863e-002
10589	5.8	2.1818	5.e-002	5.3953
10590	5.8	1.9091	0.	8.229e-002
10591	5.7094	2.	0.	6.1234e-002
10592	5.8	2.	5.e-002	6.1119
10593	5.8	1.7273	0.	0.10353
10594	5.7094	1.8182	0.	7.9122e-002
10595	5.8	1.8182	5.e-002	6.7903
10596	5.8	1.5455	0.	0.12547
10597	5.7094	1.6364	0.	9.7682e-002
10598	5.8	1.6364	5.e-002	7.4134
10599	5.8	1.3636	0.	0.14744
10600	5.7094	1.4545	0.	0.1161
10601	5.8	1.4545	5.e-002	7.9715
10602	5.8	1.1818	0.	0.16898
10603	5.7094	1.2727	0.	0.13365
10604	5.8	1.2727	5.e-002	8.4596
10605	5.8	1.	0.	0.19
10606	5.7094	1.0909	0.	0.14975
10607	5.8	1.0909	5.e-002	8.8746
10608	5.8	0.81818	0.	0.21068
10609	5.7094	0.90909	0.	0.16382
10610	5.8	0.90909	5.e-002	9.214
10611	5.8	0.63636	0.	0.23259
10612	5.7094	0.72727	0.	0.17575
10613	5.8	0.72727	5.e-002	9.4759
10614	5.8	0.45455	0.	0.25615
10615	5.7094	0.54545	0.	0.1838
10616	5.8	0.54545	5.e-002	9.6582
10617	5.8	0.27273	0.	0.29929
10618	5.7094	0.36364	0.	0.19503
10619	5.8	0.36364	5.e-002	9.79
10620	5.7094	0.18182	0.	0.21671
10621	5.8	0.18182	5.e-002	10.297
10622	5.8	9.0909e-002	0.	0.23694
10623	5.6188	5.7273	0.	0.1612
10624	5.5281	5.8182	0.	0.18147
10625	5.6188	5.8182	5.e-002	9.6763
10626	5.6188	5.9091	0.	0.11291
10627	5.6188	5.5455	0.	0.15354
10628	5.5281	5.6364	0.	0.16238
10629	5.6188	5.6364	5.e-002	9.1838
10630	5.6188	5.3636	0.	0.14417
10631	5.5281	5.4545	0.	0.12985
10632	5.6188	5.4545	5.e-002	9.1026
10633	5.6188	5.1818	0.	0.13901
10634	5.5281	5.2727	0.	0.12754
10635	5.6188	5.2727	5.e-002	8.9811
10636	5.6188	5.	0.	0.12972
10637	5.5281	5.0909	0.	0.11889
10638	5.6188	5.0909	5.e-002	8.7885
10639	5.6188	4.8182	0.	0.11817
10640	5.5281	4.9091	0.	0.10956
10641	5.6188	4.9091	5.e-002	8.5249
10642	5.6188	4.6364	0.	0.10455
10643	5.5281	4.7273	0.	9.8064e-002
10644	5.6188	4.7273	5.e-002	8.1915
10645	5.6188	4.4545	0.	8.9535e-002
10646	5.5281	4.5455	0.	8.5143e-002
10647	5.6188	4.5455	5.e-002	7.7908
10648	5.6188	4.2727	0.	7.3801e-002
10649	5.5281	4.3636	0.	7.1229e-002
10650	5.6188	4.3636	5.e-002	7.3267
10651	5.6188	4.0909	0.	5.81e-002
10652	5.5281	4.1818	0.	5.6977e-002
10653	5.6188	4.1818	5.e-002	6.8063
10654	5.6188	3.9091	0.	4.3213e-002
10655	5.5281	4.	0.	4.3074e-002
10656	5.6188	4.	5.e-002	6.2419
10657	5.6188	3.7273	0.	2.9897e-002
10658	5.5281	3.8182	0.	3.0227e-002
10659	5.6188	3.8182	5.e-002	5.6537
10660	5.6188	3.5455	0.	1.8826e-002
10661	5.5281	3.6364	0.	1.9099e-002
10662	5.6188	3.6364	5.e-002	5.0725
10663	5.6188	3.3636	0.	1.0539e-002
10664	5.5281	3.4545	0.	1.0254e-002
10665	5.6188	3.4545	5.e-002	4.544
10666	5.6188	3.1818	0.	5.4166e-003
10667	5.5281	3.2727	0.	4.118e-003
10668	5.6188	3.2727	5.e-002	4.1292
10669	5.6188	3.	0.	3.6846e-003
10670	5.5281	3.0909	0.	9.7974e-004
10671	5.6188	3.0909	5.e-002	3.897
10672	5.6188	2.8182	0.	5.4167e-003
10673	5.5281	2.9091	0.	9.7973e-004
10674	5.6188	2.9091	5.e-002	3.897
10675	5.6188	2.6364	0.	1.0539e-002
10676	5.5281	2.7273	0.	4.1182e-003
10677	5.6188	2.7273	5.e-002	4.1292
10678	5.6188	2.4545	0.	1.8827e-002
10679	5.5281	2.5455	0.	1.0254e-002
10680	5.6188	2.5455	5.e-002	4.544
10681	5.6188	2.2727	0.	2.9897e-002
10682	5.5281	2.3636	0.	1.91e-002
10683	5.6188	2.3636	5.e-002	5.0725
10684	5.6188	2.0909	0.	4.3213e-002
10685	5.5281	2.1818	0.	3.0228e-002
10686	5.6188	2.1818	5.e-002	5.6537
10687	5.6188	1.9091	0.	5.8101e-002
10688	5.5281	2.	0.	4.3075e-002
10689	5.6188	2.	5.e-002	6.2419
10690	5.6188	1.7273	0.	7.3802e-002
10691	5.5281	1.8182	0.	5.6977e-002
10692	5.6188	1.8182	5.e-002	6.8063
10693	5.6188	1.5455	0.	8.9536e-002
10694	5.5281	1.6364	0.	7.1229e-002
10695	5.6188	1.6364	5.e-002	7.3267
10696	5.6188	1.3636	0.	0.10455
10697	5.5281	1.4545	0.	8.5144e-002
10698	5.6188	1.4545	5.e-002	7.7908
10699	5.6188	1.1818	0.	0.11817
10700	5.5281	1.2727	0.	9.8064e-002
10701	5.6188	1.2727	5.e-002	8.1915
10702	5.6188	1.	0.	0.12972
10703	5.5281	1.0909	0.	0.10956
10704	5.6188	1.0909	5.e-002	8.5249
10705	5.6188	0.81818	0.	0.13901
10706	5.5281	0.90909	0.	0.11889
10707	5.6188	0.90909	5.e-002	8.7885
10708	5.6188	0.63636	0.	0.14417
10709	5.5281	0.72727	0.	0.12754
10710	5.6188	0.72727	5.e-002	8.9812
10711	5.6188	0.45455	0.	0.15355
10712	5.5281	0.54545	0.	0.12985
10713	5.6188	0.54545	5.e-002	9.1026
10714	5.6188	0.27273	0.	0.1612
10715	5.5281	0.36364	0.	0.16238
10716	5.6188	0.36364	5.e-002	9.1838
10717	5.5281	0.18182	0.	0.18148
10718	5.6188	0.18182	5.e-002	9.6762
10719	5.6188	9.0909e-002	0.	0.11291
10720	5.4375	5.7273	0.	0.15883
10721	5.3469	5.8182	0.	0.19618
10722	5.4375	5.8182	5.e-002	9.3082
10723	5.4375	5.9091	0.	0.12476
10724	5.4375	5.5455	0.	0.13766
10725	5.3469	5.6364	0.	0.17098
10726	5.4375	5.6364	5.e-002	8.7397
10727	5.4375	5.3636	0.	0.11473
10728	5.3469	5.4545	0.	0.11092
10729	5.4375	5.4545	5.e-002	8.6915
10730	5.4375	5.1818	0.	0.1092
10731	5.3469	5.2727	0.	0.10742
10732	5.4375	5.2727	5.e-002	8.6172
10733	5.4375	5.	0.	0.10023
10734	5.3469	5.0909	0.	9.6555e-002
10735	5.4375	5.0909	5.e-002	8.4796
10736	5.4375	4.8182	0.	9.0552e-002
10737	5.3469	4.9091	0.	8.7502e-002
10738	5.4375	4.9091	5.e-002	8.2776
10739	5.4375	4.6364	0.	7.9371e-002
10740	5.3469	4.7273	0.	7.7029e-002
10741	5.4375	4.7273	5.e-002	8.0121
10742	5.4375	4.4545	0.	6.7209e-002
10743	5.3469	4.5455	0.	6.5822e-002
10744	5.4375	4.5455	5.e-002	7.6856
10745	5.4375	4.2727	0.	5.4495e-002
10746	5.3469	4.3636	0.	5.4003e-002
10747	5.4375	4.3636	5.e-002	7.3029
10748	5.4375	4.0909	0.	4.1813e-002
10749	5.3469	4.1818	0.	4.2051e-002
10750	5.4375	4.1818	5.e-002	6.8724
10751	5.4375	3.9091	0.	2.9772e-002
10752	5.3469	4.	0.	3.0471e-002
10753	5.4375	4.	5.e-002	6.4075
10754	5.4375	3.7273	0.	1.8977e-002
10755	5.3469	3.8182	0.	1.9805e-002
10756	5.4375	3.8182	5.e-002	5.9287
10757	5.4375	3.5455	0.	9.9754e-003
10758	5.3469	3.6364	0.	1.0575e-002
10759	5.4375	3.6364	5.e-002	5.4646
10760	5.4375	3.3636	0.	3.2149e-003
10761	5.3469	3.4545	0.	3.2347e-003
10762	5.4375	3.4545	5.e-002	5.0534
10763	5.4375	3.1818	0.	-9.7478e-004
10764	5.3469	3.2727	0.	-1.8631e-003
10765	5.4375	3.2727	5.e-002	4.7402
10766	5.4375	3.	0.	-2.3935e-003
10767	5.3469	3.0909	0.	-4.4733e-003
10768	5.4375	3.0909	5.e-002	4.5693
10769	5.4375	2.8182	0.	-9.7467e-004
10770	5.3469	2.9091	0.	-4.4733e-003
10771	5.4375	2.9091	5.e-002	4.5693
10772	5.4375	2.6364	0.	3.2151e-003
10773	5.3469	2.7273	0.	-1.8629e-003
10774	5.4375	2.7273	5.e-002	4.7402
10775	5.4375	2.4545	0.	9.9756e-003
10776	5.3469	2.5455	0.	3.2348e-003
10777	5.4375	2.5455	5.e-002	5.0534
10778	5.4375	2.2727	0.	1.8978e-002
10779	5.3469	2.3636	0.	1.0576e-002
10780	5.4375	2.3636	5.e-002	5.4646
10781	5.4375	2.0909	0.	2.9773e-002
10782	5.3469	2.1818	0.	1.9806e-002
10783	5.4375	2.1818	5.e-002	5.9287
10784	5.4375	1.9091	0.	4.1814e-002
10785	5.3469	2.	0.	3.0471e-002
10786	5.4375	2.	5.e-002	6.4076
10787	5.4375	1.7273	0.	5.4495e-002
10788	5.3469	1.8182	0.	4.2051e-002
10789	5.4375	1.8182	5.e-002	6.8724
10790	5.4375	1.5455	0.	6.7209e-002
10791	5.3469	1.6364	0.	5.4004e-002
10792	5.4375	1.6364	5.e-002	7.3029
10793	5.4375	1.3636	0.	7.9372e-002
10794	5.3469	1.4545	0.	6.5823e-002
10795	5.4375	1.4545	5.e-002	7.6856
10796	5.4375	1.1818	0.	9.0553e-002
10797	5.3469	1.2727	0.	7.703e-002
10798	5.4375	1.2727	5.e-002	8.0121
10799	5.4375	1.	0.	0.10024
10800	5.3469	1.0909	0.	8.7502e-002
10801	5.4375	1.0909	5.e-002	8.2776
10802	5.4375	0.81818	0.	0.1092
10803	5.3469	0.90909	0.	9.6556e-002
10804	5.4375	0.90909	5.e-002	8.4796
10805	5.4375	0.63636	0.	0.11473
10806	5.3469	0.72727	0.	0.10742
10807	5.4375	0.72727	5.e-002	8.6172
10808	5.4375	0.45455	0.	0.13766
10809	5.3469	0.54545	0.	0.11092
10810	5.4375	0.54545	5.e-002	8.6915
10811	5.4375	0.27273	0.	0.15884
10812	5.3469	0.36364	0.	0.17098
10813	5.4375	0.36364	5.e-002	8.7397
10814	5.3469	0.18182	0.	0.19619
10815	5.4375	0.18182	5.e-002	9.3083
10816	5.4375	9.0909e-002	0.	0.12477
10817	5.2562	5.7273	0.	0.17252
10818	5.1656	5.8182	0.	0.22153
10819	5.2562	5.8182	5.e-002	9.1569
10820	5.2562	5.9091	0.	0.14217
10821	5.2562	5.5455	0.	0.139
10822	5.1656	5.6364	0.	0.18955
10823	5.2562	5.6364	5.e-002	8.4313
10824	5.2562	5.3636	0.	0.10219
10825	5.1656	5.4545	0.	0.10349
10826	5.2562	5.4545	5.e-002	8.4011
10827	5.2562	5.1818	0.	9.4472e-002
10828	5.1656	5.2727	0.	9.821e-002
10829	5.2562	5.2727	5.e-002	8.3622
10830	5.2562	5.	0.	8.3861e-002
10831	5.1656	5.0909	0.	8.4277e-002
10832	5.2562	5.0909	5.e-002	8.2678
10833	5.2562	4.8182	0.	7.4084e-002
10834	5.1656	4.9091	0.	7.439e-002
10835	5.2562	4.9091	5.e-002	8.1154
10836	5.2562	4.6364	0.	6.3539e-002
10837	5.1656	4.7273	0.	6.3787e-002
10838	5.2562	4.7273	5.e-002	7.9056
10839	5.2562	4.4545	0.	5.2585e-002
10840	5.1656	4.5455	0.	5.3144e-002
10841	5.2562	4.5455	5.e-002	7.6412
10842	5.2562	4.2727	0.	4.1426e-002
10843	5.1656	4.3636	0.	4.2321e-002
10844	5.2562	4.3636	5.e-002	7.3275
10845	5.2562	4.0909	0.	3.0475e-002
10846	5.1656	4.1818	0.	3.1647e-002
10847	5.2562	4.1818	5.e-002	6.9732
10848	5.2562	3.9091	0.	2.0182e-002
10849	5.1656	4.	0.	2.147e-002
10850	5.2562	4.	5.e-002	6.592
10851	5.2562	3.7273	0.	1.1009e-002
10852	5.1656	3.8182	0.	1.2196e-002
10853	5.2562	3.8182	5.e-002	6.2029
10854	5.2562	3.5455	0.	3.383e-003
10855	5.1656	3.6364	0.	4.2232e-003
10856	5.2562	3.6364	5.e-002	5.8311
10857	5.2562	3.3636	0.	-2.3356e-003
10858	5.1656	3.4545	0.	-2.0935e-003
10859	5.2562	3.4545	5.e-002	5.5075
10860	5.2562	3.1818	0.	-5.8779e-003
10861	5.1656	3.2727	0.	-6.4712e-003
10862	5.2562	3.2727	5.e-002	5.2656
10863	5.2562	3.	0.	-7.0774e-003
10864	5.1656	3.0909	0.	-8.7107e-003
10865	5.2562	3.0909	5.e-002	5.1355
10866	5.2562	2.8182	0.	-5.8778e-003
10867	5.1656	2.9091	0.	-8.7106e-003
10868	5.2562	2.9091	5.e-002	5.1355
10869	5.2562	2.6364	0.	-2.3353e-003
10870	5.1656	2.7273	0.	-6.4709e-003
10871	5.2562	2.7273	5.e-002	5.2656
10872	5.2562	2.4545	0.	3.3832e-003
10873	5.1656	2.5455	0.	-2.0932e-003
10874	5.2562	2.5455	5.e-002	5.5075
10875	5.2562	2.2727	0.	1.1009e-002
10876	5.1656	2.3636	0.	4.2234e-003
10877	5.2562	2.3636	5.e-002	5.8311
10878	5.2562	2.0909	0.	2.0183e-002
10879	5.1656	2.1818	0.	1.2197e-002
10880	5.2562	2.1818	5.e-002	6.2029
10881	5.2562	1.9091	0.	3.0476e-002
10882	5.1656	2.	0.	2.1471e-002
10883	5.2562	2.	5.e-002	6.592
10884	5.2562	1.7273	0.	4.1426e-002
10885	5.1656	1.8182	0.	3.1647e-002
10886	5.2562	1.8182	5.e-002	6.9732
10887	5.2562	1.5455	0.	5.2586e-002
10888	5.1656	1.6364	0.	4.2322e-002
10889	5.2562	1.6364	5.e-002	7.3275
10890	5.2562	1.3636	0.	6.354e-002
10891	5.1656	1.4545	0.	5.3145e-002
10892	5.2562	1.4545	5.e-002	7.6412
10893	5.2562	1.1818	0.	7.4085e-002
10894	5.1656	1.2727	0.	6.3788e-002
10895	5.2562	1.2727	5.e-002	7.9056
10896	5.2562	1.	0.	8.3862e-002
10897	5.1656	1.0909	0.	7.439e-002
10898	5.2562	1.0909	5.e-002	8.1154
10899	5.2562	0.81818	0.	9.4473e-002
10900	5.1656	0.90909	0.	8.4278e-002
10901	5.2562	0.90909	5.e-002	8.2678
10902	5.2562	0.63636	0.	0.1022
10903	5.1656	0.72727	0.	9.8211e-002
10904	5.2562	0.72727	5.e-002	8.3622
10905	5.2562	0.45455	0.	0.13901
10906	5.1656	0.54545	0.	0.10349
10907	5.2562	0.54545	5.e-002	8.4011
10908	5.2562	0.27273	0.	0.17252
10909	5.1656	0.36364	0.	0.18955
10910	5.2562	0.36364	5.e-002	8.4313
10911	5.1656	0.18182	0.	0.22154
10912	5.2562	0.18182	5.e-002	9.1569
10913	5.2562	9.0909e-002	0.	0.14217
10914	5.075	5.7273	0.	0.19208
10915	4.9844	5.8182	0.	0.25275
10916	5.075	5.8182	5.e-002	9.1902
10917	5.075	5.9091	0.	0.16108
10918	5.075	5.5455	0.	0.14688
10919	4.9844	5.6364	0.	0.21229
10920	5.075	5.6364	5.e-002	8.2362
10921	5.075	5.3636	0.	9.7006e-002
10922	4.9844	5.4545	0.	0.10155
10923	5.075	5.4545	5.e-002	8.2116
10924	5.075	5.1818	0.	8.6926e-002
10925	4.9844	5.2727	0.	9.4502e-002
10926	5.075	5.2727	5.e-002	8.1985
10927	5.075	5.	0.	7.4252e-002
10928	4.9844	5.0909	0.	7.7402e-002
10929	5.075	5.0909	5.e-002	8.1375
10930	5.075	4.8182	0.	6.376e-002
10931	4.9844	4.9091	0.	6.6345e-002
10932	5.075	4.9091	5.e-002	8.0244
10933	5.075	4.6364	0.	5.3141e-002
10934	4.9844	4.7273	0.	5.5161e-002
10935	5.075	4.7273	5.e-002	7.8599
10936	5.075	4.4545	0.	4.2644e-002
10937	4.9844	4.5455	0.	4.4554e-002
10938	5.075	4.5455	5.e-002	7.6468
10939	5.075	4.2727	0.	3.2289e-002
10940	4.9844	4.3636	0.	3.4161e-002
10941	5.075	4.3636	5.e-002	7.3904
10942	5.075	4.0909	0.	2.2356e-002
10943	4.9844	4.1818	0.	2.4195e-002
10944	5.075	4.1818	5.e-002	7.0995
10945	5.075	3.9091	0.	1.3162e-002
10946	4.9844	4.	0.	1.4879e-002
10947	5.075	4.	5.e-002	6.7869
10948	5.075	3.7273	0.	5.0533e-003
10949	4.9844	3.8182	0.	6.5067e-003
10950	5.075	3.8182	5.e-002	6.47
10951	5.075	3.5455	0.	-1.6404e-003
10952	4.9844	3.6364	0.	-6.2147e-004
10953	5.075	3.6364	5.e-002	6.1702
10954	5.075	3.3636	0.	-6.6384e-003
10955	4.9844	3.4545	0.	-6.2324e-003
10956	5.075	3.4545	5.e-002	5.9125
10957	5.075	3.1818	0.	-9.7268e-003
10958	4.9844	3.2727	0.	-1.0105e-002
10959	5.075	3.2727	5.e-002	5.7221
10960	5.075	3.	0.	-1.0771e-002
10961	4.9844	3.0909	0.	-1.2083e-002
10962	5.075	3.0909	5.e-002	5.6206
10963	5.075	2.8182	0.	-9.7267e-003
10964	4.9844	2.9091	0.	-1.2083e-002
10965	5.075	2.9091	5.e-002	5.6206
10966	5.075	2.6364	0.	-6.6381e-003
10967	4.9844	2.7273	0.	-1.0105e-002
10968	5.075	2.7273	5.e-002	5.7221
10969	5.075	2.4545	0.	-1.6401e-003
10970	4.9844	2.5455	0.	-6.2321e-003
10971	5.075	2.5455	5.e-002	5.9125
10972	5.075	2.2727	0.	5.0536e-003
10973	4.9844	2.3636	0.	-6.2129e-004
10974	5.075	2.3636	5.e-002	6.1702
10975	5.075	2.0909	0.	1.3162e-002
10976	4.9844	2.1818	0.	6.5071e-003
10977	5.075	2.1818	5.e-002	6.4699
10978	5.075	1.9091	0.	2.2356e-002
10979	4.9844	2.	0.	1.4879e-002
10980	5.075	2.	5.e-002	6.7869
10981	5.075	1.7273	0.	3.2289e-002
10982	4.9844	1.8182	0.	2.4196e-002
10983	5.075	1.8182	5.e-002	7.0994
10984	5.075	1.5455	0.	4.2645e-002
10985	4.9844	1.6364	0.	3.4162e-002
10986	5.075	1.6364	5.e-002	7.3904
10987	5.075	1.3636	0.	5.3142e-002
10988	4.9844	1.4545	0.	4.4555e-002
10989	5.075	1.4545	5.e-002	7.6468
10990	5.075	1.1818	0.	6.3761e-002
10991	4.9844	1.2727	0.	5.5162e-002
10992	5.075	1.2727	5.e-002	7.86
10993	5.075	1.	0.	7.4253e-002
10994	4.9844	1.0909	0.	6.6346e-002
10995	5.075	1.0909	5.e-002	8.0245
10996	5.075	0.81818	0.	8.6927e-002
10997	4.9844	0.90909	0.	7.7404e-002
10998	5.075	0.90909	5.e-002	8.1375
10999	5.075	0.63636	0.	9.7006e-002
11000	4.9844	0.72727	0.	9.4503e-002
11001	5.075	0.72727	5.e-002	8.1985
11002	5.075	0.45455	0.	0.14689
11003	4.9844	0.54545	0.	0.10155
11004	5.075	0.54545	5.e-002	8.2116
11005	5.075	0.27273	0.	0.19208
11006	4.9844	0.36364	0.	0.21229
11007	5.075	0.36364	5.e-002	8.2362
11008	4.9844	0.18182	0.	0.25276
11009	5.075	0.18182	5.e-002	9.1902
11010	5.075	9.0909e-002	0.	0.16108
11011	4.8938	5.7273	0.	0.2152
11012	4.8031	5.8182	0.	0.28913
11013	4.8938	5.8182	5.e-002	9.3811
11014	4.8938	5.9091	0.	0.18081
11015	4.8938	5.5455	0.	0.15824
11016	4.8031	5.6364	0.	0.23755
11017	4.8938	5.6364	5.e-002	8.1359
11018	4.8938	5.3636	0.	9.5884e-002
11019	4.8031	5.4545	0.	0.10293
11020	4.8938	5.4545	5.e-002	8.1069
11021	4.8938	5.1818	0.	8.3475e-002
11022	4.8031	5.2727	0.	9.4122e-002
11023	4.8938	5.2727	5.e-002	8.1122
11024	4.8938	5.	0.	6.864e-002
11025	4.8031	5.0909	0.	7.386e-002
11026	4.8938	5.0909	5.e-002	8.0766
11027	4.8938	4.8182	0.	5.7188e-002
11028	4.8031	4.9091	0.	6.1492e-002
11029	4.8938	4.9091	5.e-002	7.9945
11030	4.8938	4.6364	0.	4.6159e-002
11031	4.8031	4.7273	0.	4.9506e-002
11032	4.8938	4.7273	5.e-002	7.8664
11033	4.8938	4.4545	0.	3.5723e-002
11034	4.8031	4.5455	0.	3.8645e-002
11035	4.8938	4.5455	5.e-002	7.6949
11036	4.8938	4.2727	0.	2.5747e-002
11037	4.8031	4.3636	0.	2.8354e-002
11038	4.8938	4.3636	5.e-002	7.4854
11039	4.8938	4.0909	0.	1.6402e-002
11040	4.8031	4.1818	0.	1.8747e-002
11041	4.8938	4.1818	5.e-002	7.2462
11042	4.8938	3.9091	0.	7.9014e-003
11043	4.8031	4.	0.	9.9469e-003
11044	4.8938	4.	5.e-002	6.9893
11045	4.8938	3.7273	0.	4.9863e-004
11046	4.8031	3.8182	0.	2.1581e-003
11047	4.8938	3.8182	5.e-002	6.7297
11048	4.8938	3.5455	0.	-5.5584e-003
11049	4.8031	3.6364	0.	-4.4003e-003
11050	4.8938	3.6364	5.e-002	6.4859
11051	4.8938	3.3636	0.	-1.0054e-002
11052	4.8031	3.4545	0.	-9.5223e-003
11053	4.8938	3.4545	5.e-002	6.278
11054	4.8938	3.1818	0.	-1.2822e-002
11055	4.8031	3.2727	0.	-1.304e-002
11056	4.8938	3.2727	5.e-002	6.1257
11057	4.8938	3.	0.	-1.3757e-002
11058	4.8031	3.0909	0.	-1.483e-002
11059	4.8938	3.0909	5.e-002	6.045
11060	4.8938	2.8182	0.	-1.2822e-002
11061	4.8031	2.9091	0.	-1.483e-002
11062	4.8938	2.9091	5.e-002	6.045
11063	4.8938	2.6364	0.	-1.0054e-002
11064	4.8031	2.7273	0.	-1.3039e-002
11065	4.8938	2.7273	5.e-002	6.1257
11066	4.8938	2.4545	0.	-5.5582e-003
11067	4.8031	2.5455	0.	-9.522e-003
11068	4.8938	2.5455	5.e-002	6.278
11069	4.8938	2.2727	0.	4.9885e-004
11070	4.8031	2.3636	0.	-4.4001e-003
11071	4.8938	2.3636	5.e-002	6.4859
11072	4.8938	2.0909	0.	7.9017e-003
11073	4.8031	2.1818	0.	2.1585e-003
11074	4.8938	2.1818	5.e-002	6.7297
11075	4.8938	1.9091	0.	1.6402e-002
11076	4.8031	2.	0.	9.9472e-003
11077	4.8938	2.	5.e-002	6.9893
11078	4.8938	1.7273	0.	2.5747e-002
11079	4.8031	1.8182	0.	1.8748e-002
11080	4.8938	1.8182	5.e-002	7.2463
11081	4.8938	1.5455	0.	3.5724e-002
11082	4.8031	1.6364	0.	2.8354e-002
11083	4.8938	1.6364	5.e-002	7.4854
11084	4.8938	1.3636	0.	4.616e-002
11085	4.8031	1.4545	0.	3.8646e-002
11086	4.8938	1.4545	5.e-002	7.6949
11087	4.8938	1.1818	0.	5.7189e-002
11088	4.8031	1.2727	0.	4.9506e-002
11089	4.8938	1.2727	5.e-002	7.8664
11090	4.8938	1.	0.	6.8641e-002
11091	4.8031	1.0909	0.	6.1493e-002
11092	4.8938	1.0909	5.e-002	7.9945
11093	4.8938	0.81818	0.	8.3476e-002
11094	4.8031	0.90909	0.	7.3861e-002
11095	4.8938	0.90909	5.e-002	8.0766
11096	4.8938	0.63636	0.	9.5884e-002
11097	4.8031	0.72727	0.	9.4122e-002
11098	4.8938	0.72727	5.e-002	8.1122
11099	4.8938	0.45455	0.	0.15824
11100	4.8031	0.54545	0.	0.10293
11101	4.8938	0.54545	5.e-002	8.1069
11102	4.8938	0.27273	0.	0.2152
11103	4.8031	0.36364	0.	0.23755
11104	4.8938	0.36364	5.e-002	8.1359
11105	4.8031	0.18182	0.	0.28913
11106	4.8938	0.18182	5.e-002	9.381
11107	4.8938	9.0909e-002	0.	0.18081
11108	4.7125	5.7273	0.	0.24134
11109	4.6219	5.8182	0.	0.33113
11110	4.7125	5.8182	5.e-002	9.7072
11111	4.7125	5.9091	0.	0.20132
11112	4.7125	5.5455	0.	0.17198
11113	4.6219	5.6364	0.	0.26488
11114	4.7125	5.6364	5.e-002	8.115
11115	4.7125	5.3636	0.	9.7441e-002
11116	4.6219	5.4545	0.	0.10668
11117	4.7125	5.4545	5.e-002	8.0739
11118	4.7125	5.1818	0.	8.2706e-002
11119	4.6219	5.2727	0.	9.6059e-002
11120	4.7125	5.2727	5.e-002	8.092
11121	4.7125	5.	0.	6.5662e-002
11122	4.6219	5.0909	0.	7.2614e-002
11123	4.7125	5.0909	5.e-002	8.0756
11124	4.7125	4.8182	0.	5.3113e-002
11125	4.6219	4.9091	0.	5.8838e-002
11126	4.7125	4.9091	5.e-002	8.0177
11127	4.7125	4.6364	0.	4.1477e-002
11128	4.6219	4.7273	0.	4.5903e-002
11129	4.7125	4.7273	5.e-002	7.9185
11130	4.7125	4.4545	0.	3.0859e-002
11131	4.6219	4.5455	0.	3.46e-002
11132	4.7125	4.5455	5.e-002	7.7806
11133	4.7125	4.2727	0.	2.0991e-002
11134	4.6219	4.3636	0.	2.4192e-002
11135	4.7125	4.3636	5.e-002	7.609
11136	4.7125	4.0909	0.	1.1957e-002
11137	4.6219	4.1818	0.	1.4713e-002
11138	4.7125	4.1818	5.e-002	7.4116
11139	4.7125	3.9091	0.	3.8808e-003
11140	4.6219	4.	0.	6.196e-003
11141	4.7125	4.	5.e-002	7.1991
11142	4.7125	3.7273	0.	-3.0592e-003
11143	4.6219	3.8182	0.	-1.2275e-003
11144	4.7125	3.8182	5.e-002	6.9849
11145	4.7125	3.5455	0.	-8.6822e-003
11146	4.6219	3.6364	0.	-7.406e-003
11147	4.7125	3.6364	5.e-002	6.7846
11148	4.7125	3.3636	0.	-1.2827e-002
11149	4.6219	3.4545	0.	-1.219e-002
11150	4.7125	3.4545	5.e-002	6.6147
11151	4.7125	3.1818	0.	-1.5368e-002
11152	4.6219	3.2727	0.	-1.5457e-002
11153	4.7125	3.2727	5.e-002	6.4909
11154	4.7125	3.	0.	-1.6224e-002
11155	4.6219	3.0909	0.	-1.7114e-002
11156	4.7125	3.0909	5.e-002	6.4255
11157	4.7125	2.8182	0.	-1.5368e-002
11158	4.6219	2.9091	0.	-1.7114e-002
11159	4.7125	2.9091	5.e-002	6.4255
11160	4.7125	2.6364	0.	-1.2827e-002
11161	4.6219	2.7273	0.	-1.5457e-002
11162	4.7125	2.7273	5.e-002	6.4909
11163	4.7125	2.4545	0.	-8.6819e-003
11164	4.6219	2.5455	0.	-1.219e-002
11165	4.7125	2.5455	5.e-002	6.6147
11166	4.7125	2.2727	0.	-3.0588e-003
11167	4.6219	2.3636	0.	-7.4058e-003
11168	4.7125	2.3636	5.e-002	6.7846
11169	4.7125	2.0909	0.	3.8811e-003
11170	4.6219	2.1818	0.	-1.2272e-003
11171	4.7125	2.1818	5.e-002	6.9848
11172	4.7125	1.9091	0.	1.1957e-002
11173	4.6219	2.	0.	6.1965e-003
11174	4.7125	2.	5.e-002	7.1991
11175	4.7125	1.7273	0.	2.0992e-002
11176	4.6219	1.8182	0.	1.4714e-002
11177	4.7125	1.8182	5.e-002	7.4116
11178	4.7125	1.5455	0.	3.086e-002
11179	4.6219	1.6364	0.	2.4193e-002
11180	4.7125	1.6364	5.e-002	7.609
11181	4.7125	1.3636	0.	4.1477e-002
11182	4.6219	1.4545	0.	3.4601e-002
11183	4.7125	1.4545	5.e-002	7.7806
11184	4.7125	1.1818	0.	5.3114e-002
11185	4.6219	1.2727	0.	4.5903e-002
11186	4.7125	1.2727	5.e-002	7.9186
11187	4.7125	1.	0.	6.5663e-002
11188	4.6219	1.0909	0.	5.8839e-002
11189	4.7125	1.0909	5.e-002	8.0177
11190	4.7125	0.81818	0.	8.2706e-002
11191	4.6219	0.90909	0.	7.2615e-002
11192	4.7125	0.90909	5.e-002	8.0755
11193	4.7125	0.63636	0.	9.7441e-002
11194	4.6219	0.72727	0.	9.6059e-002
11195	4.7125	0.72727	5.e-002	8.092
11196	4.7125	0.45455	0.	0.17198
11197	4.6219	0.54545	0.	0.10668
11198	4.7125	0.54545	5.e-002	8.0739
11199	4.7125	0.27273	0.	0.24135
11200	4.6219	0.36364	0.	0.26488
11201	4.7125	0.36364	5.e-002	8.115
11202	4.6219	0.18182	0.	0.33114
11203	4.7125	0.18182	5.e-002	9.7072
11204	4.7125	9.0909e-002	0.	0.20132
11205	4.5313	5.7273	0.	0.27057
11206	4.4406	5.8182	0.	0.37985
11207	4.5313	5.8182	5.e-002	10.151
11208	4.5313	5.9091	0.	0.22275
11209	4.5313	5.5455	0.	0.18769
11210	4.4406	5.6364	0.	0.29427
11211	4.5313	5.6364	5.e-002	8.1612
11212	4.5313	5.3636	0.	0.10102
11213	4.4406	5.4545	0.	0.11236
11214	4.5313	5.4545	5.e-002	8.1026
11215	4.5313	5.1818	0.	8.3903e-002
11216	4.4406	5.2727	0.	9.9806e-002
11217	4.5313	5.2727	5.e-002	8.1292
11218	4.5313	5.	0.	6.4584e-002
11219	4.4406	5.0909	0.	7.3106e-002
11220	4.5313	5.0909	5.e-002	8.1274
11221	4.5313	4.8182	0.	5.0828e-002
11222	4.4406	4.9091	0.	5.7822e-002
11223	4.5313	4.9091	5.e-002	8.0883
11224	4.5313	4.6364	0.	3.844e-002
11225	4.4406	4.7273	0.	4.3814e-002
11226	4.5313	4.7273	5.e-002	8.012
11227	4.5313	4.4545	0.	2.7468e-002
11228	4.4406	4.5455	0.	3.1923e-002
11229	4.5313	4.5455	5.e-002	7.9008
11230	4.5313	4.2727	0.	1.752e-002
11231	4.4406	4.3636	0.	2.1237e-002
11232	4.5313	4.3636	5.e-002	7.7596
11233	4.5313	4.0909	0.	8.6014e-003
11234	4.4406	4.1818	0.	1.1717e-002
11235	4.5313	4.1818	5.e-002	7.5955
11236	4.5313	3.9091	0.	7.6212e-004
11237	4.4406	4.	0.	3.3171e-003
11238	4.5313	4.	5.e-002	7.4182
11239	4.5313	3.7273	0.	-5.8851e-003
11240	4.4406	3.8182	0.	-3.8959e-003
11241	4.5313	3.8182	5.e-002	7.2397
11242	4.5313	3.5455	0.	-1.1217e-002
11243	4.4406	3.6364	0.	-9.8291e-003
11244	4.5313	3.6364	5.e-002	7.0732
11245	4.5313	3.3636	0.	-1.5118e-002
11246	4.4406	3.4545	0.	-1.4383e-002
11247	4.5313	3.4545	5.e-002	6.9325
11248	4.5313	3.1818	0.	-1.7499e-002
11249	4.4406	3.2727	0.	-1.7473e-002
11250	4.5313	3.2727	5.e-002	6.8304
11251	4.5313	3.	0.	-1.8299e-002
11252	4.4406	3.0909	0.	-1.9035e-002
11253	4.5313	3.0909	5.e-002	6.7766
11254	4.5313	2.8182	0.	-1.7499e-002
11255	4.4406	2.9091	0.	-1.9035e-002
11256	4.5313	2.9091	5.e-002	6.7766
11257	4.5313	2.6364	0.	-1.5118e-002
11258	4.4406	2.7273	0.	-1.7473e-002
11259	4.5313	2.7273	5.e-002	6.8304
11260	4.5313	2.4545	0.	-1.1216e-002
11261	4.4406	2.5455	0.	-1.4383e-002
11262	4.5313	2.5455	5.e-002	6.9325
11263	4.5313	2.2727	0.	-5.885e-003
11264	4.4406	2.3636	0.	-9.8288e-003
11265	4.5313	2.3636	5.e-002	7.0732
11266	4.5313	2.0909	0.	7.6253e-004
11267	4.4406	2.1818	0.	-3.8956e-003
11268	4.5313	2.1818	5.e-002	7.2397
11269	4.5313	1.9091	0.	8.602e-003
11270	4.4406	2.	0.	3.3175e-003
11271	4.5313	2.	5.e-002	7.4183
11272	4.5313	1.7273	0.	1.7521e-002
11273	4.4406	1.8182	0.	1.1717e-002
11274	4.5313	1.8182	5.e-002	7.5954
11275	4.5313	1.5455	0.	2.7469e-002
11276	4.4406	1.6364	0.	2.1238e-002
11277	4.5313	1.6364	5.e-002	7.7596
11278	4.5313	1.3636	0.	3.8441e-002
11279	4.4406	1.4545	0.	3.1924e-002
11280	4.5313	1.4545	5.e-002	7.9008
11281	4.5313	1.1818	0.	5.0829e-002
11282	4.4406	1.2727	0.	4.3814e-002
11283	4.5313	1.2727	5.e-002	8.012
11284	4.5313	1.	0.	6.4585e-002
11285	4.4406	1.0909	0.	5.7823e-002
11286	4.5313	1.0909	5.e-002	8.0883
11287	4.5313	0.81818	0.	8.3904e-002
11288	4.4406	0.90909	0.	7.3107e-002
11289	4.5313	0.90909	5.e-002	8.1274
11290	4.5313	0.63636	0.	0.10102
11291	4.4406	0.72727	0.	9.9807e-002
11292	4.5313	0.72727	5.e-002	8.1292
11293	4.5313	0.45455	0.	0.18769
11294	4.4406	0.54545	0.	0.11236
11295	4.5313	0.54545	5.e-002	8.1026
11296	4.5313	0.27273	0.	0.27058
11297	4.4406	0.36364	0.	0.29428
11298	4.5313	0.36364	5.e-002	8.1612
11299	4.4406	0.18182	0.	0.37985
11300	4.5313	0.18182	5.e-002	10.151
11301	4.5313	9.0909e-002	0.	0.22275
11302	4.35	5.7273	0.	0.30327
11303	4.2594	5.8182	0.	0.43684
11304	4.35	5.8182	5.e-002	10.699
11305	4.35	5.9091	0.	0.24534
11306	4.35	5.5455	0.	0.2053
11307	4.2594	5.6364	0.	0.32595
11308	4.35	5.6364	5.e-002	8.2646
11309	4.35	5.3636	0.	0.10629
11310	4.2594	5.4545	0.	0.11977
11311	4.35	5.4545	5.e-002	8.1847
11312	4.35	5.1818	0.	8.6684e-002
11313	4.2594	5.2727	0.	0.1051
11314	4.35	5.2727	5.e-002	8.2172
11315	4.35	5.	0.	6.4991e-002
11316	4.2594	5.0909	0.	7.5019e-002
11317	4.35	5.0909	5.e-002	8.2267
11318	4.35	4.8182	0.	4.9915e-002
11319	4.2594	4.9091	0.	5.8109e-002
11320	4.35	4.9091	5.e-002	8.2023
11321	4.35	4.6364	0.	3.6649e-002
11322	4.2594	4.7273	0.	4.2906e-002
11323	4.35	4.7273	5.e-002	8.144
11324	4.35	4.4545	0.	2.5185e-002
11325	4.2594	4.5455	0.	3.0301e-002
11326	4.35	4.5455	5.e-002	8.054
11327	4.35	4.2727	0.	1.5013e-002
11328	4.2594	4.3636	0.	1.9208e-002
11329	4.35	4.3636	5.e-002	7.9368
11330	4.35	4.0909	0.	6.066e-003
11331	4.2594	4.1818	0.	9.5169e-003
11332	4.35	4.1818	5.e-002	7.7992
11333	4.35	3.9091	0.	-1.673e-003
11334	4.2594	4.	0.	1.111e-003
11335	4.35	4.	5.e-002	7.6498
11336	4.35	3.7273	0.	-8.1498e-003
11337	4.2594	3.8182	0.	-6.0032e-003
11338	4.35	3.8182	5.e-002	7.4992
11339	4.35	3.5455	0.	-1.3291e-002
11340	4.2594	3.6364	0.	-1.1787e-002
11341	4.35	3.6364	5.e-002	7.359
11342	4.35	3.3636	0.	-1.7025e-002
11343	4.2594	3.4545	0.	-1.6186e-002
11344	4.35	3.4545	5.e-002	7.2408
11345	4.35	3.1818	0.	-1.9293e-002
11346	4.2594	3.2727	0.	-1.9153e-002
11347	4.35	3.2727	5.e-002	7.1553
11348	4.35	3.	0.	-2.0053e-002
11349	4.2594	3.0909	0.	-2.0646e-002
11350	4.35	3.0909	5.e-002	7.1103
11351	4.35	2.8182	0.	-1.9293e-002
11352	4.2594	2.9091	0.	-2.0646e-002
11353	4.35	2.9091	5.e-002	7.1103
11354	4.35	2.6364	0.	-1.7025e-002
11355	4.2594	2.7273	0.	-1.9152e-002
11356	4.35	2.7273	5.e-002	7.1553
11357	4.35	2.4545	0.	-1.3291e-002
11358	4.2594	2.5455	0.	-1.6186e-002
11359	4.35	2.5455	5.e-002	7.2408
11360	4.35	2.2727	0.	-8.1493e-003
11361	4.2594	2.3636	0.	-1.1787e-002
11362	4.35	2.3636	5.e-002	7.359
11363	4.35	2.0909	0.	-1.6727e-003
11364	4.2594	2.1818	0.	-6.0029e-003
11365	4.35	2.1818	5.e-002	7.4992
11366	4.35	1.9091	0.	6.0664e-003
11367	4.2594	2.	0.	1.1114e-003
11368	4.35	2.	5.e-002	7.6498
11369	4.35	1.7273	0.	1.5014e-002
11370	4.2594	1.8182	0.	9.5173e-003
11371	4.35	1.8182	5.e-002	7.7992
11372	4.35	1.5455	0.	2.5186e-002
11373	4.2594	1.6364	0.	1.9208e-002
11374	4.35	1.6364	5.e-002	7.9368
11375	4.35	1.3636	0.	3.6649e-002
11376	4.2594	1.4545	0.	3.0302e-002
11377	4.35	1.4545	5.e-002	8.054
11378	4.35	1.1818	0.	4.9916e-002
11379	4.2594	1.2727	0.	4.2907e-002
11380	4.35	1.2727	5.e-002	8.144
11381	4.35	1.	0.	6.4992e-002
11382	4.2594	1.0909	0.	5.8109e-002
11383	4.35	1.0909	5.e-002	8.2023
11384	4.35	0.81818	0.	8.6685e-002
11385	4.2594	0.90909	0.	7.502e-002
11386	4.35	0.90909	5.e-002	8.2267
11387	4.35	0.63636	0.	0.1063
11388	4.2594	0.72727	0.	0.1051
11389	4.35	0.72727	5.e-002	8.2172
11390	4.35	0.45455	0.	0.2053
11391	4.2594	0.54545	0.	0.11977
11392	4.35	0.54545	5.e-002	8.1847
11393	4.35	0.27273	0.	0.30327
11394	4.2594	0.36364	0.	0.32595
11395	4.35	0.36364	5.e-002	8.2647
11396	4.2594	0.18182	0.	0.43684
11397	4.35	0.18182	5.e-002	10.699
11398	4.35	9.0909e-002	0.	0.24534
11399	4.1687	5.7273	0.	0.33999
11400	4.0781	5.8182	0.	0.50418
11401	4.1687	5.8182	5.e-002	11.341
11402	4.1687	5.9091	0.	0.26941
11403	4.1687	5.5455	0.	0.22484
11404	4.0781	5.6364	0.	0.36023
11405	4.1687	5.6364	5.e-002	8.4177
11406	4.1687	5.3636	0.	0.11311
11407	4.0781	5.4545	0.	0.12885
11408	4.1687	5.4545	5.e-002	8.3141
11409	4.1687	5.1818	0.	9.0837e-002
11410	4.0781	5.2727	0.	0.11182
11411	4.1687	5.2727	5.e-002	8.3512
11412	4.1687	5.	0.	6.6634e-002
11413	4.0781	5.0909	0.	7.8168e-002
11414	4.1687	5.0909	5.e-002	8.3697
11415	4.1687	4.8182	0.	5.0115e-002
11416	4.0781	4.9091	0.	5.9493e-002
11417	4.1687	4.9091	5.e-002	8.3571
11418	4.1687	4.6364	0.	3.585e-002
11419	4.0781	4.7273	0.	4.2969e-002
11420	4.1687	4.7273	5.e-002	8.3131
11421	4.1687	4.4545	0.	2.3775e-002
11422	4.0781	4.5455	0.	2.9531e-002
11423	4.1687	4.5455	5.e-002	8.2398
11424	4.1687	4.2727	0.	1.3262e-002
11425	4.0781	4.3636	0.	1.792e-002
11426	4.1687	4.3636	5.e-002	8.1416
11427	4.1687	4.0909	0.	4.1769e-003
11428	4.0781	4.1818	0.	7.9568e-003
11429	4.1687	4.1818	5.e-002	8.0248
11430	4.1687	3.9091	0.	-3.5621e-003
11431	4.0781	4.	0.	-5.4672e-004
11432	4.1687	4.	5.e-002	7.8974
11433	4.1687	3.7273	0.	-9.9555e-003
11434	4.0781	3.8182	0.	-7.6421e-003
11435	4.1687	3.8182	5.e-002	7.7688
11436	4.1687	3.5455	0.	-1.4978e-002
11437	4.0781	3.6364	0.	-1.3343e-002
11438	4.1687	3.6364	5.e-002	7.6491
11439	4.1687	3.3636	0.	-1.8598e-002
11440	4.0781	3.4545	0.	-1.7638e-002
11441	4.1687	3.4545	5.e-002	7.5484
11442	4.1687	3.1818	0.	-2.0785e-002
11443	4.0781	3.2727	0.	-2.0515e-002
11444	4.1687	3.2727	5.e-002	7.4757
11445	4.1687	3.	0.	-2.1516e-002
11446	4.0781	3.0909	0.	-2.1958e-002
11447	4.1687	3.0909	5.e-002	7.4375
11448	4.1687	2.8182	0.	-2.0785e-002
11449	4.0781	2.9091	0.	-2.1958e-002
11450	4.1687	2.9091	5.e-002	7.4375
11451	4.1687	2.6364	0.	-1.8598e-002
11452	4.0781	2.7273	0.	-2.0515e-002
11453	4.1687	2.7273	5.e-002	7.4757
11454	4.1687	2.4545	0.	-1.4978e-002
11455	4.0781	2.5455	0.	-1.7638e-002
11456	4.1687	2.5455	5.e-002	7.5484
11457	4.1687	2.2727	0.	-9.9553e-003
11458	4.0781	2.3636	0.	-1.3342e-002
11459	4.1687	2.3636	5.e-002	7.6491
11460	4.1687	2.0909	0.	-3.5618e-003
11461	4.0781	2.1818	0.	-7.6418e-003
11462	4.1687	2.1818	5.e-002	7.7688
11463	4.1687	1.9091	0.	4.1773e-003
11464	4.0781	2.	0.	-5.4628e-004
11465	4.1687	2.	5.e-002	7.8974
11466	4.1687	1.7273	0.	1.3263e-002
11467	4.0781	1.8182	0.	7.9573e-003
11468	4.1687	1.8182	5.e-002	8.0248
11469	4.1687	1.5455	0.	2.3776e-002
11470	4.0781	1.6364	0.	1.792e-002
11471	4.1687	1.6364	5.e-002	8.1416
11472	4.1687	1.3636	0.	3.585e-002
11473	4.0781	1.4545	0.	2.9532e-002
11474	4.1687	1.4545	5.e-002	8.2398
11475	4.1687	1.1818	0.	5.0116e-002
11476	4.0781	1.2727	0.	4.297e-002
11477	4.1687	1.2727	5.e-002	8.3131
11478	4.1687	1.	0.	6.6635e-002
11479	4.0781	1.0909	0.	5.9494e-002
11480	4.1687	1.0909	5.e-002	8.3571
11481	4.1687	0.81818	0.	9.0838e-002
11482	4.0781	0.90909	0.	7.817e-002
11483	4.1687	0.90909	5.e-002	8.3697
11484	4.1687	0.63636	0.	0.11311
11485	4.0781	0.72727	0.	0.11182
11486	4.1687	0.72727	5.e-002	8.3512
11487	4.1687	0.45455	0.	0.22484
11488	4.0781	0.54545	0.	0.12885
11489	4.1687	0.54545	5.e-002	8.3141
11490	4.1687	0.27273	0.	0.33999
11491	4.0781	0.36364	0.	0.36023
11492	4.1687	0.36364	5.e-002	8.4176
11493	4.0781	0.18182	0.	0.50418
11494	4.1687	0.18182	5.e-002	11.341
11495	4.1687	9.0909e-002	0.	0.26941
11496	3.9875	5.7273	0.	0.3815
11497	3.8969	5.8182	0.	0.58457
11498	3.9875	5.8182	5.e-002	12.068
11499	3.9875	5.9091	0.	0.29532
11500	3.9875	5.5455	0.	0.24648
11501	3.8969	5.6364	0.	0.39753
11502	3.9875	5.6364	5.e-002	8.6143
11503	3.9875	5.3636	0.	0.12141
11504	3.8969	5.4545	0.	0.13961
11505	3.9875	5.4545	5.e-002	8.4864
11506	3.9875	5.1818	0.	9.6252e-002
11507	3.8969	5.2727	0.	0.11991
11508	3.9875	5.2727	5.e-002	8.5278
11509	3.9875	5.	0.	6.9363e-002
11510	3.8969	5.0909	0.	8.245e-002
11511	3.9875	5.0909	5.e-002	8.5543
11512	3.9875	4.8182	0.	5.1264e-002
11513	3.8969	4.9091	0.	6.1846e-002
11514	3.9875	4.9091	5.e-002	8.5515
11515	3.9875	4.6364	0.	3.5877e-002
11516	3.8969	4.7273	0.	4.3864e-002
11517	3.9875	4.7273	5.e-002	8.519
11518	3.9875	4.4545	0.	2.3083e-002
11519	3.8969	4.5455	0.	2.9479e-002
11520	3.9875	4.5455	5.e-002	8.459
11521	3.9875	4.2727	0.	1.2133e-002
11522	3.8969	4.3636	0.	1.7254e-002
11523	3.9875	4.3636	5.e-002	8.3759
11524	3.9875	4.0909	0.	2.8255e-003
11525	3.8969	4.1818	0.	6.9387e-003
11526	3.9875	4.1818	5.e-002	8.2755
11527	3.9875	3.9091	0.	-4.9854e-003
11528	3.8969	4.	0.	-1.7279e-003
11529	3.9875	4.	5.e-002	8.1653
11530	3.9875	3.7273	0.	-1.1355e-002
11531	3.8969	3.8182	0.	-8.8571e-003
11532	3.9875	3.8182	5.e-002	8.0539
11533	3.9875	3.5455	0.	-1.6306e-002
11534	3.8969	3.6364	0.	-1.4515e-002
11535	3.9875	3.6364	5.e-002	7.9504
11536	3.9875	3.3636	0.	-1.9845e-002
11537	3.8969	3.4545	0.	-1.8737e-002
11538	3.9875	3.4545	5.e-002	7.8635
11539	3.9875	3.1818	0.	-2.197e-002
11540	3.8969	3.2727	0.	-2.1544e-002
11541	3.9875	3.2727	5.e-002	7.8007
11542	3.9875	3.	0.	-2.2679e-002
11543	3.8969	3.0909	0.	-2.2946e-002
11544	3.9875	3.0909	5.e-002	7.7678
11545	3.9875	2.8182	0.	-2.197e-002
11546	3.8969	2.9091	0.	-2.2946e-002
11547	3.9875	2.9091	5.e-002	7.7678
11548	3.9875	2.6364	0.	-1.9844e-002
11549	3.8969	2.7273	0.	-2.1544e-002
11550	3.9875	2.7273	5.e-002	7.8007
11551	3.9875	2.4545	0.	-1.6306e-002
11552	3.8969	2.5455	0.	-1.8737e-002
11553	3.9875	2.5455	5.e-002	7.8635
11554	3.9875	2.2727	0.	-1.1355e-002
11555	3.8969	2.3636	0.	-1.4515e-002
11556	3.9875	2.3636	5.e-002	7.9504
11557	3.9875	2.0909	0.	-4.985e-003
11558	3.8969	2.1818	0.	-8.8566e-003
11559	3.9875	2.1818	5.e-002	8.054
11560	3.9875	1.9091	0.	2.826e-003
11561	3.8969	2.	0.	-1.7275e-003
11562	3.9875	2.	5.e-002	8.1653
11563	3.9875	1.7273	0.	1.2134e-002
11564	3.8969	1.8182	0.	6.9391e-003
11565	3.9875	1.8182	5.e-002	8.2755
11566	3.9875	1.5455	0.	2.3083e-002
11567	3.8969	1.6364	0.	1.7254e-002
11568	3.9875	1.6364	5.e-002	8.3759
11569	3.9875	1.3636	0.	3.5878e-002
11570	3.8969	1.4545	0.	2.948e-002
11571	3.9875	1.4545	5.e-002	8.4591
11572	3.9875	1.1818	0.	5.1264e-002
11573	3.8969	1.2727	0.	4.3865e-002
11574	3.9875	1.2727	5.e-002	8.519
11575	3.9875	1.	0.	6.9364e-002
11576	3.8969	1.0909	0.	6.1847e-002
11577	3.9875	1.0909	5.e-002	8.5515
11578	3.9875	0.81818	0.	9.6252e-002
11579	3.8969	0.90909	0.	8.2451e-002
11580	3.9875	0.90909	5.e-002	8.5543
11581	3.9875	0.63636	0.	0.12141
11582	3.8969	0.72727	0.	0.11991
11583	3.9875	0.72727	5.e-002	8.5278
11584	3.9875	0.45455	0.	0.24648
11585	3.8969	0.54545	0.	0.13961
11586	3.9875	0.54545	5.e-002	8.4864
11587	3.9875	0.27273	0.	0.3815
11588	3.8969	0.36364	0.	0.39753
11589	3.9875	0.36364	5.e-002	8.6143
11590	3.8969	0.18182	0.	0.58457
11591	3.9875	0.18182	5.e-002	12.068
11592	3.9875	9.0909e-002	0.	0.29533
11593	3.8063	5.7273	0.	0.42873
11594	3.7156	5.8182	0.	0.68157
11595	3.8063	5.8182	5.e-002	12.877
11596	3.8063	5.9091	0.	0.32354
11597	3.8063	5.5455	0.	0.27043
11598	3.7156	5.6364	0.	0.43834
11599	3.8063	5.6364	5.e-002	8.8501
11600	3.8063	5.3636	0.	0.1312
11601	3.7156	5.4545	0.	0.15212
11602	3.8063	5.4545	5.e-002	8.6986
11603	3.8063	5.1818	0.	0.10288
11604	3.7156	5.2727	0.	0.12938
11605	3.8063	5.2727	5.e-002	8.745
11606	3.8063	5.	0.	7.3088e-002
11607	3.7156	5.0909	0.	8.7808e-002
11608	3.8063	5.0909	5.e-002	8.7794
11609	3.8063	4.8182	0.	5.3253e-002
11610	3.7156	4.9091	0.	6.5086e-002
11611	3.8063	4.9091	5.e-002	8.7853
11612	3.8063	4.6364	0.	3.6619e-002
11613	3.7156	4.7273	0.	4.5497e-002
11614	3.8063	4.7273	5.e-002	8.7625
11615	3.8063	4.4545	0.	2.3006e-002
11616	3.7156	4.5455	0.	3.0055e-002
11617	3.8063	4.5455	5.e-002	8.7133
11618	3.8063	4.2727	0.	1.1541e-002
11619	3.7156	4.3636	0.	1.7132e-002
11620	3.8063	4.3636	5.e-002	8.6421
11621	3.8063	4.0909	0.	1.9497e-003
11622	3.7156	4.1818	0.	6.4062e-003
11623	3.8063	4.1818	5.e-002	8.5547
11624	3.8063	3.9091	0.	-5.9792e-003
11625	3.7156	4.	0.	-2.4638e-003
11626	3.8063	4.	5.e-002	8.4583
11627	3.8063	3.7273	0.	-1.2359e-002
11628	3.7156	3.8182	0.	-9.653e-003
11629	3.8063	3.8182	5.e-002	8.3606
11630	3.8063	3.5455	0.	-1.7262e-002
11631	3.7156	3.6364	0.	-1.5285e-002
11632	3.8063	3.6364	5.e-002	8.27
11633	3.8063	3.3636	0.	-2.0735e-002
11634	3.7156	3.4545	0.	-1.9442e-002
11635	3.8063	3.4545	5.e-002	8.194
11636	3.8063	3.1818	0.	-2.281e-002
11637	3.7156	3.2727	0.	-2.2185e-002
11638	3.8063	3.2727	5.e-002	8.1393
11639	3.8063	3.	0.	-2.3499e-002
11640	3.7156	3.0909	0.	-2.3548e-002
11641	3.8063	3.0909	5.e-002	8.1107
11642	3.8063	2.8182	0.	-2.281e-002
11643	3.7156	2.9091	0.	-2.3548e-002
11644	3.8063	2.9091	5.e-002	8.1107
11645	3.8063	2.6364	0.	-2.0735e-002
11646	3.7156	2.7273	0.	-2.2185e-002
11647	3.8063	2.7273	5.e-002	8.1393
11648	3.8063	2.4545	0.	-1.7262e-002
11649	3.7156	2.5455	0.	-1.9442e-002
11650	3.8063	2.5455	5.e-002	8.194
11651	3.8063	2.2727	0.	-1.2358e-002
11652	3.7156	2.3636	0.	-1.5285e-002
11653	3.8063	2.3636	5.e-002	8.27
11654	3.8063	2.0909	0.	-5.9788e-003
11655	3.7156	2.1818	0.	-9.6526e-003
11656	3.8063	2.1818	5.e-002	8.3606
11657	3.8063	1.9091	0.	1.9502e-003
11658	3.7156	2.	0.	-2.4634e-003
11659	3.8063	2.	5.e-002	8.4583
11660	3.8063	1.7273	0.	1.1541e-002
11661	3.7156	1.8182	0.	6.4067e-003
11662	3.8063	1.8182	5.e-002	8.5547
11663	3.8063	1.5455	0.	2.3006e-002
11664	3.7156	1.6364	0.	1.7133e-002
11665	3.8063	1.6364	5.e-002	8.6421
11666	3.8063	1.3636	0.	3.662e-002
11667	3.7156	1.4545	0.	3.0055e-002
11668	3.8063	1.4545	5.e-002	8.7133
11669	3.8063	1.1818	0.	5.3254e-002
11670	3.7156	1.2727	0.	4.5497e-002
11671	3.8063	1.2727	5.e-002	8.7625
11672	3.8063	1.	0.	7.3089e-002
11673	3.7156	1.0909	0.	6.5086e-002
11674	3.8063	1.0909	5.e-002	8.7853
11675	3.8063	0.81818	0.	0.10288
11676	3.7156	0.90909	0.	8.7809e-002
11677	3.8063	0.90909	5.e-002	8.7794
11678	3.8063	0.63636	0.	0.1312
11679	3.7156	0.72727	0.	0.12938
11680	3.8063	0.72727	5.e-002	8.745
11681	3.8063	0.45455	0.	0.27043
11682	3.7156	0.54545	0.	0.15212
11683	3.8063	0.54545	5.e-002	8.6986
11684	3.8063	0.27273	0.	0.42873
11685	3.7156	0.36364	0.	0.43834
11686	3.8063	0.36364	5.e-002	8.8501
11687	3.7156	0.18182	0.	0.68158
11688	3.8063	0.18182	5.e-002	12.877
11689	3.8063	9.0909e-002	0.	0.32354
11690	3.625	5.7273	0.	0.48281
11691	3.5344	5.8182	0.	0.7999
11692	3.625	5.8182	5.e-002	13.761
11693	3.625	5.9091	0.	0.35464
11694	3.625	5.5455	0.	0.29697
11695	3.5344	5.6364	0.	0.48323
11696	3.625	5.6364	5.e-002	9.1221
11697	3.625	5.3636	0.	0.14254
11698	3.5344	5.4545	0.	0.16652
11699	3.625	5.4545	5.e-002	8.9492
11700	3.625	5.1818	0.	0.1107
11701	3.5344	5.2727	0.	0.14027
11702	3.625	5.2727	5.e-002	9.0023
11703	3.625	5.	0.	7.7758e-002
11704	3.5344	5.0909	0.	9.4219e-002
11705	3.625	5.0909	5.e-002	9.0452
11706	3.625	4.8182	0.	5.6011e-002
11707	3.5344	4.9091	0.	6.9158e-002
11708	3.625	4.9091	5.e-002	9.0596
11709	3.625	4.6364	0.	3.8001e-002
11710	3.5344	4.7273	0.	4.7802e-002
11711	3.625	4.7273	5.e-002	9.0453
11712	3.625	4.4545	0.	2.3477e-002
11713	3.5344	4.5455	0.	3.1195e-002
11714	3.625	4.5455	5.e-002	9.0051
11715	3.625	4.2727	0.	1.1435e-002
11716	3.5344	4.3636	0.	1.7509e-002
11717	3.625	4.3636	5.e-002	8.9436
11718	3.625	4.0909	0.	1.5234e-003
11719	3.5344	4.1818	0.	6.3358e-003
11720	3.625	4.1818	5.e-002	8.8667
11721	3.625	3.9091	0.	-6.5438e-003
11722	3.5344	4.	0.	-2.7514e-003
11723	3.625	4.	5.e-002	8.7814
11724	3.625	3.7273	0.	-1.2942e-002
11725	3.5344	3.8182	0.	-9.9995e-003
11726	3.625	3.8182	5.e-002	8.695
11727	3.625	3.5455	0.	-1.7799e-002
11728	3.5344	3.6364	0.	-1.5597e-002
11729	3.625	3.6364	5.e-002	8.615
11730	3.625	3.3636	0.	-2.1206e-002
11731	3.5344	3.4545	0.	-1.9679e-002
11732	3.625	3.4545	5.e-002	8.5481
11733	3.625	3.1818	0.	-2.3226e-002
11734	3.5344	3.2727	0.	-2.2347e-002
11735	3.625	3.2727	5.e-002	8.5001
11736	3.625	3.	0.	-2.3896e-002
11737	3.5344	3.0909	0.	-2.3665e-002
11738	3.625	3.0909	5.e-002	8.4751
11739	3.625	2.8182	0.	-2.3226e-002
11740	3.5344	2.9091	0.	-2.3665e-002
11741	3.625	2.9091	5.e-002	8.4751
11742	3.625	2.6364	0.	-2.1206e-002
11743	3.5344	2.7273	0.	-2.2347e-002
11744	3.625	2.7273	5.e-002	8.5001
11745	3.625	2.4545	0.	-1.7798e-002
11746	3.5344	2.5455	0.	-1.9678e-002
11747	3.625	2.5455	5.e-002	8.5481
11748	3.625	2.2727	0.	-1.2942e-002
11749	3.5344	2.3636	0.	-1.5596e-002
11750	3.625	2.3636	5.e-002	8.615
11751	3.625	2.0909	0.	-6.5434e-003
11752	3.5344	2.1818	0.	-9.9993e-003
11753	3.625	2.1818	5.e-002	8.695
11754	3.625	1.9091	0.	1.5238e-003
11755	3.5344	2.	0.	-2.7511e-003
11756	3.625	2.	5.e-002	8.7814
11757	3.625	1.7273	0.	1.1436e-002
11758	3.5344	1.8182	0.	6.3361e-003
11759	3.625	1.8182	5.e-002	8.8667
11760	3.625	1.5455	0.	2.3478e-002
11761	3.5344	1.6364	0.	1.7509e-002
11762	3.625	1.6364	5.e-002	8.9436
11763	3.625	1.3636	0.	3.8002e-002
11764	3.5344	1.4545	0.	3.1196e-002
11765	3.625	1.4545	5.e-002	9.0051
11766	3.625	1.1818	0.	5.6012e-002
11767	3.5344	1.2727	0.	4.7803e-002
11768	3.625	1.2727	5.e-002	9.0453
11769	3.625	1.	0.	7.7758e-002
11770	3.5344	1.0909	0.	6.9159e-002
11771	3.625	1.0909	5.e-002	9.0596
11772	3.625	0.81818	0.	0.1107
11773	3.5344	0.90909	0.	9.4221e-002
11774	3.625	0.90909	5.e-002	9.0452
11775	3.625	0.63636	0.	0.14254
11776	3.5344	0.72727	0.	0.14027
11777	3.625	0.72727	5.e-002	9.0023
11778	3.625	0.45455	0.	0.29697
11779	3.5344	0.54545	0.	0.16652
11780	3.625	0.54545	5.e-002	8.9492
11781	3.625	0.27273	0.	0.48282
11782	3.5344	0.36364	0.	0.48324
11783	3.625	0.36364	5.e-002	9.1221
11784	3.5344	0.18182	0.	0.79991
11785	3.625	0.18182	5.e-002	13.761
11786	3.625	9.0909e-002	0.	0.35464
11787	3.4437	5.7273	0.	0.54518
11788	3.3531	5.8182	0.	0.94598
11789	3.4437	5.8182	5.e-002	14.717
11790	3.4437	5.9091	0.	0.38937
11791	3.4437	5.5455	0.	0.32643
11792	3.3531	5.6364	0.	0.5329
11793	3.4437	5.6364	5.e-002	9.4284
11794	3.4437	5.3636	0.	0.15551
11795	3.3531	5.4545	0.	0.18298
11796	3.4437	5.4545	5.e-002	9.238
11797	3.4437	5.1818	0.	0.11975
11798	3.3531	5.2727	0.	0.15265
11799	3.4437	5.2727	5.e-002	9.3005
11800	3.4437	5.	0.	8.3342e-002
11801	3.3531	5.0909	0.	0.10168
11802	3.4437	5.0909	5.e-002	9.3534
11803	3.4437	4.8182	0.	5.9489e-002
11804	3.3531	4.9091	0.	7.403e-002
11805	3.4437	4.9091	5.e-002	9.3765
11806	3.4437	4.6364	0.	3.9969e-002
11807	3.3531	4.7273	0.	5.0734e-002
11808	3.4437	4.7273	5.e-002	9.3702
11809	3.4437	4.4545	0.	2.4454e-002
11810	3.3531	4.5455	0.	3.2861e-002
11811	3.4437	4.5455	5.e-002	9.3379
11812	3.4437	4.2727	0.	1.1795e-002
11813	3.3531	4.3636	0.	1.8361e-002
11814	3.4437	4.3636	5.e-002	9.2845
11815	3.4437	4.0909	0.	1.5514e-003
11816	3.3531	4.1818	0.	6.7318e-003
11817	3.4437	4.1818	5.e-002	9.2164
11818	3.4437	3.9091	0.	-6.6457e-003
11819	3.3531	4.	0.	-2.5556e-003
11820	3.4437	4.	5.e-002	9.1405
11821	3.4437	3.7273	0.	-1.3044e-002
11822	3.3531	3.8182	0.	-9.8313e-003
11823	3.4437	3.8182	5.e-002	9.0637
11824	3.4437	3.5455	0.	-1.7832e-002
11825	3.3531	3.6364	0.	-1.5357e-002
11826	3.4437	3.6364	5.e-002	8.993
11827	3.4437	3.3636	0.	-2.1153e-002
11828	3.3531	3.4545	0.	-1.9331e-002
11829	3.4437	3.4545	5.e-002	8.9341
11830	3.4437	3.1818	0.	-2.3107e-002
11831	3.3531	3.2727	0.	-2.19e-002
11832	3.4437	3.2727	5.e-002	8.8921
11833	3.4437	3.	0.	-2.3752e-002
11834	3.3531	3.0909	0.	-2.3161e-002
11835	3.4437	3.0909	5.e-002	8.8701
11836	3.4437	2.8182	0.	-2.3107e-002
11837	3.3531	2.9091	0.	-2.3161e-002
11838	3.4437	2.9091	5.e-002	8.8701
11839	3.4437	2.6364	0.	-2.1153e-002
11840	3.3531	2.7273	0.	-2.19e-002
11841	3.4437	2.7273	5.e-002	8.8921
11842	3.4437	2.4545	0.	-1.7832e-002
11843	3.3531	2.5455	0.	-1.9331e-002
11844	3.4437	2.5455	5.e-002	8.9341
11845	3.4437	2.2727	0.	-1.3043e-002
11846	3.3531	2.3636	0.	-1.5357e-002
11847	3.4437	2.3636	5.e-002	8.993
11848	3.4437	2.0909	0.	-6.6454e-003
11849	3.3531	2.1818	0.	-9.8311e-003
11850	3.4437	2.1818	5.e-002	9.0638
11851	3.4437	1.9091	0.	1.5517e-003
11852	3.3531	2.	0.	-2.5552e-003
11853	3.4437	2.	5.e-002	9.1405
11854	3.4437	1.7273	0.	1.1795e-002
11855	3.3531	1.8182	0.	6.7322e-003
11856	3.4437	1.8182	5.e-002	9.2164
11857	3.4437	1.5455	0.	2.4455e-002
11858	3.3531	1.6364	0.	1.8361e-002
11859	3.4437	1.6364	5.e-002	9.2845
11860	3.4437	1.3636	0.	3.997e-002
11861	3.3531	1.4545	0.	3.2861e-002
11862	3.4437	1.4545	5.e-002	9.3379
11863	3.4437	1.1818	0.	5.9489e-002
11864	3.3531	1.2727	0.	5.0734e-002
11865	3.4437	1.2727	5.e-002	9.3702
11866	3.4437	1.	0.	8.3343e-002
11867	3.3531	1.0909	0.	7.4031e-002
11868	3.4437	1.0909	5.e-002	9.3765
11869	3.4437	0.81818	0.	0.11975
11870	3.3531	0.90909	0.	0.10168
11871	3.4437	0.90909	5.e-002	9.3534
11872	3.4437	0.63636	0.	0.15551
11873	3.3531	0.72727	0.	0.15265
11874	3.4437	0.72727	5.e-002	9.3005
11875	3.4437	0.45455	0.	0.32643
11876	3.3531	0.54545	0.	0.18298
11877	3.4437	0.54545	5.e-002	9.238
11878	3.4437	0.27273	0.	0.54518
11879	3.3531	0.36364	0.	0.5329
11880	3.4437	0.36364	5.e-002	9.4283
11881	3.3531	0.18182	0.	0.94598
11882	3.4437	0.18182	5.e-002	14.717
11883	3.4437	9.0909e-002	0.	0.38938
11884	3.2625	5.7273	0.	0.61759
11885	3.1719	5.8182	0.	1.1287
11886	3.2625	5.8182	5.e-002	15.741
11887	3.2625	5.9091	0.	0.42879
11888	3.2625	5.5455	0.	0.35922
11889	3.1719	5.6364	0.	0.58812
11890	3.2625	5.6364	5.e-002	9.7683
11891	3.2625	5.3636	0.	0.17026
11892	3.1719	5.4545	0.	0.20171
11893	3.2625	5.4545	5.e-002	9.5663
11894	3.2625	5.1818	0.	0.13006
11895	3.1719	5.2727	0.	0.16662
11896	3.2625	5.2727	5.e-002	9.6418
11897	3.2625	5.	0.	8.983e-002
11898	3.1719	5.0909	0.	0.11022
11899	3.2625	5.0909	5.e-002	9.7068
11900	3.2625	4.8182	0.	6.3651e-002
11901	3.1719	4.9091	0.	7.9679e-002
11902	3.2625	4.9091	5.e-002	9.7396
11903	3.2625	4.6364	0.	4.2487e-002
11904	3.1719	4.7273	0.	5.4257e-002
11905	3.2625	4.7273	5.e-002	9.7412
11906	3.2625	4.4545	0.	2.5914e-002
11907	3.1719	4.5455	0.	3.5026e-002
11908	3.2625	4.5455	5.e-002	9.7159
11909	3.2625	4.2727	0.	1.2623e-002
11910	3.1719	4.3636	0.	1.9689e-002
11911	3.2625	4.3636	5.e-002	9.6697
11912	3.2625	4.0909	0.	2.0677e-003
11913	3.1719	4.1818	0.	7.6279e-003
11914	3.2625	4.1818	5.e-002	9.6093
11915	3.2625	3.9091	0.	-6.218e-003
11916	3.1719	4.	0.	-1.8068e-003
11917	3.2625	4.	5.e-002	9.5418
11918	3.2625	3.7273	0.	-1.2566e-002
11919	3.1719	3.8182	0.	-9.0445e-003
11920	3.2625	3.8182	5.e-002	9.4741
11921	3.2625	3.5455	0.	-1.7239e-002
11922	3.1719	3.6364	0.	-1.4434e-002
11923	3.2625	3.6364	5.e-002	9.412
11924	3.2625	3.3636	0.	-2.0436e-002
11925	3.1719	3.4545	0.	-1.8244e-002
11926	3.2625	3.4545	5.e-002	9.3608
11927	3.2625	3.1818	0.	-2.2298e-002
11928	3.1719	3.2727	0.	-2.0674e-002
11929	3.2625	3.2727	5.e-002	9.3244
11930	3.2625	3.	0.	-2.291e-002
11931	3.1719	3.0909	0.	-2.1856e-002
11932	3.2625	3.0909	5.e-002	9.3056
11933	3.2625	2.8182	0.	-2.2298e-002
11934	3.1719	2.9091	0.	-2.1856e-002
11935	3.2625	2.9091	5.e-002	9.3056
11936	3.2625	2.6364	0.	-2.0436e-002
11937	3.1719	2.7273	0.	-2.0674e-002
11938	3.2625	2.7273	5.e-002	9.3244
11939	3.2625	2.4545	0.	-1.7239e-002
11940	3.1719	2.5455	0.	-1.8243e-002
11941	3.2625	2.5455	5.e-002	9.3608
11942	3.2625	2.2727	0.	-1.2566e-002
11943	3.1719	2.3636	0.	-1.4434e-002
11944	3.2625	2.3636	5.e-002	9.412
11945	3.2625	2.0909	0.	-6.2177e-003
11946	3.1719	2.1818	0.	-9.0442e-003
11947	3.2625	2.1818	5.e-002	9.4741
11948	3.2625	1.9091	0.	2.0681e-003
11949	3.1719	2.	0.	-1.8064e-003
11950	3.2625	2.	5.e-002	9.5419
11951	3.2625	1.7273	0.	1.2623e-002
11952	3.1719	1.8182	0.	7.6283e-003
11953	3.2625	1.8182	5.e-002	9.6093
11954	3.2625	1.5455	0.	2.5915e-002
11955	3.1719	1.6364	0.	1.969e-002
11956	3.2625	1.6364	5.e-002	9.6697
11957	3.2625	1.3636	0.	4.2487e-002
11958	3.1719	1.4545	0.	3.5027e-002
11959	3.2625	1.4545	5.e-002	9.716
11960	3.2625	1.1818	0.	6.3651e-002
11961	3.1719	1.2727	0.	5.4258e-002
11962	3.2625	1.2727	5.e-002	9.7412
11963	3.2625	1.	0.	8.9831e-002
11964	3.1719	1.0909	0.	7.968e-002
11965	3.2625	1.0909	5.e-002	9.7397
11966	3.2625	0.81818	0.	0.13006
11967	3.1719	0.90909	0.	0.11022
11968	3.2625	0.90909	5.e-002	9.7068
11969	3.2625	0.63636	0.	0.17026
11970	3.1719	0.72727	0.	0.16662
11971	3.2625	0.72727	5.e-002	9.6418
11972	3.2625	0.45455	0.	0.35922
11973	3.1719	0.54545	0.	0.20171
11974	3.2625	0.54545	5.e-002	9.5663
11975	3.2625	0.27273	0.	0.61759
11976	3.1719	0.36364	0.	0.58812
11977	3.2625	0.36364	5.e-002	9.7683
11978	3.1719	0.18182	0.	1.1287
11979	3.2625	0.18182	5.e-002	15.741
11980	3.2625	9.0909e-002	0.	0.42879
11981	3.0812	5.7273	0.	0.70225
11982	2.9906	5.8182	0.	1.3606
11983	3.0812	5.8182	5.e-002	16.829
11984	3.0812	5.9091	0.	0.47437
11985	3.0812	5.5455	0.	0.3958
11986	2.9906	5.6364	0.	0.64985
11987	3.0812	5.6364	5.e-002	10.143
11988	3.0812	5.3636	0.	0.18693
11989	2.9906	5.4545	0.	0.223
11990	3.0812	5.4545	5.e-002	9.9372
11991	3.0812	5.1818	0.	0.1417
11992	2.9906	5.2727	0.	0.18231
11993	3.0812	5.2727	5.e-002	10.03
11994	3.0812	5.	0.	9.722e-002
11995	2.9906	5.0909	0.	0.11984
11996	3.0812	5.0909	5.e-002	10.11
11997	3.0812	4.8182	0.	6.8471e-002
11998	2.9906	4.9091	0.	8.6087e-002
11999	3.0812	4.9091	5.e-002	10.154
12000	3.0812	4.6364	0.	4.5529e-002
12001	2.9906	4.7273	0.	5.8345e-002
12002	3.0812	4.7273	5.e-002	10.164
12003	3.0812	4.4545	0.	2.7854e-002
12004	2.9906	4.5455	0.	3.7682e-002
12005	3.0812	4.5455	5.e-002	10.145
12006	3.0812	4.2727	0.	1.3948e-002
12007	2.9906	4.3636	0.	2.1518e-002
12008	3.0812	4.3636	5.e-002	10.105
12009	3.0812	4.0909	0.	3.1406e-003
12010	2.9906	4.1818	0.	9.0899e-003
12011	3.0812	4.1818	5.e-002	10.052
12012	3.0812	3.9091	0.	-5.1548e-003
12013	2.9906	4.	0.	-3.9674e-004
12014	3.0812	4.	5.e-002	9.9927
12015	3.0812	3.7273	0.	-1.1371e-002
12016	2.9906	3.8182	0.	-7.4928e-003
12017	3.0812	3.8182	5.e-002	9.9339
12018	3.0812	3.5455	0.	-1.5853e-002
12019	2.9906	3.6364	0.	-1.265e-002
12020	3.0812	3.6364	5.e-002	9.8809
12021	3.0812	3.3636	0.	-1.8867e-002
12022	2.9906	3.4545	0.	-1.6216e-002
12023	3.0812	3.4545	5.e-002	9.8377
12024	3.0812	3.1818	0.	-2.0602e-002
12025	2.9906	3.2727	0.	-1.8452e-002
12026	3.0812	3.2727	5.e-002	9.8073
12027	3.0812	3.	0.	-2.1167e-002
12028	2.9906	3.0909	0.	-1.9527e-002
12029	3.0812	3.0909	5.e-002	9.7916
12030	3.0812	2.8182	0.	-2.0602e-002
12031	2.9906	2.9091	0.	-1.9527e-002
12032	3.0812	2.9091	5.e-002	9.7916
12033	3.0812	2.6364	0.	-1.8867e-002
12034	2.9906	2.7273	0.	-1.8452e-002
12035	3.0812	2.7273	5.e-002	9.8073
12036	3.0812	2.4545	0.	-1.5853e-002
12037	2.9906	2.5455	0.	-1.6216e-002
12038	3.0812	2.5455	5.e-002	9.8377
12039	3.0812	2.2727	0.	-1.137e-002
12040	2.9906	2.3636	0.	-1.265e-002
12041	3.0812	2.3636	5.e-002	9.8809
12042	3.0812	2.0909	0.	-5.1545e-003
12043	2.9906	2.1818	0.	-7.4926e-003
12044	3.0812	2.1818	5.e-002	9.9339
12045	3.0812	1.9091	0.	3.141e-003
12046	2.9906	2.	0.	-3.964e-004
12047	3.0812	2.	5.e-002	9.9928
12048	3.0812	1.7273	0.	1.3949e-002
12049	2.9906	1.8182	0.	9.0903e-003
12050	3.0812	1.8182	5.e-002	10.052
12051	3.0812	1.5455	0.	2.7854e-002
12052	2.9906	1.6364	0.	2.1518e-002
12053	3.0812	1.6364	5.e-002	10.105
12054	3.0812	1.3636	0.	4.5529e-002
12055	2.9906	1.4545	0.	3.7683e-002
12056	3.0812	1.4545	5.e-002	10.145
12057	3.0812	1.1818	0.	6.8472e-002
12058	2.9906	1.2727	0.	5.8346e-002
12059	3.0812	1.2727	5.e-002	10.164
12060	3.0812	1.	0.	9.7221e-002
12061	2.9906	1.0909	0.	8.6088e-002
12062	3.0812	1.0909	5.e-002	10.154
12063	3.0812	0.81818	0.	0.1417
12064	2.9906	0.90909	0.	0.11984
12065	3.0812	0.90909	5.e-002	10.11
12066	3.0812	0.63636	0.	0.18693
12067	2.9906	0.72727	0.	0.18231
12068	3.0812	0.72727	5.e-002	10.03
12069	3.0812	0.45455	0.	0.3958
12070	2.9906	0.54545	0.	0.223
12071	3.0812	0.54545	5.e-002	9.9372
12072	3.0812	0.27273	0.	0.70225
12073	2.9906	0.36364	0.	0.64985
12074	3.0812	0.36364	5.e-002	10.143
12075	2.9906	0.18182	0.	1.3606
12076	3.0812	0.18182	5.e-002	16.829
12077	3.0812	9.0909e-002	0.	0.47437
12078	2.9	5.7273	0.	0.80199
12079	2.8094	5.8182	0.	1.6603
12080	2.9	5.8182	5.e-002	17.976
12081	2.9	5.9091	0.	0.5284
12082	2.9	5.5455	0.	0.43675
12083	2.8094	5.6364	0.	0.71924
12084	2.9	5.6364	5.e-002	10.554
12085	2.9	5.3636	0.	0.20573
12086	2.8094	5.4545	0.	0.24717
12087	2.9	5.4545	5.e-002	10.357
12088	2.9	5.1818	0.	0.15473
12089	2.8094	5.2727	0.	0.19986
12090	2.9	5.2727	5.e-002	10.473
12091	2.9	5.	0.	0.10551
12092	2.8094	5.0909	0.	0.1306
12093	2.9	5.0909	5.e-002	10.571
12094	2.9	4.8182	0.	7.3926e-002
12095	2.8094	4.9091	0.	9.3244e-002
12096	2.9	4.9091	5.e-002	10.626
12097	2.9	4.6364	0.	4.908e-002
12098	2.8094	4.7273	0.	6.2985e-002
12099	2.9	4.7273	5.e-002	10.644
12100	2.9	4.4545	0.	3.0289e-002
12101	2.8094	4.5455	0.	4.0844e-002
12102	2.9	4.5455	5.e-002	10.631
12103	2.9	4.2727	0.	1.5831e-002
12104	2.8094	4.3636	0.	2.3908e-002
12105	2.9	4.3636	5.e-002	10.598
12106	2.9	4.0909	0.	4.8753e-003
12107	2.8094	4.1818	0.	1.1231e-002
12108	2.9	4.1818	5.e-002	10.552
12109	2.9	3.9091	0.	-3.3077e-003
12110	2.8094	4.	0.	1.8362e-003
12111	2.9	4.	5.e-002	10.501
12112	2.9	3.7273	0.	-9.2721e-003
12113	2.8094	3.8182	0.	-4.9739e-003
12114	2.9	3.8182	5.e-002	10.452
12115	2.9	3.5455	0.	-1.3462e-002
12116	2.8094	3.6364	0.	-9.7707e-003
12117	2.9	3.6364	5.e-002	10.409
12118	2.9	3.3636	0.	-1.6217e-002
12119	2.8094	3.4545	0.	-1.2993e-002
12120	2.9	3.4545	5.e-002	10.375
12121	2.9	3.1818	0.	-1.7775e-002
12122	2.8094	3.2727	0.	-1.4967e-002
12123	2.9	3.2727	5.e-002	10.352
12124	2.9	3.	0.	-1.8279e-002
12125	2.8094	3.0909	0.	-1.5901e-002
12126	2.9	3.0909	5.e-002	10.34
12127	2.9	2.8182	0.	-1.7775e-002
12128	2.8094	2.9091	0.	-1.5901e-002
12129	2.9	2.9091	5.e-002	10.34
12130	2.9	2.6364	0.	-1.6217e-002
12131	2.8094	2.7273	0.	-1.4966e-002
12132	2.9	2.7273	5.e-002	10.352
12133	2.9	2.4545	0.	-1.3462e-002
12134	2.8094	2.5455	0.	-1.2993e-002
12135	2.9	2.5455	5.e-002	10.375
12136	2.9	2.2727	0.	-9.2718e-003
12137	2.8094	2.3636	0.	-9.7706e-003
12138	2.9	2.3636	5.e-002	10.409
12139	2.9	2.0909	0.	-3.3074e-003
12140	2.8094	2.1818	0.	-4.9737e-003
12141	2.9	2.1818	5.e-002	10.452
12142	2.9	1.9091	0.	4.8756e-003
12143	2.8094	2.	0.	1.8365e-003
12144	2.9	2.	5.e-002	10.501
12145	2.9	1.7273	0.	1.5831e-002
12146	2.8094	1.8182	0.	1.1231e-002
12147	2.9	1.8182	5.e-002	10.552
12148	2.9	1.5455	0.	3.029e-002
12149	2.8094	1.6364	0.	2.3909e-002
12150	2.9	1.6364	5.e-002	10.598
12151	2.9	1.3636	0.	4.9081e-002
12152	2.8094	1.4545	0.	4.0845e-002
12153	2.9	1.4545	5.e-002	10.631
12154	2.9	1.1818	0.	7.3927e-002
12155	2.8094	1.2727	0.	6.2986e-002
12156	2.9	1.2727	5.e-002	10.644
12157	2.9	1.	0.	0.10551
12158	2.8094	1.0909	0.	9.3245e-002
12159	2.9	1.0909	5.e-002	10.626
12160	2.9	0.81818	0.	0.15473
12161	2.8094	0.90909	0.	0.1306
12162	2.9	0.90909	5.e-002	10.571
12163	2.9	0.63636	0.	0.20573
12164	2.8094	0.72727	0.	0.19987
12165	2.9	0.72727	5.e-002	10.473
12166	2.9	0.45455	0.	0.43676
12167	2.8094	0.54545	0.	0.24717
12168	2.9	0.54545	5.e-002	10.357
12169	2.9	0.27273	0.	0.80199
12170	2.8094	0.36364	0.	0.71924
12171	2.9	0.36364	5.e-002	10.554
12172	2.8094	0.18182	0.	1.6603
12173	2.9	0.18182	5.e-002	17.976
12174	2.9	9.0909e-002	0.	0.52841
12175	2.7188	5.7273	0.	0.92044
12176	2.6281	5.8182	0.	2.0556
12177	2.7188	5.8182	5.e-002	19.175
12178	2.7188	5.9091	0.	0.59459
12179	2.7188	5.5455	0.	0.48276
12180	2.6281	5.6364	0.	0.79768
12181	2.7188	5.6364	5.e-002	11.007
12182	2.7188	5.3636	0.	0.2269
12183	2.6281	5.4545	0.	0.27464
12184	2.7188	5.4545	5.e-002	10.833
12185	2.7188	5.1818	0.	0.16925
12186	2.6281	5.2727	0.	0.21946
12187	2.7188	5.2727	5.e-002	10.979
12188	2.7188	5.	0.	0.11472
12189	2.6281	5.0909	0.	0.14251
12190	2.7188	5.0909	5.e-002	11.098
12191	2.7188	4.8182	0.	8.0008e-002
12192	2.6281	4.9091	0.	0.10113
12193	2.7188	4.9091	5.e-002	11.166
12194	2.7188	4.6364	0.	5.3153e-002
12195	2.6281	4.7273	0.	6.8163e-002
12196	2.7188	4.7273	5.e-002	11.191
12197	2.7188	4.4545	0.	3.3278e-002
12198	2.6281	4.5455	0.	4.4544e-002
12199	2.7188	4.5455	5.e-002	11.183
12200	2.7188	4.2727	0.	1.8383e-002
12201	2.6281	4.3636	0.	2.6955e-002
12202	2.7188	4.3636	5.e-002	11.155
12203	2.7188	4.0909	0.	7.4406e-003
12204	2.6281	4.1818	0.	1.4208e-002
12205	2.7188	4.1818	5.e-002	11.117
12206	2.7188	3.9091	0.	-4.6115e-004
12207	2.6281	4.	0.	5.1016e-003
12208	2.7188	4.	5.e-002	11.076
12209	2.7188	3.7273	0.	-6.0195e-003
12210	2.6281	3.8182	0.	-1.2393e-003
12211	2.7188	3.8182	5.e-002	11.039
12212	2.7188	3.5455	0.	-9.7904e-003
12213	2.6281	3.6364	0.	-5.5232e-003
12214	2.7188	3.6364	5.e-002	11.008
12215	2.7188	3.3636	0.	-1.2193e-002
12216	2.6281	3.4545	0.	-8.2875e-003
12217	2.7188	3.4545	5.e-002	10.984
12218	2.7188	3.1818	0.	-1.3521e-002
12219	2.6281	3.2727	0.	-9.9226e-003
12220	2.7188	3.2727	5.e-002	10.969
12221	2.7188	3.	0.	-1.3944e-002
12222	2.6281	3.0909	0.	-1.0679e-002
12223	2.7188	3.0909	5.e-002	10.961
12224	2.7188	2.8182	0.	-1.3521e-002
12225	2.6281	2.9091	0.	-1.0679e-002
12226	2.7188	2.9091	5.e-002	10.961
12227	2.7188	2.6364	0.	-1.2193e-002
12228	2.6281	2.7273	0.	-9.9225e-003
12229	2.7188	2.7273	5.e-002	10.969
12230	2.7188	2.4545	0.	-9.7903e-003
12231	2.6281	2.5455	0.	-8.2873e-003
12232	2.7188	2.5455	5.e-002	10.984
12233	2.7188	2.2727	0.	-6.0193e-003
12234	2.6281	2.3636	0.	-5.5231e-003
12235	2.7188	2.3636	5.e-002	11.008
12236	2.7188	2.0909	0.	-4.6087e-004
12237	2.6281	2.1818	0.	-1.239e-003
12238	2.7188	2.1818	5.e-002	11.039
12239	2.7188	1.9091	0.	7.4408e-003
12240	2.6281	2.	0.	5.1019e-003
12241	2.7188	2.	5.e-002	11.076
12242	2.7188	1.7273	0.	1.8384e-002
12243	2.6281	1.8182	0.	1.4208e-002
12244	2.7188	1.8182	5.e-002	11.117
12245	2.7188	1.5455	0.	3.3278e-002
12246	2.6281	1.6364	0.	2.6955e-002
12247	2.7188	1.6364	5.e-002	11.155
12248	2.7188	1.3636	0.	5.3153e-002
12249	2.6281	1.4545	0.	4.4545e-002
12250	2.7188	1.4545	5.e-002	11.183
12251	2.7188	1.1818	0.	8.0009e-002
12252	2.6281	1.2727	0.	6.8164e-002
12253	2.7188	1.2727	5.e-002	11.191
12254	2.7188	1.	0.	0.11472
12255	2.6281	1.0909	0.	0.10113
12256	2.7188	1.0909	5.e-002	11.166
12257	2.7188	0.81818	0.	0.16925
12258	2.6281	0.90909	0.	0.14251
12259	2.7188	0.90909	5.e-002	11.098
12260	2.7188	0.63636	0.	0.2269
12261	2.6281	0.72727	0.	0.21946
12262	2.7188	0.72727	5.e-002	10.979
12263	2.7188	0.45455	0.	0.48276
12264	2.6281	0.54545	0.	0.27464
12265	2.7188	0.54545	5.e-002	10.833
12266	2.7188	0.27273	0.	0.92044
12267	2.6281	0.36364	0.	0.79769
12268	2.7188	0.36364	5.e-002	11.007
12269	2.6281	0.18182	0.	2.0556
12270	2.7188	0.18182	5.e-002	19.175
12271	2.7188	9.0909e-002	0.	0.59459
12272	2.5375	5.7273	0.	1.0623
12273	2.4469	5.8182	0.	2.5902
12274	2.5375	5.8182	5.e-002	20.418
12275	2.5375	5.9091	0.	0.6794
12276	2.5375	5.5455	0.	0.53461
12277	2.4469	5.6364	0.	0.88695
12278	2.5375	5.6364	5.e-002	11.512
12279	2.5375	5.3636	0.	0.2507
12280	2.4469	5.4545	0.	0.30593
12281	2.5375	5.4545	5.e-002	11.381
12282	2.5375	5.1818	0.	0.18534
12283	2.4469	5.2727	0.	0.24134
12284	2.5375	5.2727	5.e-002	11.564
12285	2.5375	5.	0.	0.12482
12286	2.4469	5.0909	0.	0.15567
12287	2.5375	5.0909	5.e-002	11.706
12288	2.5375	4.8182	0.	8.6684e-002
12289	2.4469	4.9091	0.	0.1098
12290	2.5375	4.9091	5.e-002	11.786
12291	2.5375	4.6364	0.	5.7749e-002
12292	2.4469	4.7273	0.	7.3961e-002
12293	2.5375	4.7273	5.e-002	11.815
12294	2.5375	4.4545	0.	3.6885e-002
12295	2.4469	4.5455	0.	4.8935e-002
12296	2.5375	4.5455	5.e-002	11.811
12297	2.5375	4.2727	0.	2.1742e-002
12298	2.4469	4.3636	0.	3.0891e-002
12299	2.5375	4.3636	5.e-002	11.788
12300	2.5375	4.0909	0.	1.1033e-002
12301	2.4469	4.1818	0.	1.8327e-002
12302	2.5375	4.1818	5.e-002	11.758
12303	2.5375	3.9091	0.	3.6276e-003
12304	2.4469	4.	0.	9.7579e-003
12305	2.5375	4.	5.e-002	11.729
12306	2.5375	3.7273	0.	-1.3408e-003
12307	2.4469	3.8182	0.	4.0997e-003
12308	2.5375	3.8182	5.e-002	11.706
12309	2.5375	3.5455	0.	-4.55e-003
12310	2.4469	3.6364	0.	4.9446e-004
12311	2.5375	3.6364	5.e-002	11.689
12312	2.5375	3.3636	0.	-6.5019e-003
12313	2.4469	3.4545	0.	-1.6947e-003
12314	2.5375	3.4545	5.e-002	11.678
12315	2.5375	3.1818	0.	-7.5404e-003
12316	2.4469	3.2727	0.	-2.9189e-003
12317	2.5375	3.2727	5.e-002	11.673
12318	2.5375	3.	0.	-7.8649e-003
12319	2.4469	3.0909	0.	-3.4624e-003
12320	2.5375	3.0909	5.e-002	11.67
12321	2.5375	2.8182	0.	-7.5404e-003
12322	2.4469	2.9091	0.	-3.4624e-003
12323	2.5375	2.9091	5.e-002	11.67
12324	2.5375	2.6364	0.	-6.5017e-003
12325	2.4469	2.7273	0.	-2.9188e-003
12326	2.5375	2.7273	5.e-002	11.673
12327	2.5375	2.4545	0.	-4.5499e-003
12328	2.4469	2.5455	0.	-1.6945e-003
12329	2.5375	2.5455	5.e-002	11.678
12330	2.5375	2.2727	0.	-1.3406e-003
12331	2.4469	2.3636	0.	4.9457e-004
12332	2.5375	2.3636	5.e-002	11.689
12333	2.5375	2.0909	0.	3.6278e-003
12334	2.4469	2.1818	0.	4.1e-003
12335	2.5375	2.1818	5.e-002	11.706
12336	2.5375	1.9091	0.	1.1034e-002
12337	2.4469	2.	0.	9.758e-003
12338	2.5375	2.	5.e-002	11.729
12339	2.5375	1.7273	0.	2.1743e-002
12340	2.4469	1.8182	0.	1.8327e-002
12341	2.5375	1.8182	5.e-002	11.758
12342	2.5375	1.5455	0.	3.6886e-002
12343	2.4469	1.6364	0.	3.0892e-002
12344	2.5375	1.6364	5.e-002	11.788
12345	2.5375	1.3636	0.	5.7749e-002
12346	2.4469	1.4545	0.	4.8936e-002
12347	2.5375	1.4545	5.e-002	11.811
12348	2.5375	1.1818	0.	8.6684e-002
12349	2.4469	1.2727	0.	7.3962e-002
12350	2.5375	1.2727	5.e-002	11.815
12351	2.5375	1.	0.	0.12482
12352	2.4469	1.0909	0.	0.1098
12353	2.5375	1.0909	5.e-002	11.786
12354	2.5375	0.81818	0.	0.18534
12355	2.4469	0.90909	0.	0.15567
12356	2.5375	0.90909	5.e-002	11.706
12357	2.5375	0.63636	0.	0.2507
12358	2.4469	0.72727	0.	0.24134
12359	2.5375	0.72727	5.e-002	11.564
12360	2.5375	0.45455	0.	0.53461
12361	2.4469	0.54545	0.	0.30593
12362	2.5375	0.54545	5.e-002	11.381
12363	2.5375	0.27273	0.	1.0623
12364	2.4469	0.36364	0.	0.88695
12365	2.5375	0.36364	5.e-002	11.512
12366	2.4469	0.18182	0.	2.5902
12367	2.5375	0.18182	5.e-002	20.418
12368	2.5375	9.0909e-002	0.	0.6794
12369	2.3563	5.7273	0.	1.2339
12370	2.2656	5.8182	0.	3.3352
12371	2.3563	5.8182	5.e-002	21.693
12372	2.3563	5.9091	0.	0.7955
12373	2.3563	5.5455	0.	0.59341
12374	2.2656	5.6364	0.	0.9891
12375	2.3563	5.6364	5.e-002	12.083
12376	2.3563	5.3636	0.	0.27758
12377	2.2656	5.4545	0.	0.34153
12378	2.3563	5.4545	5.e-002	12.021
12379	2.3563	5.1818	0.	0.20324
12380	2.2656	5.2727	0.	0.26561
12381	2.3563	5.2727	5.e-002	12.248
12382	2.3563	5.	0.	0.13597
12383	2.2656	5.0909	0.	0.16998
12384	2.3563	5.0909	5.e-002	12.413
12385	2.3563	4.8182	0.	9.4106e-002
12386	2.2656	4.9091	0.	0.1191
12387	2.3563	4.9091	5.e-002	12.5
12388	2.3563	4.6364	0.	6.3092e-002
12389	2.2656	4.7273	0.	8.0293e-002
12390	2.3563	4.7273	5.e-002	12.531
12391	2.3563	4.4545	0.	4.1428e-002
12392	2.2656	4.5455	0.	5.403e-002
12393	2.3563	4.5455	5.e-002	12.527
12394	2.3563	4.2727	0.	2.631e-002
12395	2.2656	4.3636	0.	3.5828e-002
12396	2.3563	4.3636	5.e-002	12.507
12397	2.3563	4.0909	0.	1.6121e-002
12398	2.2656	4.1818	0.	2.3767e-002
12399	2.3563	4.1818	5.e-002	12.486
12400	2.3563	3.9091	0.	9.463e-003
12401	2.2656	4.	0.	1.6019e-002
12402	2.3563	4.	5.e-002	12.471
12403	2.3563	3.7273	0.	5.2831e-003
12404	2.2656	3.8182	0.	1.1263e-002
12405	2.3563	3.8182	5.e-002	12.465
12406	2.3563	3.5455	0.	2.7777e-003
12407	2.2656	3.6364	0.	8.4891e-003
12408	2.3563	3.6364	5.e-002	12.465
12409	2.3563	3.3636	0.	1.3687e-003
12410	2.2656	3.4545	0.	6.9706e-003
12411	2.3563	3.4545	5.e-002	12.47
12412	2.3563	3.1818	0.	6.6931e-004
12413	2.2656	3.2727	0.	6.2104e-003
12414	2.3563	3.2727	5.e-002	12.476
12415	2.3563	3.	0.	4.5994e-004
12416	2.2656	3.0909	0.	5.9028e-003
12417	2.3563	3.0909	5.e-002	12.48
12418	2.3563	2.8182	0.	6.6934e-004
12419	2.2656	2.9091	0.	5.9028e-003
12420	2.3563	2.9091	5.e-002	12.48
12421	2.3563	2.6364	0.	1.3688e-003
12422	2.2656	2.7273	0.	6.2104e-003
12423	2.3563	2.7273	5.e-002	12.476
12424	2.3563	2.4545	0.	2.7778e-003
12425	2.2656	2.5455	0.	6.9708e-003
12426	2.3563	2.5455	5.e-002	12.47
12427	2.3563	2.2727	0.	5.2833e-003
12428	2.2656	2.3636	0.	8.4892e-003
12429	2.3563	2.3636	5.e-002	12.465
12430	2.3563	2.0909	0.	9.4632e-003
12431	2.2656	2.1818	0.	1.1264e-002
12432	2.3563	2.1818	5.e-002	12.465
12433	2.3563	1.9091	0.	1.6121e-002
12434	2.2656	2.	0.	1.6019e-002
12435	2.3563	2.	5.e-002	12.471
12436	2.3563	1.7273	0.	2.6311e-002
12437	2.2656	1.8182	0.	2.3768e-002
12438	2.3563	1.8182	5.e-002	12.486
12439	2.3563	1.5455	0.	4.1429e-002
12440	2.2656	1.6364	0.	3.5828e-002
12441	2.3563	1.6364	5.e-002	12.507
12442	2.3563	1.3636	0.	6.3093e-002
12443	2.2656	1.4545	0.	5.403e-002
12444	2.3563	1.4545	5.e-002	12.527
12445	2.3563	1.1818	0.	9.4107e-002
12446	2.2656	1.2727	0.	8.0294e-002
12447	2.3563	1.2727	5.e-002	12.531
12448	2.3563	1.	0.	0.13597
12449	2.2656	1.0909	0.	0.1191
12450	2.3563	1.0909	5.e-002	12.5
12451	2.3563	0.81818	0.	0.20324
12452	2.2656	0.90909	0.	0.16998
12453	2.3563	0.90909	5.e-002	12.413
12454	2.3563	0.63636	0.	0.27758
12455	2.2656	0.72727	0.	0.26561
12456	2.3563	0.72727	5.e-002	12.248
12457	2.3563	0.45455	0.	0.59341
12458	2.2656	0.54545	0.	0.34153
12459	2.3563	0.54545	5.e-002	12.021
12460	2.3563	0.27273	0.	1.2339
12461	2.2656	0.36364	0.	0.9891
12462	2.3563	0.36364	5.e-002	12.083
12463	2.2656	0.18182	0.	3.3352
12464	2.3563	0.18182	5.e-002	21.693
12465	2.3563	9.0909e-002	0.	0.7955
12466	2.175	5.7273	0.	1.4433
12467	2.0844	5.8182	0.	4.412
12468	2.175	5.8182	5.e-002	22.982
12469	2.175	5.9091	0.	0.9711
12470	2.175	5.5455	0.	0.66005
12471	2.0844	5.6364	0.	1.1073
12472	2.175	5.6364	5.e-002	12.746
12473	2.175	5.3636	0.	0.30756
12474	2.0844	5.4545	0.	0.38279
12475	2.175	5.4545	5.e-002	12.785
12476	2.175	5.1818	0.	0.22264
12477	2.0844	5.2727	0.	0.29324
12478	2.175	5.2727	5.e-002	13.06
12479	2.175	5.	0.	0.14773
12480	2.0844	5.0909	0.	0.18625
12481	2.175	5.0909	5.e-002	13.244
12482	2.175	4.8182	0.	0.10188
12483	2.0844	4.9091	0.	0.1299
12484	2.175	4.9091	5.e-002	13.331
12485	2.175	4.6364	0.	6.8878e-002
12486	2.0844	4.7273	0.	8.8157e-002
12487	2.175	4.7273	5.e-002	13.354
12488	2.175	4.4545	0.	4.6708e-002
12489	2.0844	4.5455	0.	6.0985e-002
12490	2.175	4.5455	5.e-002	13.344
12491	2.175	4.2727	0.	3.1972e-002
12492	2.0844	4.3636	0.	4.3045e-002
12493	2.175	4.3636	5.e-002	13.326
12494	2.175	4.0909	0.	2.2629e-002
12495	2.0844	4.1818	0.	3.1875e-002
12496	2.175	4.1818	5.e-002	13.315
12497	2.175	3.9091	0.	1.6977e-002
12498	2.0844	4.	0.	2.5241e-002
12499	2.175	4.	5.e-002	13.317
12500	2.175	3.7273	0.	1.3762e-002
12501	2.0844	3.8182	0.	2.1578e-002
12502	2.175	3.8182	5.e-002	13.331
12503	2.175	3.5455	0.	1.2069e-002
12504	2.0844	3.6364	0.	1.9738e-002
12505	2.175	3.6364	5.e-002	13.352
12506	2.175	3.3636	0.	1.126e-002
12507	2.0844	3.4545	0.	1.8934e-002
12508	2.175	3.4545	5.e-002	13.375
12509	2.175	3.1818	0.	1.0927e-002
12510	2.0844	3.2727	0.	1.865e-002
12511	2.175	3.2727	5.e-002	13.394
12512	2.175	3.	0.	1.084e-002
12513	2.0844	3.0909	0.	1.8579e-002
12514	2.175	3.0909	5.e-002	13.405
12515	2.175	2.8182	0.	1.0927e-002
12516	2.0844	2.9091	0.	1.8579e-002
12517	2.175	2.9091	5.e-002	13.405
12518	2.175	2.6364	0.	1.126e-002
12519	2.0844	2.7273	0.	1.865e-002
12520	2.175	2.7273	5.e-002	13.394
12521	2.175	2.4545	0.	1.2069e-002
12522	2.0844	2.5455	0.	1.8934e-002
12523	2.175	2.5455	5.e-002	13.375
12524	2.175	2.2727	0.	1.3762e-002
12525	2.0844	2.3636	0.	1.9738e-002
12526	2.175	2.3636	5.e-002	13.352
12527	2.175	2.0909	0.	1.6977e-002
12528	2.0844	2.1818	0.	2.1578e-002
12529	2.175	2.1818	5.e-002	13.331
12530	2.175	1.9091	0.	2.263e-002
12531	2.0844	2.	0.	2.5241e-002
12532	2.175	2.	5.e-002	13.317
12533	2.175	1.7273	0.	3.1972e-002
12534	2.0844	1.8182	0.	3.1875e-002
12535	2.175	1.8182	5.e-002	13.315
12536	2.175	1.5455	0.	4.6709e-002
12537	2.0844	1.6364	0.	4.3045e-002
12538	2.175	1.6364	5.e-002	13.326
12539	2.175	1.3636	0.	6.8878e-002
12540	2.0844	1.4545	0.	6.0986e-002
12541	2.175	1.4545	5.e-002	13.344
12542	2.175	1.1818	0.	0.10188
12543	2.0844	1.2727	0.	8.8158e-002
12544	2.175	1.2727	5.e-002	13.354
12545	2.175	1.	0.	0.14773
12546	2.0844	1.0909	0.	0.1299
12547	2.175	1.0909	5.e-002	13.331
12548	2.175	0.81818	0.	0.22264
12549	2.0844	0.90909	0.	0.18625
12550	2.175	0.90909	5.e-002	13.244
12551	2.175	0.63636	0.	0.30756
12552	2.0844	0.72727	0.	0.29324
12553	2.175	0.72727	5.e-002	13.06
12554	2.175	0.45455	0.	0.66005
12555	2.0844	0.54545	0.	0.38279
12556	2.175	0.54545	5.e-002	12.785
12557	2.175	0.27273	0.	1.4433
12558	2.0844	0.36364	0.	1.1073
12559	2.175	0.36364	5.e-002	12.746
12560	2.0844	0.18182	0.	4.412
12561	2.175	0.18182	5.e-002	22.982
12562	2.175	9.0909e-002	0.	0.97111
12563	1.9937	5.7273	0.	1.7026
12564	1.9031	5.8182	0.	6.0342
12565	1.9937	5.8182	5.e-002	24.264
12566	1.9937	5.9091	0.	1.2849
12567	1.9937	5.5455	0.	0.73741
12568	1.9031	5.6364	0.	1.2434
12569	1.9937	5.6364	5.e-002	13.544
12570	1.9937	5.3636	0.	0.3428
12571	1.9031	5.4545	0.	0.42853
12572	1.9937	5.4545	5.e-002	13.72
12573	1.9937	5.1818	0.	0.24557
12574	1.9031	5.2727	0.	0.32218
12575	1.9937	5.2727	5.e-002	14.044
12576	1.9937	5.	0.	0.16217
12577	1.9031	5.0909	0.	0.202
12578	1.9937	5.0909	5.e-002	14.234
12579	1.9937	4.8182	0.	0.11223
12580	1.9031	4.9091	0.	0.13968
12581	1.9937	4.9091	5.e-002	14.305
12582	1.9937	4.6364	0.	7.7556e-002
12583	1.9031	4.7273	0.	9.512e-002
12584	1.9937	4.7273	5.e-002	14.306
12585	1.9937	4.4545	0.	5.5358e-002
12586	1.9031	4.5455	0.	6.7469e-002
12587	1.9937	4.5455	5.e-002	14.282
12588	1.9937	4.2727	0.	4.1469e-002
12589	1.9031	4.3636	0.	5.0244e-002
12590	1.9937	4.3636	5.e-002	14.262
12591	1.9937	4.0909	0.	3.3336e-002
12592	1.9031	4.1818	0.	4.0307e-002
12593	1.9937	4.1818	5.e-002	14.262
12594	1.9937	3.9091	0.	2.8921e-002
12595	1.9031	4.	0.	3.4976e-002
12596	1.9937	4.	5.e-002	14.283
12597	1.9937	3.7273	0.	2.6792e-002
12598	1.9031	3.8182	0.	3.2461e-002
12599	1.9937	3.8182	5.e-002	14.32
12600	1.9937	3.5455	0.	2.5952e-002
12601	1.9031	3.6364	0.	3.1523e-002
12602	1.9937	3.6364	5.e-002	14.365
12603	1.9937	3.3636	0.	2.5744e-002
12604	1.9031	3.4545	0.	3.1364e-002
12605	1.9937	3.4545	5.e-002	14.408
12606	1.9937	3.1818	0.	2.5764e-002
12607	1.9031	3.2727	0.	3.1487e-002
12608	1.9937	3.2727	5.e-002	14.44
12609	1.9937	3.	0.	2.5793e-002
12610	1.9031	3.0909	0.	3.1612e-002
12611	1.9937	3.0909	5.e-002	14.458
12612	1.9937	2.8182	0.	2.5764e-002
12613	1.9031	2.9091	0.	3.1612e-002
12614	1.9937	2.9091	5.e-002	14.458
12615	1.9937	2.6364	0.	2.5744e-002
12616	1.9031	2.7273	0.	3.1487e-002
12617	1.9937	2.7273	5.e-002	14.44
12618	1.9937	2.4545	0.	2.5952e-002
12619	1.9031	2.5455	0.	3.1364e-002
12620	1.9937	2.5455	5.e-002	14.408
12621	1.9937	2.2727	0.	2.6792e-002
12622	1.9031	2.3636	0.	3.1523e-002
12623	1.9937	2.3636	5.e-002	14.365
12624	1.9937	2.0909	0.	2.8921e-002
12625	1.9031	2.1818	0.	3.2461e-002
12626	1.9937	2.1818	5.e-002	14.32
12627	1.9937	1.9091	0.	3.3337e-002
12628	1.9031	2.	0.	3.4976e-002
12629	1.9937	2.	5.e-002	14.283
12630	1.9937	1.7273	0.	4.1469e-002
12631	1.9031	1.8182	0.	4.0307e-002
12632	1.9937	1.8182	5.e-002	14.262
12633	1.9937	1.5455	0.	5.5359e-002
12634	1.9031	1.6364	0.	5.0245e-002
12635	1.9937	1.6364	5.e-002	14.262
12636	1.9937	1.3636	0.	7.7556e-002
12637	1.9031	1.4545	0.	6.7469e-002
12638	1.9937	1.4545	5.e-002	14.282
12639	1.9937	1.1818	0.	0.11223
12640	1.9031	1.2727	0.	9.512e-002
12641	1.9937	1.2727	5.e-002	14.306
12642	1.9937	1.	0.	0.16217
12643	1.9031	1.0909	0.	0.13968
12644	1.9937	1.0909	5.e-002	14.305
12645	1.9937	0.81818	0.	0.24557
12646	1.9031	0.90909	0.	0.202
12647	1.9937	0.90909	5.e-002	14.234
12648	1.9937	0.63636	0.	0.3428
12649	1.9031	0.72727	0.	0.32218
12650	1.9937	0.72727	5.e-002	14.044
12651	1.9937	0.45455	0.	0.73742
12652	1.9031	0.54545	0.	0.42853
12653	1.9937	0.54545	5.e-002	13.72
12654	1.9937	0.27273	0.	1.7026
12655	1.9031	0.36364	0.	1.2434
12656	1.9937	0.36364	5.e-002	13.544
12657	1.9031	0.18182	0.	6.0342
12658	1.9937	0.18182	5.e-002	24.264
12659	1.9937	9.0909e-002	0.	1.2849
12660	1.8125	5.7273	0.	2.0235
12661	1.7219	5.8182	0.	8.5926
12662	1.8125	5.8182	5.e-002	25.508
12663	1.8125	5.9091	0.	2.0321
12664	1.8125	5.5455	0.	0.82233
12665	1.7219	5.6364	0.	1.4087
12666	1.8125	5.6364	5.e-002	14.545
12667	1.8125	5.3636	0.	0.3777
12668	1.7219	5.4545	0.	0.48912
12669	1.8125	5.4545	5.e-002	14.9
12670	1.8125	5.1818	0.	0.26539
12671	1.7219	5.2727	0.	0.36326
12672	1.8125	5.2727	5.e-002	15.259
12673	1.8125	5.	0.	0.17219
12674	1.7219	5.0909	0.	0.22867
12675	1.8125	5.0909	5.e-002	15.428
12676	1.8125	4.8182	0.	0.11796
12677	1.7219	4.9091	0.	0.16055
12678	1.8125	4.9091	5.e-002	15.453
12679	1.8125	4.6364	0.	8.1896e-002
12680	1.7219	4.7273	0.	0.11394
12681	1.8125	4.7273	5.e-002	15.412
12682	1.8125	4.4545	0.	6.011e-002
12683	1.7219	4.5455	0.	8.668e-002
12684	1.8125	4.5455	5.e-002	15.361
12685	1.8125	4.2727	0.	4.7419e-002
12686	1.7219	4.3636	0.	7.0844e-002
12687	1.8125	4.3636	5.e-002	15.336
12688	1.8125	4.0909	0.	4.0677e-002
12689	1.7219	4.1818	0.	6.252e-002
12690	1.8125	4.1818	5.e-002	15.347
12691	1.8125	3.9091	0.	3.7519e-002
12692	1.7219	4.	0.	5.8611e-002
12693	1.8125	4.	5.e-002	15.39
12694	1.8125	3.7273	0.	3.6383e-002
12695	1.7219	3.8182	0.	5.718e-002
12696	1.8125	3.8182	5.e-002	15.452
12697	1.8125	3.5455	0.	3.6254e-002
12698	1.7219	3.6364	0.	5.6989e-002
12699	1.8125	3.6364	5.e-002	15.52
12700	1.8125	3.3636	0.	3.6508e-002
12701	1.7219	3.4545	0.	5.7299e-002
12702	1.8125	3.4545	5.e-002	15.582
12703	1.8125	3.1818	0.	3.6781e-002
12704	1.7219	3.2727	0.	5.7686e-002
12705	1.8125	3.2727	5.e-002	15.629
12706	1.8125	3.	0.	3.6891e-002
12707	1.7219	3.0909	0.	5.7926e-002
12708	1.8125	3.0909	5.e-002	15.653
12709	1.8125	2.8182	0.	3.6782e-002
12710	1.7219	2.9091	0.	5.7926e-002
12711	1.8125	2.9091	5.e-002	15.653
12712	1.8125	2.6364	0.	3.6508e-002
12713	1.7219	2.7273	0.	5.7686e-002
12714	1.8125	2.7273	5.e-002	15.629
12715	1.8125	2.4545	0.	3.6254e-002
12716	1.7219	2.5455	0.	5.7299e-002
12717	1.8125	2.5455	5.e-002	15.582
12718	1.8125	2.2727	0.	3.6383e-002
12719	1.7219	2.3636	0.	5.6989e-002
12720	1.8125	2.3636	5.e-002	15.52
12721	1.8125	2.0909	0.	3.7519e-002
12722	1.7219	2.1818	0.	5.7181e-002
12723	1.8125	2.1818	5.e-002	15.452
12724	1.8125	1.9091	0.	4.0677e-002
12725	1.7219	2.	0.	5.8611e-002
12726	1.8125	2.	5.e-002	15.39
12727	1.8125	1.7273	0.	4.7419e-002
12728	1.7219	1.8182	0.	6.2521e-002
12729	1.8125	1.8182	5.e-002	15.347
12730	1.8125	1.5455	0.	6.011e-002
12731	1.7219	1.6364	0.	7.0845e-002
12732	1.8125	1.6364	5.e-002	15.336
12733	1.8125	1.3636	0.	8.1897e-002
12734	1.7219	1.4545	0.	8.6681e-002
12735	1.8125	1.4545	5.e-002	15.361
12736	1.8125	1.1818	0.	0.11796
12737	1.7219	1.2727	0.	0.11394
12738	1.8125	1.2727	5.e-002	15.412
12739	1.8125	1.	0.	0.1722
12740	1.7219	1.0909	0.	0.16055
12741	1.8125	1.0909	5.e-002	15.453
12742	1.8125	0.81818	0.	0.2654
12743	1.7219	0.90909	0.	0.22867
12744	1.8125	0.90909	5.e-002	15.428
12745	1.8125	0.63636	0.	0.3777
12746	1.7219	0.72727	0.	0.36326
12747	1.8125	0.72727	5.e-002	15.259
12748	1.8125	0.45455	0.	0.82233
12749	1.7219	0.54545	0.	0.48912
12750	1.8125	0.54545	5.e-002	14.9
12751	1.8125	0.27273	0.	2.0235
12752	1.7219	0.36364	0.	1.4087
12753	1.8125	0.36364	5.e-002	14.545
12754	1.7219	0.18182	0.	8.5926
12755	1.8125	0.18182	5.e-002	25.508
12756	1.8125	9.0909e-002	0.	2.0321
12757	1.6313	5.7273	0.	2.4393
12758	1.5406	5.8182	0.	12.755
12759	1.6313	5.8182	5.e-002	26.671
12760	1.6313	5.9091	0.	4.6521
12761	1.6313	5.5455	0.	0.93811
12762	1.5406	5.6364	0.	1.5831
12763	1.6313	5.6364	5.e-002	15.862
12764	1.6313	5.3636	0.	0.43877
12765	1.5406	5.4545	0.	0.53174
12766	1.6313	5.4545	5.e-002	16.429
12767	1.6313	5.1818	0.	0.31088
12768	1.5406	5.2727	0.	0.37815
12769	1.6313	5.2727	5.e-002	16.788
12770	1.6313	5.	0.	0.20838
12771	1.5406	5.0909	0.	0.22488
12772	1.6313	5.0909	5.e-002	16.883
12773	1.6313	4.8182	0.	0.15112
12774	1.5406	4.9091	0.	0.14942
12775	1.6313	4.9091	5.e-002	16.817
12776	1.6313	4.6364	0.	0.11508
12777	1.5406	4.7273	0.	0.10028
12778	1.6313	4.7273	5.e-002	16.701
12779	1.6313	4.4545	0.	9.4851e-002
12780	1.5406	4.5455	0.	7.317e-002
12781	1.6313	4.5455	5.e-002	16.609
12782	1.6313	4.2727	0.	8.4086e-002
12783	1.5406	4.3636	0.	5.8315e-002
12784	1.6313	4.3636	5.e-002	16.573
12785	1.6313	4.0909	0.	7.9068e-002
12786	1.5406	4.1818	0.	5.0967e-002
12787	1.6313	4.1818	5.e-002	16.595
12788	1.6313	3.9091	0.	7.7208e-002
12789	1.5406	4.	0.	4.7693e-002
12790	1.6313	4.	5.e-002	16.659
12791	1.6313	3.7273	0.	7.6941e-002
12792	1.5406	3.8182	0.	4.6536e-002
12793	1.6313	3.8182	5.e-002	16.745
12794	1.6313	3.5455	0.	7.7334e-002
12795	1.5406	3.6364	0.	4.6354e-002
12796	1.6313	3.6364	5.e-002	16.835
12797	1.6313	3.3636	0.	7.7869e-002
12798	1.5406	3.4545	0.	4.6538e-002
12799	1.6313	3.4545	5.e-002	16.912
12800	1.6313	3.1818	0.	7.8273e-002
12801	1.5406	3.2727	0.	4.6776e-002
12802	1.6313	3.2727	5.e-002	16.969
12803	1.6313	3.	0.	7.842e-002
12804	1.5406	3.0909	0.	4.6923e-002
12805	1.6313	3.0909	5.e-002	16.999
12806	1.6313	2.8182	0.	7.8273e-002
12807	1.5406	2.9091	0.	4.6923e-002
12808	1.6313	2.9091	5.e-002	16.999
12809	1.6313	2.6364	0.	7.7869e-002
12810	1.5406	2.7273	0.	4.6776e-002
12811	1.6313	2.7273	5.e-002	16.969
12812	1.6313	2.4545	0.	7.7334e-002
12813	1.5406	2.5455	0.	4.6538e-002
12814	1.6313	2.5455	5.e-002	16.912
12815	1.6313	2.2727	0.	7.6941e-002
12816	1.5406	2.3636	0.	4.6354e-002
12817	1.6313	2.3636	5.e-002	16.835
12818	1.6313	2.0909	0.	7.7208e-002
12819	1.5406	2.1818	0.	4.6536e-002
12820	1.6313	2.1818	5.e-002	16.746
12821	1.6313	1.9091	0.	7.9068e-002
12822	1.5406	2.	0.	4.7693e-002
12823	1.6313	2.	5.e-002	16.659
12824	1.6313	1.7273	0.	8.4087e-002
12825	1.5406	1.8182	0.	5.0967e-002
12826	1.6313	1.8182	5.e-002	16.595
12827	1.6313	1.5455	0.	9.4851e-002
12828	1.5406	1.6364	0.	5.8316e-002
12829	1.6313	1.6364	5.e-002	16.573
12830	1.6313	1.3636	0.	0.11508
12831	1.5406	1.4545	0.	7.317e-002
12832	1.6313	1.4545	5.e-002	16.609
12833	1.6313	1.1818	0.	0.15112
12834	1.5406	1.2727	0.	0.10028
12835	1.6313	1.2727	5.e-002	16.701
12836	1.6313	1.	0.	0.20838
12837	1.5406	1.0909	0.	0.14942
12838	1.6313	1.0909	5.e-002	16.817
12839	1.6313	0.81818	0.	0.31088
12840	1.5406	0.90909	0.	0.22488
12841	1.6313	0.90909	5.e-002	16.883
12842	1.6313	0.63636	0.	0.43877
12843	1.5406	0.72727	0.	0.37815
12844	1.6313	0.72727	5.e-002	16.788
12845	1.6313	0.45455	0.	0.93811
12846	1.5406	0.54545	0.	0.53174
12847	1.6313	0.54545	5.e-002	16.429
12848	1.6313	0.27273	0.	2.4393
12849	1.5406	0.36364	0.	1.5831
12850	1.6313	0.36364	5.e-002	15.862
12851	1.5406	0.18182	0.	12.755
12852	1.6313	0.18182	5.e-002	26.671
12853	1.6313	9.0909e-002	0.	4.6521
12854	1.45	5.7273	0.	2.926
12855	1.3594	5.8182	0.	19.571
12856	1.45	5.8182	5.e-002	27.705
12857	1.45	5.9091	0.	11.521
12858	1.45	5.5455	0.	1.0068
12859	1.3594	5.6364	0.	1.8796
12860	1.45	5.6364	5.e-002	17.679
12861	1.45	5.3636	0.	0.42791
12862	1.3594	5.4545	0.	0.70015
12863	1.45	5.4545	5.e-002	18.466
12864	1.45	5.1818	0.	0.27334
12865	1.3594	5.2727	0.	0.52771
12866	1.45	5.2727	5.e-002	18.743
12867	1.45	5.	0.	0.15554
12868	1.3594	5.0909	0.	0.36299
12869	1.45	5.0909	5.e-002	18.673
12870	1.45	4.8182	0.	9.215e-002
12871	1.3594	4.9091	0.	0.28696
12872	1.45	4.9091	5.e-002	18.443
12873	1.45	4.6364	0.	5.4124e-002
12874	1.3594	4.7273	0.	0.24061
12875	1.45	4.7273	5.e-002	18.211
12876	1.45	4.4545	0.	3.3723e-002
12877	1.3594	4.5455	0.	0.21738
12878	1.45	4.5455	5.e-002	18.06
12879	1.45	4.2727	0.	2.3143e-002
12880	1.3594	4.3636	0.	0.20579
12881	1.45	4.3636	5.e-002	18.009
12882	1.45	4.0909	0.	1.8105e-002
12883	1.3594	4.1818	0.	0.20065
12884	1.45	4.1818	5.e-002	18.04
12885	1.45	3.9091	0.	1.5908e-002
12886	1.3594	4.	0.	0.19858
12887	1.45	4.	5.e-002	18.121
12888	1.45	3.7273	0.	1.5085e-002
12889	1.3594	3.8182	0.	0.19791
12890	1.45	3.8182	5.e-002	18.223
12891	1.45	3.5455	0.	1.4855e-002
12892	1.3594	3.6364	0.	0.19778
12893	1.45	3.6364	5.e-002	18.324
12894	1.45	3.3636	0.	1.4842e-002
12895	1.3594	3.4545	0.	0.19782
12896	1.45	3.4545	5.e-002	18.409
12897	1.45	3.1818	0.	1.4877e-002
12898	1.3594	3.2727	0.	0.19787
12899	1.45	3.2727	5.e-002	18.469
12900	1.45	3.	0.	1.4894e-002
12901	1.3594	3.0909	0.	0.1979
12902	1.45	3.0909	5.e-002	18.5
12903	1.45	2.8182	0.	1.4877e-002
12904	1.3594	2.9091	0.	0.1979
12905	1.45	2.9091	5.e-002	18.5
12906	1.45	2.6364	0.	1.4842e-002
12907	1.3594	2.7273	0.	0.19787
12908	1.45	2.7273	5.e-002	18.469
12909	1.45	2.4545	0.	1.4855e-002
12910	1.3594	2.5455	0.	0.19782
12911	1.45	2.5455	5.e-002	18.408
12912	1.45	2.2727	0.	1.5085e-002
12913	1.3594	2.3636	0.	0.19778
12914	1.45	2.3636	5.e-002	18.324
12915	1.45	2.0909	0.	1.5909e-002
12916	1.3594	2.1818	0.	0.19791
12917	1.45	2.1818	5.e-002	18.223
12918	1.45	1.9091	0.	1.8105e-002
12919	1.3594	2.	0.	0.19858
12920	1.45	2.	5.e-002	18.121
12921	1.45	1.7273	0.	2.3143e-002
12922	1.3594	1.8182	0.	0.20065
12923	1.45	1.8182	5.e-002	18.04
12924	1.45	1.5455	0.	3.3723e-002
12925	1.3594	1.6364	0.	0.20579
12926	1.45	1.6364	5.e-002	18.009
12927	1.45	1.3636	0.	5.4125e-002
12928	1.3594	1.4545	0.	0.21738
12929	1.45	1.4545	5.e-002	18.06
12930	1.45	1.1818	0.	9.215e-002
12931	1.3594	1.2727	0.	0.24061
12932	1.45	1.2727	5.e-002	18.211
12933	1.45	1.	0.	0.15555
12934	1.3594	1.0909	0.	0.28696
12935	1.45	1.0909	5.e-002	18.443
12936	1.45	0.81818	0.	0.27334
12937	1.3594	0.90909	0.	0.36299
12938	1.45	0.90909	5.e-002	18.673
12939	1.45	0.63636	0.	0.42791
12940	1.3594	0.72727	0.	0.52771
12941	1.45	0.72727	5.e-002	18.743
12942	1.45	0.45455	0.	1.0068
12943	1.3594	0.54545	0.	0.70015
12944	1.45	0.54545	5.e-002	18.466
12945	1.45	0.27273	0.	2.926
12946	1.3594	0.36364	0.	1.8796
12947	1.45	0.36364	5.e-002	17.679
12948	1.3594	0.18182	0.	19.571
12949	1.45	0.18182	5.e-002	27.705
12950	1.45	9.0909e-002	0.	11.521
12951	1.2687	5.7273	0.	3.72
12952	1.1781	5.8182	0.	29.983
12953	1.2687	5.8182	5.e-002	28.557
12954	1.2687	5.9091	0.	21.932
12955	1.2687	5.5455	0.	1.3604
12956	1.1781	5.6364	0.	1.8964
12957	1.2687	5.6364	5.e-002	20.295
12958	1.2687	5.3636	0.	0.74718
12959	1.1781	5.4545	0.	0.44922
12960	1.2687	5.4545	5.e-002	21.24
12961	1.2687	5.1818	0.	0.59438
12962	1.1781	5.2727	0.	0.1948
12963	1.2687	5.2727	5.e-002	21.268
12964	1.2687	5.	0.	0.4818
12965	1.1781	5.0909	0.	-1.9365e-002
12966	1.2687	5.0909	5.e-002	20.876
12967	1.2687	4.8182	0.	0.42775
12968	1.1781	4.9091	0.	-0.12114
12969	1.2687	4.9091	5.e-002	20.381
12970	1.2687	4.6364	0.	0.39895
12971	1.1781	4.7273	0.	-0.18329
12972	1.2687	4.7273	5.e-002	19.986
12973	1.2687	4.4545	0.	0.38619
12974	1.1781	4.5455	0.	-0.2176
12975	1.2687	4.5455	5.e-002	19.761
12976	1.2687	4.2727	0.	0.38107
12977	1.1781	4.3636	0.	-0.23833
12978	1.2687	4.3636	5.e-002	19.688
12979	1.2687	4.0909	0.	0.37957
12980	1.1781	4.1818	0.	-0.25147
12981	1.2687	4.1818	5.e-002	19.717
12982	1.2687	3.9091	0.	0.37946
12983	1.1781	4.	0.	-0.26055
12984	1.2687	4.	5.e-002	19.8
12985	1.2687	3.7273	0.	0.37975
12986	1.1781	3.8182	0.	-0.26717
12987	1.2687	3.8182	5.e-002	19.899
12988	1.2687	3.5455	0.	0.38006
12989	1.1781	3.6364	0.	-0.27211
12990	1.2687	3.6364	5.e-002	19.994
12991	1.2687	3.3636	0.	0.38026
12992	1.1781	3.4545	0.	-0.27569
12993	1.2687	3.4545	5.e-002	20.07
12994	1.2687	3.1818	0.	0.38037
12995	1.1781	3.2727	0.	-0.27804
12996	1.2687	3.2727	5.e-002	20.123
12997	1.2687	3.	0.	0.3804
12998	1.1781	3.0909	0.	-0.27921
12999	1.2687	3.0909	5.e-002	20.15
13000	1.2687	2.8182	0.	0.38037
13001	1.1781	2.9091	0.	-0.27921
13002	1.2687	2.9091	5.e-002	20.15
13003	1.2687	2.6364	0.	0.38026
13004	1.1781	2.7273	0.	-0.27804
13005	1.2687	2.7273	5.e-002	20.123
13006	1.2687	2.4545	0.	0.38006
13007	1.1781	2.5455	0.	-0.27569
13008	1.2687	2.5455	5.e-002	20.07
13009	1.2687	2.2727	0.	0.37975
13010	1.1781	2.3636	0.	-0.27211
13011	1.2687	2.3636	5.e-002	19.994
13012	1.2687	2.0909	0.	0.37946
13013	1.1781	2.1818	0.	-0.26717
13014	1.2687	2.1818	5.e-002	19.899
13015	1.2687	1.9091	0.	0.37957
13016	1.1781	2.	0.	-0.26055
13017	1.2687	2.	5.e-002	19.8
13018	1.2687	1.7273	0.	0.38107
13019	1.1781	1.8182	0.	-0.25147
13020	1.2687	1.8182	5.e-002	19.717
13021	1.2687	1.5455	0.	0.38619
13022	1.1781	1.6364	0.	-0.23833
13023	1.2687	1.6364	5.e-002	19.688
13024	1.2687	1.3636	0.	0.39895
13025	1.1781	1.4545	0.	-0.2176
13026	1.2687	1.4545	5.e-002	19.761
13027	1.2687	1.1818	0.	0.42775
13028	1.1781	1.2727	0.	-0.18329
13029	1.2687	1.2727	5.e-002	19.986
13030	1.2687	1.	0.	0.48181
13031	1.1781	1.0909	0.	-0.12114
13032	1.2687	1.0909	5.e-002	20.381
13033	1.2687	0.81818	0.	0.59438
13034	1.1781	0.90909	0.	-1.9365e-002
13035	1.2687	0.90909	5.e-002	20.876
13036	1.2687	0.63636	0.	0.74718
13037	1.1781	0.72727	0.	0.1948
13038	1.2687	0.72727	5.e-002	21.268
13039	1.2687	0.45455	0.	1.3604
13040	1.1781	0.54545	0.	0.44922
13041	1.2687	0.54545	5.e-002	21.24
13042	1.2687	0.27273	0.	3.72
13043	1.1781	0.36364	0.	1.8964
13044	1.2687	0.36364	5.e-002	20.295
13045	1.1781	0.18182	0.	29.983
13046	1.2687	0.18182	5.e-002	28.557
13047	1.2687	9.0909e-002	0.	21.932
13048	1.0875	5.7273	0.	4.0589
13049	0.99687	5.8182	0.	45.028
13050	1.0875	5.8182	5.e-002	29.25
13051	1.0875	5.9091	0.	35.386
13052	1.0875	5.5455	0.	0.71573
13053	0.99687	5.6364	0.	3.3174
13054	1.0875	5.6364	5.e-002	24.203
13055	1.0875	5.3636	0.	-0.1689
13056	0.99687	5.4545	0.	1.9999
13057	1.0875	5.4545	5.e-002	25.078
13058	1.0875	5.1818	0.	-0.44758
13059	0.99687	5.2727	0.	1.8682
13060	1.0875	5.2727	5.e-002	24.537
13061	1.0875	5.	0.	-0.63778
13062	0.99687	5.0909	0.	1.7392
13063	1.0875	5.0909	5.e-002	23.582
13064	1.0875	4.8182	0.	-0.7413
13065	0.99687	4.9091	0.	1.7069
13066	1.0875	4.9091	5.e-002	22.7
13067	1.0875	4.6364	0.	-0.80545
13068	0.99687	4.7273	0.	1.6975
13069	1.0875	4.7273	5.e-002	22.103
13070	1.0875	4.4545	0.	-0.84568
13071	0.99687	4.5455	0.	1.7022
13072	1.0875	4.5455	5.e-002	21.792
13073	1.0875	4.2727	0.	-0.87319
13074	0.99687	4.3636	0.	1.7098
13075	1.0875	4.3636	5.e-002	21.683
13076	1.0875	4.0909	0.	-0.89314
13077	0.99687	4.1818	0.	1.7172
13078	1.0875	4.1818	5.e-002	21.687
13079	1.0875	3.9091	0.	-0.90827
13080	0.99687	4.	0.	1.7231
13081	1.0875	4.	5.e-002	21.739
13082	1.0875	3.7273	0.	-0.91984
13083	0.99687	3.8182	0.	1.7274
13084	1.0875	3.8182	5.e-002	21.804
13085	1.0875	3.5455	0.	-0.9285
13086	0.99687	3.6364	0.	1.7303
13087	1.0875	3.6364	5.e-002	21.862
13088	1.0875	3.3636	0.	-0.93454
13089	0.99687	3.4545	0.	1.7323
13090	1.0875	3.4545	5.e-002	21.907
13091	1.0875	3.1818	0.	-0.93812
13092	0.99687	3.2727	0.	1.7334
13093	1.0875	3.2727	5.e-002	21.936
13094	1.0875	3.	0.	-0.9393
13095	0.99687	3.0909	0.	1.7339
13096	1.0875	3.0909	5.e-002	21.951
13097	1.0875	2.8182	0.	-0.93812
13098	0.99687	2.9091	0.	1.7339
13099	1.0875	2.9091	5.e-002	21.951
13100	1.0875	2.6364	0.	-0.93454
13101	0.99687	2.7273	0.	1.7334
13102	1.0875	2.7273	5.e-002	21.936
13103	1.0875	2.4545	0.	-0.9285
13104	0.99687	2.5455	0.	1.7323
13105	1.0875	2.5455	5.e-002	21.907
13106	1.0875	2.2727	0.	-0.91984
13107	0.99687	2.3636	0.	1.7303
13108	1.0875	2.3636	5.e-002	21.862
13109	1.0875	2.0909	0.	-0.90827
13110	0.99687	2.1818	0.	1.7274
13111	1.0875	2.1818	5.e-002	21.804
13112	1.0875	1.9091	0.	-0.89314
13113	0.99687	2.	0.	1.7231
13114	1.0875	2.	5.e-002	21.739
13115	1.0875	1.7273	0.	-0.87318
13116	0.99687	1.8182	0.	1.7172
13117	1.0875	1.8182	5.e-002	21.687
13118	1.0875	1.5455	0.	-0.84568
13119	0.99687	1.6364	0.	1.7098
13120	1.0875	1.6364	5.e-002	21.683
13121	1.0875	1.3636	0.	-0.80545
13122	0.99687	1.4545	0.	1.7022
13123	1.0875	1.4545	5.e-002	21.792
13124	1.0875	1.1818	0.	-0.7413
13125	0.99687	1.2727	0.	1.6975
13126	1.0875	1.2727	5.e-002	22.103
13127	1.0875	1.	0.	-0.63778
13128	0.99687	1.0909	0.	1.7069
13129	1.0875	1.0909	5.e-002	22.7
13130	1.0875	0.81818	0.	-0.44758
13131	0.99687	0.90909	0.	1.7392
13132	1.0875	0.90909	5.e-002	23.582
13133	1.0875	0.63636	0.	-0.1689
13134	0.99687	0.72727	0.	1.8682
13135	1.0875	0.72727	5.e-002	24.537
13136	1.0875	0.45455	0.	0.71573
13137	0.99687	0.54545	0.	1.9999
13138	1.0875	0.54545	5.e-002	25.078
13139	1.0875	0.27273	0.	4.0589
13140	0.99687	0.36364	0.	3.3174
13141	1.0875	0.36364	5.e-002	24.203
13142	0.99687	0.18182	0.	45.028
13143	1.0875	0.18182	5.e-002	29.249
13144	1.0875	9.0909e-002	0.	35.386
13145	0.90625	5.7273	0.	7.137
13146	0.81563	5.8182	0.	63.252
13147	0.90625	5.8182	5.e-002	30.02
13148	0.90625	5.9091	0.	53.186
13149	0.90625	5.5455	0.	4.2576
13150	0.81563	5.6364	0.	-0.41369
13151	0.90625	5.6364	5.e-002	30.183
13152	0.90625	5.3636	0.	3.9532
13153	0.81563	5.4545	0.	-3.3325
13154	0.90625	5.4545	5.e-002	30.423
13155	0.90625	5.1818	0.	4.0186
13156	0.81563	5.2727	0.	-4.1928
13157	0.90625	5.2727	5.e-002	28.718
13158	0.90625	5.	0.	4.0649
13159	0.81563	5.0909	0.	-4.8086
13160	0.90625	5.0909	5.e-002	26.85
13161	0.90625	4.8182	0.	4.135
13162	0.81563	4.9091	0.	-5.17
13163	0.90625	4.9091	5.e-002	25.458
13164	0.90625	4.6364	0.	4.1989
13165	0.81563	4.7273	0.	-5.4212
13166	0.90625	4.7273	5.e-002	24.63
13167	0.90625	4.4545	0.	4.254
13168	0.81563	4.5455	0.	-5.6001
13169	0.90625	4.5455	5.e-002	24.21
13170	0.90625	4.2727	0.	4.2979
13171	0.81563	4.3636	0.	-5.7352
13172	0.90625	4.3636	5.e-002	24.021
13173	0.90625	4.0909	0.	4.3319
13174	0.81563	4.1818	0.	-5.8392
13175	0.90625	4.1818	5.e-002	23.941
13176	0.90625	3.9091	0.	4.3577
13177	0.81563	4.	0.	-5.9199
13178	0.90625	4.	5.e-002	23.903
13179	0.90625	3.7273	0.	4.3768
13180	0.81563	3.8182	0.	-5.9821
13181	0.90625	3.8182	5.e-002	23.879
13182	0.90625	3.5455	0.	4.3905
13183	0.81563	3.6364	0.	-6.0288
13184	0.90625	3.6364	5.e-002	23.857
13185	0.90625	3.3636	0.	4.3997
13186	0.81563	3.4545	0.	-6.0623
13187	0.90625	3.4545	5.e-002	23.837
13188	0.90625	3.1818	0.	4.405
13189	0.81563	3.2727	0.	-6.0839
13190	0.90625	3.2727	5.e-002	23.822
13191	0.90625	3.	0.	4.4067
13192	0.81563	3.0909	0.	-6.0945
13193	0.90625	3.0909	5.e-002	23.813
13194	0.90625	2.8182	0.	4.405
13195	0.81563	2.9091	0.	-6.0945
13196	0.90625	2.9091	5.e-002	23.813
13197	0.90625	2.6364	0.	4.3997
13198	0.81563	2.7273	0.	-6.0839
13199	0.90625	2.7273	5.e-002	23.822
13200	0.90625	2.4545	0.	4.3905
13201	0.81563	2.5455	0.	-6.0623
13202	0.90625	2.5455	5.e-002	23.837
13203	0.90625	2.2727	0.	4.3768
13204	0.81563	2.3636	0.	-6.0288
13205	0.90625	2.3636	5.e-002	23.857
13206	0.90625	2.0909	0.	4.3577
13207	0.81563	2.1818	0.	-5.9821
13208	0.90625	2.1818	5.e-002	23.879
13209	0.90625	1.9091	0.	4.3319
13210	0.81563	2.	0.	-5.9199
13211	0.90625	2.	5.e-002	23.903
13212	0.90625	1.7273	0.	4.2979
13213	0.81563	1.8182	0.	-5.8392
13214	0.90625	1.8182	5.e-002	23.941
13215	0.90625	1.5455	0.	4.254
13216	0.81563	1.6364	0.	-5.7352
13217	0.90625	1.6364	5.e-002	24.021
13218	0.90625	1.3636	0.	4.1989
13219	0.81563	1.4545	0.	-5.6001
13220	0.90625	1.4545	5.e-002	24.21
13221	0.90625	1.1818	0.	4.135
13222	0.81563	1.2727	0.	-5.4212
13223	0.90625	1.2727	5.e-002	24.63
13224	0.90625	1.	0.	4.0649
13225	0.81563	1.0909	0.	-5.17
13226	0.90625	1.0909	5.e-002	25.458
13227	0.90625	0.81818	0.	4.0186
13228	0.81563	0.90909	0.	-4.8086
13229	0.90625	0.90909	5.e-002	26.85
13230	0.90625	0.63636	0.	3.9532
13231	0.81563	0.72727	0.	-4.1928
13232	0.90625	0.72727	5.e-002	28.718
13233	0.90625	0.45455	0.	4.2576
13234	0.81563	0.54545	0.	-3.3325
13235	0.90625	0.54545	5.e-002	30.423
13236	0.90625	0.27273	0.	7.1371
13237	0.81563	0.36364	0.	-0.41368
13238	0.90625	0.36364	5.e-002	30.183
13239	0.81563	0.18182	0.	63.252
13240	0.90625	0.18182	5.e-002	30.02
13241	0.90625	9.0909e-002	0.	53.186
13242	0.725	5.7273	0.	0.43905
13243	0.63437	5.8182	0.	88.432
13244	0.725	5.8182	5.e-002	32.488
13245	0.725	5.9091	0.	74.471
13246	0.725	5.5455	0.	-8.4601
13247	0.63437	5.6364	0.	17.411
13248	0.725	5.6364	5.e-002	39.595
13249	0.725	5.3636	0.	-11.591
13250	0.63437	5.4545	0.	19.344
13251	0.725	5.4545	5.e-002	37.783
13252	0.725	5.1818	0.	-13.068
13253	0.63437	5.2727	0.	20.781
13254	0.725	5.2727	5.e-002	33.948
13255	0.725	5.	0.	-14.067
13256	0.63437	5.0909	0.	21.787
13257	0.725	5.0909	5.e-002	30.86
13258	0.725	4.8182	0.	-14.738
13259	0.63437	4.9091	0.	22.584
13260	0.725	4.9091	5.e-002	28.951
13261	0.725	4.6364	0.	-15.227
13262	0.63437	4.7273	0.	23.187
13263	0.725	4.7273	5.e-002	27.907
13264	0.725	4.4545	0.	-15.593
13265	0.63437	4.5455	0.	23.652
13266	0.725	4.5455	5.e-002	27.335
13267	0.725	4.2727	0.	-15.874
13268	0.63437	4.3636	0.	24.011
13269	0.725	4.3636	5.e-002	26.984
13270	0.725	4.0909	0.	-16.092
13271	0.63437	4.1818	0.	24.29
13272	0.725	4.1818	5.e-002	26.729
13273	0.725	3.9091	0.	-16.261
13274	0.63437	4.	0.	24.506
13275	0.725	4.	5.e-002	26.519
13276	0.725	3.7273	0.	-16.388
13277	0.63437	3.8182	0.	24.671
13278	0.725	3.8182	5.e-002	26.339
13279	0.725	3.5455	0.	-16.482
13280	0.63437	3.6364	0.	24.795
13281	0.725	3.6364	5.e-002	26.188
13282	0.725	3.3636	0.	-16.546
13283	0.63437	3.4545	0.	24.883
13284	0.725	3.4545	5.e-002	26.069
13285	0.725	3.1818	0.	-16.584
13286	0.63437	3.2727	0.	24.94
13287	0.725	3.2727	5.e-002	25.987
13288	0.725	3.	0.	-16.596
13289	0.63437	3.0909	0.	24.968
13290	0.725	3.0909	5.e-002	25.945
13291	0.725	2.8182	0.	-16.584
13292	0.63437	2.9091	0.	24.968
13293	0.725	2.9091	5.e-002	25.945
13294	0.725	2.6364	0.	-16.546
13295	0.63437	2.7273	0.	24.94
13296	0.725	2.7273	5.e-002	25.987
13297	0.725	2.4545	0.	-16.482
13298	0.63437	2.5455	0.	24.883
13299	0.725	2.5455	5.e-002	26.069
13300	0.725	2.2727	0.	-16.388
13301	0.63437	2.3636	0.	24.795
13302	0.725	2.3636	5.e-002	26.188
13303	0.725	2.0909	0.	-16.261
13304	0.63437	2.1818	0.	24.671
13305	0.725	2.1818	5.e-002	26.339
13306	0.725	1.9091	0.	-16.092
13307	0.63437	2.	0.	24.506
13308	0.725	2.	5.e-002	26.519
13309	0.725	1.7273	0.	-15.874
13310	0.63437	1.8182	0.	24.29
13311	0.725	1.8182	5.e-002	26.729
13312	0.725	1.5455	0.	-15.593
13313	0.63437	1.6364	0.	24.011
13314	0.725	1.6364	5.e-002	26.984
13315	0.725	1.3636	0.	-15.227
13316	0.63437	1.4545	0.	23.652
13317	0.725	1.4545	5.e-002	27.335
13318	0.725	1.1818	0.	-14.738
13319	0.63437	1.2727	0.	23.187
13320	0.725	1.2727	5.e-002	27.907
13321	0.725	1.	0.	-14.067
13322	0.63437	1.0909	0.	22.584
13323	0.725	1.0909	5.e-002	28.951
13324	0.725	0.81818	0.	-13.068
13325	0.63437	0.90909	0.	21.787
13326	0.725	0.90909	5.e-002	30.86
13327	0.725	0.63636	0.	-11.591
13328	0.63437	0.72727	0.	20.781
13329	0.725	0.72727	5.e-002	33.948
13330	0.725	0.45455	0.	-8.4601
13331	0.63437	0.54545	0.	19.344
13332	0.725	0.54545	5.e-002	37.783
13333	0.725	0.27273	0.	0.43906
13334	0.63437	0.36364	0.	17.411
13335	0.725	0.36364	5.e-002	39.595
13336	0.63437	0.18182	0.	88.432
13337	0.725	0.18182	5.e-002	32.488
13338	0.725	9.0909e-002	0.	74.471
13339	0.54375	5.7273	0.	33.838
13340	0.45312	5.8182	0.	96.658
13341	0.54375	5.8182	5.e-002	40.894
13342	0.54375	5.9091	0.	109.02
13343	0.54375	5.5455	0.	44.636
13344	0.45312	5.6364	0.	-48.811
13345	0.54375	5.6364	5.e-002	54.715
13346	0.54375	5.3636	0.	51.566
13347	0.45312	5.4545	0.	-67.224
13348	0.54375	5.4545	5.e-002	47.451
13349	0.54375	5.1818	0.	55.577
13350	0.45312	5.2727	0.	-76.463
13351	0.54375	5.2727	5.e-002	40.062
13352	0.54375	5.	0.	58.412
13353	0.45312	5.0909	0.	-82.312
13354	0.54375	5.0909	5.e-002	35.516
13355	0.54375	4.8182	0.	60.498
13356	0.45312	4.9091	0.	-86.367
13357	0.54375	4.9091	5.e-002	32.976
13358	0.54375	4.6364	0.	62.06
13359	0.45312	4.7273	0.	-89.315
13360	0.54375	4.7273	5.e-002	31.51
13361	0.54375	4.4545	0.	63.253
13362	0.45312	4.5455	0.	-91.531
13363	0.54375	4.5455	5.e-002	30.529
13364	0.54375	4.2727	0.	64.174
13365	0.45312	4.3636	0.	-93.227
13366	0.54375	4.3636	5.e-002	29.777
13367	0.54375	4.0909	0.	64.887
13368	0.45312	4.1818	0.	-94.536
13369	0.54375	4.1818	5.e-002	29.157
13370	0.54375	3.9091	0.	65.437
13371	0.45312	4.	0.	-95.547
13372	0.54375	4.	5.e-002	28.632
13373	0.54375	3.7273	0.	65.854
13374	0.45312	3.8182	0.	-96.321
13375	0.54375	3.8182	5.e-002	28.195
13376	0.54375	3.5455	0.	66.16
13377	0.45312	3.6364	0.	-96.899
13378	0.54375	3.6364	5.e-002	27.844
13379	0.54375	3.3636	0.	66.369
13380	0.45312	3.4545	0.	-97.31
13381	0.54375	3.4545	5.e-002	27.579
13382	0.54375	3.1818	0.	66.491
13383	0.45312	3.2727	0.	-97.575
13384	0.54375	3.2727	5.e-002	27.402
13385	0.54375	3.	0.	66.531
13386	0.45312	3.0909	0.	-97.704
13387	0.54375	3.0909	5.e-002	27.313
13388	0.54375	2.8182	0.	66.491
13389	0.45312	2.9091	0.	-97.704
13390	0.54375	2.9091	5.e-002	27.313
13391	0.54375	2.6364	0.	66.369
13392	0.45312	2.7273	0.	-97.575
13393	0.54375	2.7273	5.e-002	27.402
13394	0.54375	2.4545	0.	66.16
13395	0.45312	2.5455	0.	-97.31
13396	0.54375	2.5455	5.e-002	27.579
13397	0.54375	2.2727	0.	65.854
13398	0.45312	2.3636	0.	-96.899
13399	0.54375	2.3636	5.e-002	27.844
13400	0.54375	2.0909	0.	65.437
13401	0.45312	2.1818	0.	-96.321
13402	0.54375	2.1818	5.e-002	28.195
13403	0.54375	1.9091	0.	64.887
13404	0.45312	2.	0.	-95.547
13405	0.54375	2.	5.e-002	28.632
13406	0.54375	1.7273	0.	64.174
13407	0.45312	1.8182	0.	-94.536
13408	0.54375	1.8182	5.e-002	29.157
13409	0.54375	1.5455	0.	63.253
13410	0.45312	1.6364	0.	-93.227
13411	0.54375	1.6364	5.e-002	29.777
13412	0.54375	1.3636	0.	62.06
13413	0.45312	1.4545	0.	-91.531
13414	0.54375	1.4545	5.e-002	30.529
13415	0.54375	1.1818	0.	60.498
13416	0.45312	1.2727	0.	-89.315
13417	0.54375	1.2727	5.e-002	31.51
13418	0.54375	1.	0.	58.412
13419	0.45312	1.0909	0.	-86.367
13420	0.54375	1.0909	5.e-002	32.976
13421	0.54375	0.81818	0.	55.577
13422	0.45312	0.90909	0.	-82.312
13423	0.54375	0.90909	5.e-002	35.516
13424	0.54375	0.63636	0.	51.566
13425	0.45312	0.72727	0.	-76.463
13426	0.54375	0.72727	5.e-002	40.062
13427	0.54375	0.45455	0.	44.636
13428	0.45312	0.54545	0.	-67.224
13429	0.54375	0.54545	5.e-002	47.451
13430	0.54375	0.27273	0.	33.838
13431	0.45312	0.36364	0.	-48.811
13432	0.54375	0.36364	5.e-002	54.715
13433	0.45312	0.18182	0.	96.658
13434	0.54375	0.18182	5.e-002	40.894
13435	0.54375	9.0909e-002	0.	109.02
13436	0.3625	5.7273	0.	-90.523
13437	0.27187	5.8182	0.	164.55
13438	0.3625	5.8182	5.e-002	71.548
13439	0.3625	5.9091	0.	133.62
13440	0.3625	5.5455	0.	-161.67
13441	0.27187	5.6364	0.	236.03
13442	0.3625	5.6364	5.e-002	78.786
13443	0.3625	5.3636	0.	-195.47
13444	0.27187	5.4545	0.	279.69
13445	0.3625	5.4545	5.e-002	59.854
13446	0.3625	5.1818	0.	-214.43
13447	0.27187	5.2727	0.	310.9
13448	0.3625	5.2727	5.e-002	49.191
13449	0.3625	5.	0.	-227.12
13450	0.27187	5.0909	0.	330.85
13451	0.3625	5.0909	5.e-002	43.665
13452	0.3625	4.8182	0.	-236.19
13453	0.27187	4.9091	0.	345.4
13454	0.3625	4.9091	5.e-002	40.679
13455	0.3625	4.6364	0.	-242.91
13456	0.27187	4.7273	0.	356.11
13457	0.3625	4.7273	5.e-002	38.648
13458	0.3625	4.4545	0.	-248.01
13459	0.27187	4.5455	0.	364.25
13460	0.3625	4.5455	5.e-002	37.075
13461	0.3625	4.2727	0.	-251.94
13462	0.27187	4.3636	0.	370.52
13463	0.3625	4.3636	5.e-002	35.785
13464	0.3625	4.0909	0.	-254.97
13465	0.27187	4.1818	0.	375.38
13466	0.3625	4.1818	5.e-002	34.711
13467	0.3625	3.9091	0.	-257.3
13468	0.27187	4.	0.	379.15
13469	0.3625	4.	5.e-002	33.822
13470	0.3625	3.7273	0.	-259.07
13471	0.27187	3.8182	0.	382.04
13472	0.3625	3.8182	5.e-002	33.101
13473	0.3625	3.5455	0.	-260.37
13474	0.27187	3.6364	0.	384.2
13475	0.3625	3.6364	5.e-002	32.537
13476	0.3625	3.3636	0.	-261.25
13477	0.27187	3.4545	0.	385.74
13478	0.3625	3.4545	5.e-002	32.121
13479	0.3625	3.1818	0.	-261.77
13480	0.27187	3.2727	0.	386.73
13481	0.3625	3.2727	5.e-002	31.847
13482	0.3625	3.	0.	-261.94
13483	0.27187	3.0909	0.	387.22
13484	0.3625	3.0909	5.e-002	31.71
13485	0.3625	2.8182	0.	-261.77
13486	0.27187	2.9091	0.	387.22
13487	0.3625	2.9091	5.e-002	31.71
13488	0.3625	2.6364	0.	-261.25
13489	0.27187	2.7273	0.	386.73
13490	0.3625	2.7273	5.e-002	31.847
13491	0.3625	2.4545	0.	-260.37
13492	0.27187	2.5455	0.	385.74
13493	0.3625	2.5455	5.e-002	32.121
13494	0.3625	2.2727	0.	-259.07
13495	0.27187	2.3636	0.	384.2
13496	0.3625	2.3636	5.e-002	32.537
13497	0.3625	2.0909	0.	-257.3
13498	0.27187	2.1818	0.	382.04
13499	0.3625	2.1818	5.e-002	33.101
13500	0.3625	1.9091	0.	-254.97
13501	0.27187	2.	0.	379.15
13502	0.3625	2.	5.e-002	33.822
13503	0.3625	1.7273	0.	-251.94
13504	0.27187	1.8182	0.	375.38
13505	0.3625	1.8182	5.e-002	34.711
13506	0.3625	1.5455	0.	-248.01
13507	0.27187	1.6364	0.	370.52
13508	0.3625	1.6364	5.e-002	35.785
13509	0.3625	1.3636	0.	-242.91
13510	0.27187	1.4545	0.	364.25
13511	0.3625	1.4545	5.e-002	37.075
13512	0.3625	1.1818	0.	-236.19
13513	0.27187	1.2727	0.	356.11
13514	0.3625	1.2727	5.e-002	38.648
13515	0.3625	1.	0.	-227.12
13516	0.27187	1.0909	0.	345.4
13517	0.3625	1.0909	5.e-002	40.679
13518	0.3625	0.81818	0.	-214.43
13519	0.27187	0.90909	0.	330.85
13520	0.3625	0.90909	5.e-002	43.665
13521	0.3625	0.63636	0.	-195.47
13522	0.27187	0.72727	0.	310.9
13523	0.3625	0.72727	5.e-002	49.191
13524	0.3625	0.45455	0.	-161.67
13525	0.27187	0.54545	0.	279.69
13526	0.3625	0.54545	5.e-002	59.854
13527	0.3625	0.27273	0.	-90.523
13528	0.27187	0.36364	0.	236.03
13529	0.3625	0.36364	5.e-002	78.786
13530	0.27187	0.18182	0.	164.55
13531	0.3625	0.18182	5.e-002	71.548
13532	0.3625	9.0909e-002	0.	133.62
13533	0.18125	5.7273	0.	448.41
13534	0.18125	5.8182	5.e-002	171.16
13535	0.18125	5.9091	0.	221.23
13536	9.0625e-002	5.8182	0.	-398.77
13537	0.18125	5.5455	0.	676.66
13538	0.18125	5.6364	5.e-002	108.75
13539	9.0625e-002	5.6364	0.	-831.37
13540	0.18125	5.3636	0.	786.01
13541	0.18125	5.4545	5.e-002	73.978
13542	9.0625e-002	5.4545	0.	-1029.1
13543	0.18125	5.1818	0.	856.2
13544	0.18125	5.2727	5.e-002	56.73
13545	9.0625e-002	5.2727	0.	-1145.8
13546	0.18125	5.	0.	903.4
13547	0.18125	5.0909	5.e-002	47.763
13548	9.0625e-002	5.0909	0.	-1224.5
13549	0.18125	4.8182	0.	937.72
13550	0.18125	4.9091	5.e-002	41.64
13551	9.0625e-002	4.9091	0.	-1280.4
13552	0.18125	4.6364	0.	963.28
13553	0.18125	4.7273	5.e-002	37.181
13554	9.0625e-002	4.7273	0.	-1322.
13555	0.18125	4.4545	0.	982.79
13556	0.18125	4.5455	5.e-002	33.782
13557	9.0625e-002	4.5455	0.	-1353.4
13558	0.18125	4.2727	0.	997.85
13559	0.18125	4.3636	5.e-002	31.134
13560	9.0625e-002	4.3636	0.	-1377.7
13561	0.18125	4.0909	0.	1009.5
13562	0.18125	4.1818	5.e-002	29.051
13563	9.0625e-002	4.1818	0.	-1396.5
13564	0.18125	3.9091	0.	1018.5
13565	0.18125	4.	5.e-002	27.413
13566	9.0625e-002	4.	0.	-1411.1
13567	0.18125	3.7273	0.	1025.3
13568	0.18125	3.8182	5.e-002	26.139
13569	9.0625e-002	3.8182	0.	-1422.2
13570	0.18125	3.5455	0.	1030.3
13571	0.18125	3.6364	5.e-002	25.175
13572	9.0625e-002	3.6364	0.	-1430.6
13573	0.18125	3.3636	0.	1033.7
13574	0.18125	3.4545	5.e-002	24.48
13575	9.0625e-002	3.4545	0.	-1436.6
13576	0.18125	3.1818	0.	1035.7
13577	0.18125	3.2727	5.e-002	24.031
13578	9.0625e-002	3.2727	0.	-1440.4
13579	0.18125	3.	0.	1036.4
13580	0.18125	3.0909	5.e-002	23.81
13581	9.0625e-002	3.0909	0.	-1442.3
13582	0.18125	2.8182	0.	1035.7
13583	0.18125	2.9091	5.e-002	23.81
13584	9.0625e-002	2.9091	0.	-1442.3
13585	0.18125	2.6364	0.	1033.7
13586	0.18125	2.7273	5.e-002	24.031
13587	9.0625e-002	2.7273	0.	-1440.4
13588	0.18125	2.4545	0.	1030.3
13589	0.18125	2.5455	5.e-002	24.48
13590	9.0625e-002	2.5455	0.	-1436.6
13591	0.18125	2.2727	0.	1025.3
13592	0.18125	2.3636	5.e-002	25.175
13593	9.0625e-002	2.3636	0.	-1430.6
13594	0.18125	2.0909	0.	1018.5
13595	0.18125	2.1818	5.e-002	26.139
13596	9.0625e-002	2.1818	0.	-1422.2
13597	0.18125	1.9091	0.	1009.5
13598	0.18125	2.	5.e-002	27.413
13599	9.0625e-002	2.	0.	-1411.1
13600	0.18125	1.7273	0.	997.85
13601	0.18125	1.8182	5.e-002	29.051
13602	9.0625e-002	1.8182	0.	-1396.5
13603	0.18125	1.5455	0.	982.79
13604	0.18125	1.6364	5.e-002	31.134
13605	9.0625e-002	1.6364	0.	-1377.7
13606	0.18125	1.3636	0.	963.28
13607	0.18125	1.4545	5.e-002	33.782
13608	9.0625e-002	1.4545	0.	-1353.4
13609	0.18125	1.1818	0.	937.72
13610	0.18125	1.2727	5.e-002	37.181
13611	9.0625e-002	1.2727	0.	-1322.
13612	0.18125	1.	0.	903.4
13613	0.18125	1.0909	5.e-002	41.64
13614	9.0625e-002	1.0909	0.	-1280.4
13615	0.18125	0.81818	0.	856.2
13616	0.18125	0.90909	5.e-002	47.763
13617	9.0625e-002	0.90909	0.	-1224.5
13618	0.18125	0.63636	0.	786.01
13619	0.18125	0.72727	5.e-002	56.73
13620	9.0625e-002	0.72727	0.	-1145.8
13621	0.18125	0.45455	0.	676.66
13622	0.18125	0.54545	5.e-002	73.978
13623	9.0625e-002	0.54545	0.	-1029.1
13624	0.18125	0.27273	0.	448.41
13625	0.18125	0.36364	5.e-002	108.75
13626	9.0625e-002	0.36364	0.	-831.37
13627	0.18125	0.18182	5.e-002	171.16
13628	0.18125	9.0909e-002	0.	221.23
13629	9.0625e-002	0.18182	0.	-398.77
13630	9.1435	5.8182	0.	82.544
13631	9.0512	5.7273	0.	155.09
13632	9.0512	5.8182	5.e-002	52.9
13633	9.0512	5.9091	0.	39.967
13634	8.9589	5.8182	0.	46.827
13635	9.328	5.8182	0.	75.596
13636	9.2358	5.7273	0.	93.676
13637	9.2358	5.8182	5.e-002	46.687
13638	9.2358	5.9091	0.	33.117
13639	9.5126	5.8182	0.	77.785
13640	9.4203	5.7273	0.	87.858
13641	9.4203	5.8182	5.e-002	42.91
13642	9.4203	5.9091	0.	38.652
13643	9.6972	5.8182	0.	76.992
13644	9.6049	5.7273	0.	88.256
13645	9.6049	5.8182	5.e-002	38.402
13646	9.6049	5.9091	0.	41.754
13647	9.8817	5.8182	0.	72.633
13648	9.7894	5.7273	0.	86.037
13649	9.7894	5.8182	5.e-002	33.446
13650	9.7894	5.9091	0.	41.378
13651	10.066	5.8182	0.	65.972
13652	9.974	5.7273	0.	80.63
13653	9.974	5.8182	5.e-002	28.42
13654	9.974	5.9091	0.	38.795
13655	10.251	5.8182	0.	58.123
13656	10.159	5.7273	0.	72.837
13657	10.159	5.8182	5.e-002	23.621
13658	10.159	5.9091	0.	34.941
13659	10.435	5.8182	0.	49.959
13660	10.343	5.7273	0.	63.751
13661	10.343	5.8182	5.e-002	19.245
13662	10.343	5.9091	0.	30.543
13663	10.62	5.8182	0.	42.069
13664	10.528	5.7273	0.	54.29
13665	10.528	5.8182	5.e-002	15.391
13666	10.528	5.9091	0.	26.086
13667	10.804	5.8182	0.	34.809
13668	10.712	5.7273	0.	45.112
13669	10.712	5.8182	5.e-002	12.085
13670	10.712	5.9091	0.	21.869
13671	10.989	5.8182	0.	28.363
13672	10.897	5.7273	0.	36.63
13673	10.897	5.8182	5.e-002	9.31
13674	10.897	5.9091	0.	18.059
13675	11.174	5.8182	0.	22.795
13676	11.081	5.7273	0.	29.068
13677	11.081	5.8182	5.e-002	7.0192
13678	11.081	5.9091	0.	14.729
13679	11.358	5.8182	0.	18.098
13680	11.266	5.7273	0.	22.517
13681	11.266	5.8182	5.e-002	5.1558
13682	11.266	5.9091	0.	11.894
13683	11.543	5.8182	0.	14.219
13684	11.45	5.7273	0.	16.98
13685	11.45	5.8182	5.e-002	3.6605
13686	11.45	5.9091	0.	9.5365
13687	11.727	5.8182	0.	11.086
13688	11.635	5.7273	0.	12.407
13689	11.635	5.8182	5.e-002	2.4774
13690	11.635	5.9091	0.	7.6201
13691	11.912	5.8182	0.	8.6143
13692	11.82	5.7273	0.	8.7163
13693	11.82	5.8182	5.e-002	1.5576
13694	11.82	5.9091	0.	6.0997
13695	12.096	5.8182	0.	6.7215
13696	12.004	5.7273	0.	5.8171
13697	12.004	5.8182	5.e-002	0.86608
13698	12.004	5.9091	0.	4.9282
13699	12.281	5.8182	0.	5.3269
13700	12.189	5.7273	0.	3.6154
13701	12.189	5.8182	5.e-002	0.41678
13702	12.189	5.9091	0.	4.0595
13703	12.465	5.8182	0.	4.3555
13704	12.373	5.7273	0.	2.0275
13705	12.373	5.8182	5.e-002	0.37228
13706	12.373	5.9091	0.	3.4502
13707	12.65	5.8182	0.	3.7382
13708	12.558	5.7273	0.	0.99477
13709	12.558	5.8182	5.e-002	0.57189
13710	12.558	5.9091	0.	3.06
13711	12.835	5.8182	0.	3.4131
13712	12.742	5.7273	0.	0.47571
13713	12.742	5.8182	5.e-002	0.7544
13714	12.742	5.9091	0.	2.8519
13715	13.019	5.8182	0.	3.3267
13716	12.927	5.7273	0.	0.29828
13717	12.927	5.8182	5.e-002	0.88472
13718	12.927	5.9091	0.	2.793
13719	13.204	5.8182	0.	3.434
13720	13.111	5.7273	0.	0.2565
13721	13.111	5.8182	5.e-002	0.96723
13722	13.111	5.9091	0.	2.855
13723	13.388	5.8182	0.	3.6981
13724	13.296	5.7273	0.	0.29066
13725	13.296	5.8182	5.e-002	1.011
13726	13.296	5.9091	0.	3.0141
13727	13.573	5.8182	0.	4.0877
13728	13.48	5.7273	0.	0.44445
13729	13.48	5.8182	5.e-002	1.0246
13730	13.48	5.9091	0.	3.2507
13731	13.757	5.8182	0.	4.5767
13732	13.665	5.7273	0.	0.80624
13733	13.665	5.8182	5.e-002	1.0153
13734	13.665	5.9091	0.	3.5484
13735	13.942	5.8182	0.	5.1425
13736	13.85	5.7273	0.	1.3546
13737	13.85	5.8182	5.e-002	0.98911
13738	13.85	5.9091	0.	3.8938
13739	14.126	5.8182	0.	5.766
13740	14.034	5.7273	0.	2.0193
13741	14.034	5.8182	5.e-002	0.95081
13742	14.034	5.9091	0.	4.2754
13743	14.311	5.8182	0.	6.4316
13744	14.219	5.7273	0.	2.7576
13745	14.219	5.8182	5.e-002	0.90421
13746	14.219	5.9091	0.	4.6839
13747	14.496	5.8182	0.	7.1264
13748	14.403	5.7273	0.	3.5438
13749	14.403	5.8182	5.e-002	0.85222
13750	14.403	5.9091	0.	5.1115
13751	14.68	5.8182	0.	7.8399
13752	14.588	5.7273	0.	4.3601
13753	14.588	5.8182	5.e-002	0.79733
13754	14.588	5.9091	0.	5.5519
13755	14.865	5.8182	0.	8.5638
13756	14.772	5.7273	0.	5.1934
13757	14.772	5.8182	5.e-002	0.74128
13758	14.772	5.9091	0.	6.
13759	15.049	5.8182	0.	9.2917
13760	14.957	5.7273	0.	6.0337
13761	14.957	5.8182	5.e-002	0.68545
13762	14.957	5.9091	0.	6.4518
13763	15.234	5.8182	0.	10.019
13764	15.141	5.7273	0.	6.8735
13765	15.141	5.8182	5.e-002	0.63091
13766	15.141	5.9091	0.	6.9043
13767	15.418	5.8182	0.	10.741
13768	15.326	5.7273	0.	7.7073
13769	15.326	5.8182	5.e-002	0.57845
13770	15.326	5.9091	0.	7.355
13771	15.603	5.8182	0.	11.456
13772	15.511	5.7273	0.	8.5311
13773	15.511	5.8182	5.e-002	0.52866
13774	15.511	5.9091	0.	7.8023
13775	15.787	5.8182	0.	12.162
13776	15.695	5.7273	0.	9.3423
13777	15.695	5.8182	5.e-002	0.482
13778	15.695	5.9091	0.	8.245
13779	15.972	5.8182	0.	12.857
13780	15.88	5.7273	0.	10.139
13781	15.88	5.8182	5.e-002	0.43886
13782	15.88	5.9091	0.	8.6824
13783	16.157	5.8182	0.	13.542
13784	16.064	5.7273	0.	10.921
13785	16.064	5.8182	5.e-002	0.39953
13786	16.064	5.9091	0.	9.1139
13787	16.341	5.8182	0.	14.216
13788	16.249	5.7273	0.	11.687
13789	16.249	5.8182	5.e-002	0.3642
13790	16.249	5.9091	0.	9.5395
13791	16.526	5.8182	0.	14.879
13792	16.433	5.7273	0.	12.437
13793	16.433	5.8182	5.e-002	0.33313
13794	16.433	5.9091	0.	9.9594
13795	16.71	5.8182	0.	15.533
13796	16.618	5.7273	0.	13.173
13797	16.618	5.8182	5.e-002	0.30654
13798	16.618	5.9091	0.	10.374
13799	16.895	5.8182	0.	16.176
13800	16.802	5.7273	0.	13.896
13801	16.802	5.8182	5.e-002	0.28464
13802	16.802	5.9091	0.	10.783
13803	17.079	5.8182	0.	16.811
13804	16.987	5.7273	0.	14.606
13805	16.987	5.8182	5.e-002	0.26763
13806	16.987	5.9091	0.	11.187
13807	17.264	5.8182	0.	17.438
13808	17.172	5.7273	0.	15.304
13809	17.172	5.8182	5.e-002	0.25559
13810	17.172	5.9091	0.	11.587
13811	17.448	5.8182	0.	18.058
13812	17.356	5.7273	0.	15.993
13813	17.356	5.8182	5.e-002	0.24856
13814	17.356	5.9091	0.	11.983
13815	17.633	5.8182	0.	18.673
13816	17.541	5.7273	0.	16.673
13817	17.541	5.8182	5.e-002	0.24644
13818	17.541	5.9091	0.	12.377
13819	17.817	5.8182	0.	19.282
13820	17.725	5.7273	0.	17.347
13821	17.725	5.8182	5.e-002	0.24899
13822	17.725	5.9091	0.	12.768
13823	18.002	5.8182	0.	19.888
13824	17.91	5.7273	0.	18.015
13825	17.91	5.8182	5.e-002	0.2559
13826	17.91	5.9091	0.	13.157
13827	18.187	5.8182	0.	20.491
13828	18.094	5.7273	0.	18.679
13829	18.094	5.8182	5.e-002	0.26681
13830	18.094	5.9091	0.	13.545
13831	18.371	5.8182	0.	21.092
13832	18.279	5.7273	0.	19.341
13833	18.279	5.8182	5.e-002	0.28141
13834	18.279	5.9091	0.	13.933
13835	18.556	5.8182	0.	21.691
13836	18.463	5.7273	0.	20.002
13837	18.463	5.8182	5.e-002	0.29943
13838	18.463	5.9091	0.	14.32
13839	18.74	5.8182	0.	22.29
13840	18.648	5.7273	0.	20.664
13841	18.648	5.8182	5.e-002	0.32072
13842	18.648	5.9091	0.	14.708
13843	18.925	5.8182	0.	22.889
13844	18.833	5.7273	0.	21.327
13845	18.833	5.8182	5.e-002	0.34525
13846	18.833	5.9091	0.	15.096
13847	19.109	5.8182	0.	23.488
13848	19.017	5.7273	0.	21.993
13849	19.017	5.8182	5.e-002	0.373
13850	19.017	5.9091	0.	15.486
13851	19.294	5.8182	0.	24.088
13852	19.202	5.7273	0.	22.664
13853	19.202	5.8182	5.e-002	0.40408
13854	19.202	5.9091	0.	15.877
13855	19.478	5.8182	0.	24.689
13856	19.386	5.7273	0.	23.339
13857	19.386	5.8182	5.e-002	0.43865
13858	19.386	5.9091	0.	16.269
13859	19.663	5.8182	0.	25.29
13860	19.571	5.7273	0.	24.019
13861	19.571	5.8182	5.e-002	0.47691
13862	19.571	5.9091	0.	16.662
13863	19.848	5.8182	0.	25.891
13864	19.755	5.7273	0.	24.706
13865	19.755	5.8182	5.e-002	0.51907
13866	19.755	5.9091	0.	17.057
13867	20.032	5.8182	0.	26.492
13868	19.94	5.7273	0.	25.4
13869	19.94	5.8182	5.e-002	0.56542
13870	19.94	5.9091	0.	17.453
13871	20.217	5.8182	0.	27.091
13872	20.124	5.7273	0.	26.101
13873	20.124	5.8182	5.e-002	0.61628
13874	20.124	5.9091	0.	17.85
13875	20.401	5.8182	0.	27.688
13876	20.309	5.7273	0.	26.809
13877	20.309	5.8182	5.e-002	0.67196
13878	20.309	5.9091	0.	18.247
13879	20.586	5.8182	0.	28.281
13880	20.493	5.7273	0.	27.524
13881	20.493	5.8182	5.e-002	0.73283
13882	20.493	5.9091	0.	18.643
13883	20.77	5.8182	0.	28.867
13884	20.678	5.7273	0.	28.246
13885	20.678	5.8182	5.e-002	0.79928
13886	20.678	5.9091	0.	19.038
13887	20.955	5.8182	0.	29.445
13888	20.863	5.7273	0.	28.974
13889	20.863	5.8182	5.e-002	0.87173
13890	20.863	5.9091	0.	19.429
13891	21.139	5.8182	0.	30.011
13892	21.047	5.7273	0.	29.706
13893	21.047	5.8182	5.e-002	0.95064
13894	21.047	5.9091	0.	19.816
13895	21.324	5.8182	0.	30.562
13896	21.232	5.7273	0.	30.443
13897	21.232	5.8182	5.e-002	1.0365
13898	21.232	5.9091	0.	20.196
13899	21.509	5.8182	0.	31.092
13900	21.416	5.7273	0.	31.182
13901	21.416	5.8182	5.e-002	1.1299
13902	21.416	5.9091	0.	20.568
13903	21.693	5.8182	0.	31.597
13904	21.601	5.7273	0.	31.921
13905	21.601	5.8182	5.e-002	1.2313
13906	21.601	5.9091	0.	20.927
13907	21.878	5.8182	0.	32.07
13908	21.785	5.7273	0.	32.659
13909	21.785	5.8182	5.e-002	1.3416
13910	21.785	5.9091	0.	21.27
13911	22.062	5.8182	0.	32.502
13912	21.97	5.7273	0.	33.393
13913	21.97	5.8182	5.e-002	1.4614
13914	21.97	5.9091	0.	21.594
13915	22.247	5.8182	0.	32.884
13916	22.154	5.7273	0.	34.122
13917	22.154	5.8182	5.e-002	1.5918
13918	22.154	5.9091	0.	21.892
13919	22.431	5.8182	0.	33.206
13920	22.339	5.7273	0.	34.843
13921	22.339	5.8182	5.e-002	1.7337
13922	22.339	5.9091	0.	22.157
13923	22.616	5.8182	0.	33.451
13924	22.524	5.7273	0.	35.557
13925	22.524	5.8182	5.e-002	1.8886
13926	22.524	5.9091	0.	22.382
13927	22.8	5.8182	0.	33.605
13928	22.708	5.7273	0.	36.266
13929	22.708	5.8182	5.e-002	2.0581
13930	22.708	5.9091	0.	22.555
13931	22.985	5.8182	0.	33.646
13932	22.893	5.7273	0.	36.98
13933	22.893	5.8182	5.e-002	2.2444
13934	22.893	5.9091	0.	22.66
13935	23.17	5.8182	0.	33.558
13936	23.077	5.7273	0.	37.721
13937	23.077	5.8182	5.e-002	2.4509
13938	23.077	5.9091	0.	22.678
13939	23.354	5.8182	0.	33.334
13940	23.262	5.7273	0.	38.553
13941	23.262	5.8182	5.e-002	2.683
13942	23.262	5.9091	0.	22.583
13943	23.539	5.8182	0.	33.05
13944	23.446	5.7273	0.	39.615
13945	23.446	5.8182	5.e-002	2.9483
13946	23.446	5.9091	0.	22.323
13947	23.723	5.8182	0.	33.412
13948	23.631	5.7273	0.	41.353
13949	23.631	5.8182	5.e-002	3.281
13950	23.631	5.9091	0.	21.928
13951	23.815	5.7273	0.	45.179
13952	23.815	5.8182	5.e-002	3.9914
13953	23.908	5.8182	0.	34.709
13954	23.815	5.9091	0.	21.29
13955	9.1435	5.6364	0.	148.19
13956	9.0512	5.5455	0.	297.93
13957	9.0512	5.6364	5.e-002	47.88
13958	8.9589	5.6364	0.	151.12
13959	9.328	5.6364	0.	100.67
13960	9.2358	5.5455	0.	164.45
13961	9.2358	5.6364	5.e-002	40.189
13962	9.5126	5.6364	0.	95.759
13963	9.4203	5.5455	0.	129.12
13964	9.4203	5.6364	5.e-002	36.244
13965	9.6972	5.6364	0.	95.662
13966	9.6049	5.5455	0.	117.3
13967	9.6049	5.6364	5.e-002	31.458
13968	9.8817	5.6364	0.	92.892
13969	9.7894	5.5455	0.	109.47
13970	9.7894	5.6364	5.e-002	26.474
13971	10.066	5.6364	0.	86.697
13972	9.974	5.5455	0.	100.64
13973	9.974	5.6364	5.e-002	21.651
13974	10.251	5.6364	0.	77.923
13975	10.159	5.5455	0.	89.984
13976	10.159	5.6364	5.e-002	17.225
13977	10.435	5.6364	0.	67.73
13978	10.343	5.5455	0.	78.07
13979	10.343	5.6364	5.e-002	13.315
13980	10.62	5.6364	0.	57.118
13981	10.528	5.5455	0.	65.737
13982	10.528	5.6364	5.e-002	9.957
13983	10.804	5.6364	0.	46.813
13984	10.712	5.5455	0.	53.714
13985	10.712	5.6364	5.e-002	7.134
13986	10.989	5.6364	0.	37.281
13987	10.897	5.5455	0.	42.512
13988	10.897	5.6364	5.e-002	4.8032
13989	11.174	5.6364	0.	28.78
13990	11.081	5.5455	0.	32.441
13991	11.081	5.6364	5.e-002	2.9185
13992	11.358	5.6364	0.	21.418
13993	11.266	5.5455	0.	23.651
13994	11.266	5.6364	5.e-002	1.4743
13995	11.543	5.6364	0.	15.205
13996	11.45	5.5455	0.	16.176
13997	11.45	5.6364	5.e-002	0.79608
13998	11.727	5.6364	0.	10.089
13999	11.635	5.5455	0.	9.9806
14000	11.635	5.6364	5.e-002	1.3031
14001	11.912	5.6364	0.	5.9865
14002	11.82	5.5455	0.	5.0034
14003	11.82	5.6364	5.e-002	2.0004
14004	12.096	5.6364	0.	2.8153
14005	12.004	5.5455	0.	1.3676
14006	12.004	5.6364	5.e-002	2.5949
14007	12.281	5.6364	0.	0.68761
14008	12.189	5.5455	0.	0.23662
14009	12.189	5.6364	5.e-002	3.0727
14010	12.465	5.6364	0.	0.15898
14011	12.373	5.5455	0.	0.10559
14012	12.373	5.6364	5.e-002	3.4487
14013	12.65	5.6364	0.	8.7028e-002
14014	12.558	5.5455	0.	6.7802e-002
14015	12.558	5.6364	5.e-002	3.7407
14016	12.835	5.6364	0.	6.4117e-002
14017	12.742	5.5455	0.	5.0753e-002
14018	12.742	5.6364	5.e-002	3.9646
14019	13.019	5.6364	0.	5.3209e-002
14020	12.927	5.5455	0.	4.1119e-002
14021	12.927	5.6364	5.e-002	4.1339
14022	13.204	5.6364	0.	4.671e-002
14023	13.111	5.5455	0.	3.4822e-002
14024	13.111	5.6364	5.e-002	4.2598
14025	13.388	5.6364	0.	4.2203e-002
14026	13.296	5.5455	0.	3.0264e-002
14027	13.296	5.6364	5.e-002	4.3512
14028	13.573	5.6364	0.	3.8772e-002
14029	13.48	5.5455	0.	2.6648e-002
14030	13.48	5.6364	5.e-002	4.4156
14031	13.757	5.6364	0.	3.6155e-002
14032	13.665	5.5455	0.	2.3621e-002
14033	13.665	5.6364	5.e-002	4.4587
14034	13.942	5.6364	0.	3.4569e-002
14035	13.85	5.5455	0.	2.1001e-002
14036	13.85	5.6364	5.e-002	4.4852
14037	14.126	5.6364	0.	3.5824e-002
14038	14.034	5.5455	0.	1.8661e-002
14039	14.034	5.6364	5.e-002	4.4989
14040	14.311	5.6364	0.	8.3318e-002
14041	14.219	5.5455	0.	1.6523e-002
14042	14.219	5.6364	5.e-002	4.5028
14043	14.496	5.6364	0.	0.86525
14044	14.403	5.5455	0.	1.4564e-002
14045	14.403	5.6364	5.e-002	4.4991
14046	14.68	5.6364	0.	1.8038
14047	14.588	5.5455	0.	1.2779e-002
14048	14.588	5.6364	5.e-002	4.4898
14049	14.865	5.6364	0.	2.7575
14050	14.772	5.5455	0.	1.1413e-002
14051	14.772	5.6364	5.e-002	4.4762
14052	15.049	5.6364	0.	3.7134
14053	14.957	5.5455	0.	1.0385
14054	14.957	5.6364	5.e-002	4.4595
14055	15.234	5.6364	0.	4.6635
14056	15.141	5.5455	0.	2.1399
14057	15.141	5.6364	5.e-002	4.4406
14058	15.418	5.6364	0.	5.602
14059	15.326	5.5455	0.	3.2263
14060	15.326	5.6364	5.e-002	4.4201
14061	15.603	5.6364	0.	6.5251
14062	15.511	5.5455	0.	4.2929
14063	15.511	5.6364	5.e-002	4.3986
14064	15.787	5.6364	0.	7.4301
14065	15.695	5.5455	0.	5.3363
14066	15.695	5.6364	5.e-002	4.3765
14067	15.972	5.6364	0.	8.3157
14068	15.88	5.5455	0.	6.3549
14069	15.88	5.6364	5.e-002	4.3541
14070	16.157	5.6364	0.	9.1811
14071	16.064	5.5455	0.	7.3477
14072	16.064	5.6364	5.e-002	4.3316
14073	16.341	5.6364	0.	10.027
14074	16.249	5.5455	0.	8.3149
14075	16.249	5.6364	5.e-002	4.3092
14076	16.526	5.6364	0.	10.853
14077	16.433	5.5455	0.	9.2574
14078	16.433	5.6364	5.e-002	4.2869
14079	16.71	5.6364	0.	11.661
14080	16.618	5.5455	0.	10.176
14081	16.618	5.6364	5.e-002	4.2651
14082	16.895	5.6364	0.	12.453
14083	16.802	5.5455	0.	11.074
14084	16.802	5.6364	5.e-002	4.2436
14085	17.079	5.6364	0.	13.229
14086	16.987	5.5455	0.	11.951
14087	16.987	5.6364	5.e-002	4.2225
14088	17.264	5.6364	0.	13.992
14089	17.172	5.5455	0.	12.811
14090	17.172	5.6364	5.e-002	4.202
14091	17.448	5.6364	0.	14.744
14092	17.356	5.5455	0.	13.656
14093	17.356	5.6364	5.e-002	4.1819
14094	17.633	5.6364	0.	15.486
14095	17.541	5.5455	0.	14.489
14096	17.541	5.6364	5.e-002	4.1624
14097	17.817	5.6364	0.	16.221
14098	17.725	5.5455	0.	15.311
14099	17.725	5.6364	5.e-002	4.1434
14100	18.002	5.6364	0.	16.951
14101	17.91	5.5455	0.	16.126
14102	17.91	5.6364	5.e-002	4.125
14103	18.187	5.6364	0.	17.678
14104	18.094	5.5455	0.	16.937
14105	18.094	5.6364	5.e-002	4.1072
14106	18.371	5.6364	0.	18.403
14107	18.279	5.5455	0.	17.746
14108	18.279	5.6364	5.e-002	4.09
14109	18.556	5.6364	0.	19.13
14110	18.463	5.5455	0.	18.556
14111	18.463	5.6364	5.e-002	4.0734
14112	18.74	5.6364	0.	19.86
14113	18.648	5.5455	0.	19.369
14114	18.648	5.6364	5.e-002	4.0574
14115	18.925	5.6364	0.	20.594
14116	18.833	5.5455	0.	20.187
14117	18.833	5.6364	5.e-002	4.0421
14118	19.109	5.6364	0.	21.335
14119	19.017	5.5455	0.	21.015
14120	19.017	5.6364	5.e-002	4.0275
14121	19.294	5.6364	0.	22.085
14122	19.202	5.5455	0.	21.853
14123	19.202	5.6364	5.e-002	4.0136
14124	19.478	5.6364	0.	22.844
14125	19.386	5.5455	0.	22.705
14126	19.386	5.6364	5.e-002	4.0004
14127	19.663	5.6364	0.	23.616
14128	19.571	5.5455	0.	23.572
14129	19.571	5.6364	5.e-002	3.988
14130	19.848	5.6364	0.	24.4
14131	19.755	5.5455	0.	24.458
14132	19.755	5.6364	5.e-002	3.9763
14133	20.032	5.6364	0.	25.199
14134	19.94	5.5455	0.	25.364
14135	19.94	5.6364	5.e-002	3.9655
14136	20.217	5.6364	0.	26.014
14137	20.124	5.5455	0.	26.294
14138	20.124	5.6364	5.e-002	3.9556
14139	20.401	5.6364	0.	26.846
14140	20.309	5.5455	0.	27.248
14141	20.309	5.6364	5.e-002	3.9466
14142	20.586	5.6364	0.	27.696
14143	20.493	5.5455	0.	28.231
14144	20.493	5.6364	5.e-002	3.9386
14145	20.77	5.6364	0.	28.566
14146	20.678	5.5455	0.	29.243
14147	20.678	5.6364	5.e-002	3.9315
14148	20.955	5.6364	0.	29.456
14149	20.863	5.5455	0.	30.288
14150	20.863	5.6364	5.e-002	3.9256
14151	21.139	5.6364	0.	30.368
14152	21.047	5.5455	0.	31.369
14153	21.047	5.6364	5.e-002	3.9208
14154	21.324	5.6364	0.	31.302
14155	21.232	5.5455	0.	32.489
14156	21.232	5.6364	5.e-002	3.9171
14157	21.509	5.6364	0.	32.261
14158	21.416	5.5455	0.	33.651
14159	21.416	5.6364	5.e-002	3.9147
14160	21.693	5.6364	0.	33.246
14161	21.601	5.5455	0.	34.861
14162	21.601	5.6364	5.e-002	3.9136
14163	21.878	5.6364	0.	34.26
14164	21.785	5.5455	0.	36.125
14165	21.785	5.6364	5.e-002	3.9138
14166	22.062	5.6364	0.	35.308
14167	21.97	5.5455	0.	37.451
14168	21.97	5.6364	5.e-002	3.9156
14169	22.247	5.6364	0.	36.396
14170	22.154	5.5455	0.	38.85
14171	22.154	5.6364	5.e-002	3.9189
14172	22.431	5.6364	0.	37.535
14173	22.339	5.5455	0.	40.34
14174	22.339	5.6364	5.e-002	3.9241
14175	22.616	5.6364	0.	38.744
14176	22.524	5.5455	0.	41.946
14177	22.524	5.6364	5.e-002	3.9313
14178	22.8	5.6364	0.	40.054
14179	22.708	5.5455	0.	43.706
14180	22.708	5.6364	5.e-002	3.9411
14181	22.985	5.6364	0.	41.52
14182	22.893	5.5455	0.	45.682
14183	22.893	5.6364	5.e-002	3.9542
14184	23.17	5.6364	0.	43.25
14185	23.077	5.5455	0.	47.977
14186	23.077	5.6364	5.e-002	3.9725
14187	23.354	5.6364	0.	45.453
14188	23.262	5.5455	0.	50.772
14189	23.262	5.6364	5.e-002	3.9994
14190	23.539	5.6364	0.	48.616
14191	23.446	5.5455	0.	54.378
14192	23.446	5.6364	5.e-002	4.0456
14193	23.723	5.6364	0.	53.765
14194	23.631	5.5455	0.	59.447
14195	23.631	5.6364	5.e-002	4.1512
14196	23.815	5.5455	0.	66.953
14197	23.815	5.6364	5.e-002	4.5277
14198	23.908	5.6364	0.	60.048
14199	9.1435	5.4545	0.	285.4
14200	9.0512	5.3636	0.	487.55
14201	9.0512	5.4545	5.e-002	51.206
14202	8.9589	5.4545	0.	293.18
14203	9.328	5.4545	0.	180.46
14204	9.2358	5.3636	0.	287.3
14205	9.2358	5.4545	5.e-002	40.619
14206	9.5126	5.4545	0.	144.86
14207	9.4203	5.3636	0.	205.97
14208	9.4203	5.4545	5.e-002	36.344
14209	9.6972	5.4545	0.	127.96
14210	9.6049	5.3636	0.	164.41
14211	9.6049	5.4545	5.e-002	31.217
14212	9.8817	5.4545	0.	115.33
14213	9.7894	5.3636	0.	138.05
14214	9.7894	5.4545	5.e-002	25.913
14215	10.066	5.4545	0.	102.74
14216	9.974	5.3636	0.	117.58
14217	9.974	5.4545	5.e-002	20.887
14218	10.251	5.4545	0.	89.373
14219	10.159	5.3636	0.	99.39
14220	10.159	5.4545	5.e-002	16.396
14221	10.435	5.4545	0.	75.598
14222	10.343	5.3636	0.	82.441
14223	10.343	5.4545	5.e-002	12.528
14224	10.62	5.4545	0.	62.04
14225	10.528	5.3636	0.	66.616
14226	10.528	5.4545	5.e-002	9.2856
14227	10.804	5.4545	0.	49.242
14228	10.712	5.3636	0.	52.077
14229	10.712	5.4545	5.e-002	6.628
14230	10.989	5.4545	0.	37.583
14231	10.897	5.3636	0.	39.007
14232	10.897	5.4545	5.e-002	4.512
14233	11.174	5.4545	0.	27.278
14234	11.081	5.3636	0.	27.528
14235	11.081	5.4545	5.e-002	2.9291
14236	11.358	5.4545	0.	18.413
14237	11.266	5.3636	0.	17.685
14238	11.266	5.4545	5.e-002	1.9759
14239	11.543	5.4545	0.	10.992
14240	11.45	5.3636	0.	9.4931
14241	11.45	5.4545	5.e-002	1.8097
14242	11.727	5.4545	0.	5.009
14243	11.635	5.3636	0.	3.1921
14244	11.635	5.4545	5.e-002	2.1832
14245	11.912	5.4545	0.	1.0503
14246	11.82	5.3636	0.	0.59647
14247	11.82	5.4545	5.e-002	2.6848
14248	12.096	5.4545	0.	0.24469
14249	12.004	5.3636	0.	0.22394
14250	12.004	5.4545	5.e-002	3.1496
14251	12.281	5.4545	0.	0.11815
14252	12.189	5.3636	0.	0.12327
14253	12.189	5.4545	5.e-002	3.5399
14254	12.465	5.4545	0.	7.3765e-002
14255	12.373	5.3636	0.	8.0124e-002
14256	12.373	5.4545	5.e-002	3.8547
14257	12.65	5.4545	0.	5.1995e-002
14258	12.558	5.3636	0.	5.7166e-002
14259	12.558	5.4545	5.e-002	4.1028
14260	12.835	5.4545	0.	3.9284e-002
14261	12.742	5.3636	0.	4.3274e-002
14262	12.742	5.4545	5.e-002	4.295
14263	13.019	5.4545	0.	3.1008e-002
14264	12.927	5.3636	0.	3.4102e-002
14265	12.927	5.4545	5.e-002	4.4413
14266	13.204	5.4545	0.	2.5212e-002
14267	13.111	5.3636	0.	2.7658e-002
14268	13.111	5.4545	5.e-002	4.5504
14269	13.388	5.4545	0.	2.0912e-002
14270	13.296	5.3636	0.	2.2932e-002
14271	13.296	5.4545	5.e-002	4.63
14272	13.573	5.4545	0.	1.7569e-002
14273	13.48	5.3636	0.	1.9292e-002
14274	13.48	5.4545	5.e-002	4.686
14275	13.757	5.4545	0.	1.4901e-002
14276	13.665	5.3636	0.	1.6417e-002
14277	13.665	5.4545	5.e-002	4.7235
14278	13.942	5.4545	0.	1.2729e-002
14279	13.85	5.3636	0.	1.4116e-002
14280	13.85	5.4545	5.e-002	4.7463
14281	14.126	5.4545	0.	1.0924e-002
14282	14.034	5.3636	0.	1.2242e-002
14283	14.034	5.4545	5.e-002	4.7578
14284	14.311	5.4545	0.	9.4208e-003
14285	14.219	5.3636	0.	1.0698e-002
14286	14.219	5.4545	5.e-002	4.7605
14287	14.496	5.4545	0.	8.2096e-003
14288	14.403	5.3636	0.	9.4557e-003
14289	14.403	5.4545	5.e-002	4.7564
14290	14.68	5.4545	0.	7.3101e-003
14291	14.588	5.3636	0.	8.5193e-003
14292	14.588	5.4545	5.e-002	4.7471
14293	14.865	5.4545	0.	6.9722e-003
14294	14.772	5.3636	0.	7.8884e-003
14295	14.772	5.4545	5.e-002	4.734
14296	15.049	5.4545	0.	1.0314e-002
14297	14.957	5.3636	0.	7.7743e-003
14298	14.957	5.4545	5.e-002	4.7179
14299	15.234	5.4545	0.	0.73452
14300	15.141	5.3636	0.	9.0391e-003
14301	15.141	5.4545	5.e-002	4.6997
14302	15.418	5.4545	0.	1.9467
14303	15.326	5.3636	0.	2.1591e-002
14304	15.326	5.4545	5.e-002	4.6799
14305	15.603	5.4545	0.	3.1336
14306	15.511	5.3636	0.	0.86869
14307	15.511	5.4545	5.e-002	4.6591
14308	15.787	5.4545	0.	4.2909
14309	15.695	5.3636	0.	2.1689
14310	15.695	5.4545	5.e-002	4.6376
14311	15.972	5.4545	0.	5.4173
14312	15.88	5.3636	0.	3.4361
14313	15.88	5.4545	5.e-002	4.6156
14314	16.157	5.4545	0.	6.5125
14315	16.064	5.3636	0.	4.666
14316	16.064	5.4545	5.e-002	4.5935
14317	16.341	5.4545	0.	7.5773
14318	16.249	5.3636	0.	5.859
14319	16.249	5.4545	5.e-002	4.5713
14320	16.526	5.4545	0.	8.6131
14321	16.433	5.3636	0.	7.0168
14322	16.433	5.4545	5.e-002	4.5492
14323	16.71	5.4545	0.	9.6219
14324	16.618	5.3636	0.	8.1414
14325	16.618	5.4545	5.e-002	4.5272
14326	16.895	5.4545	0.	10.606
14327	16.802	5.3636	0.	9.2356
14328	16.802	5.4545	5.e-002	4.5054
14329	17.079	5.4545	0.	11.568
14330	16.987	5.3636	0.	10.303
14331	16.987	5.4545	5.e-002	4.484
14332	17.264	5.4545	0.	12.511
14333	17.172	5.3636	0.	11.345
14334	17.172	5.4545	5.e-002	4.4629
14335	17.448	5.4545	0.	13.438
14336	17.356	5.3636	0.	12.368
14337	17.356	5.4545	5.e-002	4.4421
14338	17.633	5.4545	0.	14.351
14339	17.541	5.3636	0.	13.374
14340	17.541	5.4545	5.e-002	4.4216
14341	17.817	5.4545	0.	15.255
14342	17.725	5.3636	0.	14.367
14343	17.725	5.4545	5.e-002	4.4016
14344	18.002	5.4545	0.	16.153
14345	17.91	5.3636	0.	15.35
14346	17.91	5.4545	5.e-002	4.382
14347	18.187	5.4545	0.	17.046
14348	18.094	5.3636	0.	16.328
14349	18.094	5.4545	5.e-002	4.3628
14350	18.371	5.4545	0.	17.94
14351	18.279	5.3636	0.	17.305
14352	18.279	5.4545	5.e-002	4.344
14353	18.556	5.4545	0.	18.837
14354	18.463	5.3636	0.	18.285
14355	18.463	5.4545	5.e-002	4.3257
14356	18.74	5.4545	0.	19.741
14357	18.648	5.3636	0.	19.27
14358	18.648	5.4545	5.e-002	4.3078
14359	18.925	5.4545	0.	20.654
14360	18.833	5.3636	0.	20.266
14361	18.833	5.4545	5.e-002	4.2904
14362	19.109	5.4545	0.	21.58
14363	19.017	5.3636	0.	21.276
14364	19.017	5.4545	5.e-002	4.2736
14365	19.294	5.4545	0.	22.522
14366	19.202	5.3636	0.	22.305
14367	19.202	5.4545	5.e-002	4.2572
14368	19.478	5.4545	0.	23.483
14369	19.386	5.3636	0.	23.355
14370	19.386	5.4545	5.e-002	4.2414
14371	19.663	5.4545	0.	24.467
14372	19.571	5.3636	0.	24.432
14373	19.571	5.4545	5.e-002	4.2261
14374	19.848	5.4545	0.	25.477
14375	19.755	5.3636	0.	25.539
14376	19.755	5.4545	5.e-002	4.2115
14377	20.032	5.4545	0.	26.516
14378	19.94	5.3636	0.	26.68
14379	19.94	5.4545	5.e-002	4.1974
14380	20.217	5.4545	0.	27.587
14381	20.124	5.3636	0.	27.861
14382	20.124	5.4545	5.e-002	4.184
14383	20.401	5.4545	0.	28.695
14384	20.309	5.3636	0.	29.085
14385	20.309	5.4545	5.e-002	4.1713
14386	20.586	5.4545	0.	29.843
14387	20.493	5.3636	0.	30.357
14388	20.493	5.4545	5.e-002	4.1592
14389	20.77	5.4545	0.	31.034
14390	20.678	5.3636	0.	31.683
14391	20.678	5.4545	5.e-002	4.148
14392	20.955	5.4545	0.	32.274
14393	20.863	5.3636	0.	33.068
14394	20.863	5.4545	5.e-002	4.1375
14395	21.139	5.4545	0.	33.568
14396	21.047	5.3636	0.	34.52
14397	21.047	5.4545	5.e-002	4.1279
14398	21.324	5.4545	0.	34.921
14399	21.232	5.3636	0.	36.045
14400	21.232	5.4545	5.e-002	4.1191
14401	21.509	5.4545	0.	36.341
14402	21.416	5.3636	0.	37.653
14403	21.416	5.4545	5.e-002	4.1113
14404	21.693	5.4545	0.	37.837
14405	21.601	5.3636	0.	39.355
14406	21.601	5.4545	5.e-002	4.1045
14407	21.878	5.4545	0.	39.421
14408	21.785	5.3636	0.	41.165
14409	21.785	5.4545	5.e-002	4.0988
14410	22.062	5.4545	0.	41.109
14411	21.97	5.3636	0.	43.1
14412	21.97	5.4545	5.e-002	4.0943
14413	22.247	5.4545	0.	42.923
14414	22.154	5.3636	0.	45.185
14415	22.154	5.4545	5.e-002	4.0912
14416	22.431	5.4545	0.	44.893
14417	22.339	5.3636	0.	47.453
14418	22.339	5.4545	5.e-002	4.0897
14419	22.616	5.4545	0.	47.067
14420	22.524	5.3636	0.	49.948
14421	22.524	5.4545	5.e-002	4.0904
14422	22.8	5.4545	0.	49.513
14423	22.708	5.3636	0.	52.735
14424	22.708	5.4545	5.e-002	4.0938
14425	22.985	5.4545	0.	52.338
14426	22.893	5.3636	0.	55.91
14427	22.893	5.4545	5.e-002	4.1013
14428	23.17	5.4545	0.	55.716
14429	23.077	5.3636	0.	59.611
14430	23.077	5.4545	5.e-002	4.1153
14431	23.354	5.4545	0.	59.921
14432	23.262	5.3636	0.	64.055
14433	23.262	5.4545	5.e-002	4.1411
14434	23.539	5.4545	0.	65.41
14435	23.446	5.3636	0.	69.536
14436	23.446	5.4545	5.e-002	4.1892
14437	23.723	5.4545	0.	72.78
14438	23.631	5.3636	0.	76.531
14439	23.631	5.4545	5.e-002	4.2863
14440	23.815	5.3636	0.	85.435
14441	23.815	5.4545	5.e-002	4.5834
14442	23.908	5.4545	0.	80.632
14443	9.1435	5.2727	0.	458.47
14444	9.0512	5.1818	0.	709.81
14445	9.0512	5.2727	5.e-002	57.752
14446	8.9589	5.2727	0.	458.8
14447	9.328	5.2727	0.	293.86
14448	9.2358	5.1818	0.	440.06
14449	9.2358	5.2727	5.e-002	42.98
14450	9.5126	5.2727	0.	215.09
14451	9.4203	5.1818	0.	304.67
14452	9.4203	5.2727	5.e-002	37.588
14453	9.6972	5.2727	0.	168.67
14454	9.6049	5.1818	0.	221.93
14455	9.6049	5.2727	5.e-002	31.571
14456	9.8817	5.2727	0.	136.93
14457	9.7894	5.1818	0.	167.48
14458	9.7894	5.2727	5.e-002	25.678
14459	10.066	5.2727	0.	112.24
14460	9.974	5.1818	0.	129.06
14461	9.974	5.2727	5.e-002	20.371
14462	10.251	5.2727	0.	91.271
14463	10.159	5.1818	0.	99.865
14464	10.159	5.2727	5.e-002	15.83
14465	10.435	5.2727	0.	72.758
14466	10.343	5.1818	0.	76.404
14467	10.343	5.2727	5.e-002	12.066
14468	10.62	5.2727	0.	56.252
14469	10.528	5.1818	0.	56.881
14470	10.528	5.2727	5.e-002	9.0164
14471	10.804	5.2727	0.	41.632
14472	10.712	5.1818	0.	40.382
14473	10.712	5.2727	5.e-002	6.61
14474	10.989	5.2727	0.	28.869
14475	10.897	5.1818	0.	26.432
14476	10.897	5.2727	5.e-002	4.7958
14477	11.174	5.2727	0.	17.954
14478	11.081	5.1818	0.	14.822
14479	11.081	5.2727	5.e-002	3.5629
14480	11.358	5.2727	0.	8.9344
14481	11.266	5.1818	0.	5.8137
14482	11.266	5.2727	5.e-002	2.923
14483	11.543	5.2727	0.	2.5295
14484	11.45	5.1818	0.	1.4121
14485	11.45	5.2727	5.e-002	2.8045
14486	11.727	5.2727	0.	0.59836
14487	11.635	5.1818	0.	0.50883
14488	11.635	5.2727	5.e-002	2.9996
14489	11.912	5.2727	0.	0.25806
14490	11.82	5.1818	0.	0.26059
14491	11.82	5.2727	5.e-002	3.3081
14492	12.096	5.2727	0.	0.14661
14493	12.004	5.1818	0.	0.15772
14494	12.004	5.2727	5.e-002	3.623
14495	12.281	5.2727	0.	9.5509e-002
14496	12.189	5.1818	0.	0.10519
14497	12.189	5.2727	5.e-002	3.9028
14498	12.465	5.2727	0.	6.7652e-002
14499	12.373	5.1818	0.	7.4899e-002
14500	12.373	5.2727	5.e-002	4.136
14501	12.65	5.2727	0.	5.0719e-002
14502	12.558	5.1818	0.	5.5932e-002
14503	12.558	5.2727	5.e-002	4.3233
14504	12.835	5.2727	0.	3.9602e-002
14505	12.742	5.1818	0.	4.3296e-002
14506	12.742	5.2727	5.e-002	4.4695
14507	13.019	5.2727	0.	3.187e-002
14508	12.927	5.1818	0.	3.4466e-002
14509	12.927	5.2727	5.e-002	4.5809
14510	13.204	5.2727	0.	2.6262e-002
14511	13.111	5.1818	0.	2.8067e-002
14512	13.111	5.2727	5.e-002	4.6633
14513	13.388	5.2727	0.	2.2036e-002
14514	13.296	5.1818	0.	2.3311e-002
14515	13.296	5.2727	5.e-002	4.7223
14516	13.573	5.2727	0.	1.8744e-002
14517	13.48	5.1818	0.	1.9646e-002
14518	13.48	5.2727	5.e-002	4.7625
14519	13.757	5.2727	0.	1.6135e-002
14520	13.665	5.1818	0.	1.6775e-002
14521	13.665	5.2727	5.e-002	4.7877
14522	13.942	5.2727	0.	1.404e-002
14523	13.85	5.1818	0.	1.4511e-002
14524	13.85	5.2727	5.e-002	4.8011
14525	14.126	5.2727	0.	1.2335e-002
14526	14.034	5.1818	0.	1.2703e-002
14527	14.034	5.2727	5.e-002	4.8052
14528	14.311	5.2727	0.	1.0952e-002
14529	14.219	5.1818	0.	1.1246e-002
14530	14.219	5.2727	5.e-002	4.8021
14531	14.496	5.2727	0.	9.8682e-003
14532	14.403	5.1818	0.	1.0098e-002
14533	14.403	5.2727	5.e-002	4.7936
14534	14.68	5.2727	0.	9.0599e-003
14535	14.588	5.1818	0.	9.241e-003
14536	14.588	5.2727	5.e-002	4.7808
14537	14.865	5.2727	0.	8.554e-003
14538	14.772	5.1818	0.	8.624e-003
14539	14.772	5.2727	5.e-002	4.7649
14540	15.049	5.2727	0.	8.5097e-003
14541	14.957	5.1818	0.	8.2993e-003
14542	14.957	5.2727	5.e-002	4.7468
14543	15.234	5.2727	0.	9.4011e-003
14544	15.141	5.1818	0.	8.3965e-003
14545	15.141	5.2727	5.e-002	4.7268
14546	15.418	5.2727	0.	1.352e-002
14547	15.326	5.1818	0.	9.2384e-003
14548	15.326	5.2727	5.e-002	4.7057
14549	15.603	5.2727	0.	9.0496e-002
14550	15.511	5.1818	0.	1.2046e-002
14551	15.511	5.2727	5.e-002	4.6838
14552	15.787	5.2727	0.	1.3443
14553	15.695	5.1818	0.	2.6441e-002
14554	15.695	5.2727	5.e-002	4.6614
14555	15.972	5.2727	0.	2.712
14556	15.88	5.1818	0.	0.68984
14557	15.88	5.2727	5.e-002	4.6388
14558	16.157	5.2727	0.	4.0397
14559	16.064	5.1818	0.	2.1409
14560	16.064	5.2727	5.e-002	4.6161
14561	16.341	5.2727	0.	5.3261
14562	16.249	5.1818	0.	3.5585
14563	16.249	5.2727	5.e-002	4.5934
14564	16.526	5.2727	0.	6.5732
14565	16.433	5.1818	0.	4.9311
14566	16.433	5.2727	5.e-002	4.5708
14567	16.71	5.2727	0.	7.7839
14568	16.618	5.1818	0.	6.2608
14569	16.618	5.2727	5.e-002	4.5485
14570	16.895	5.2727	0.	8.9617
14571	16.802	5.1818	0.	7.5512
14572	16.802	5.2727	5.e-002	4.5265
14573	17.079	5.2727	0.	10.11
14574	16.987	5.1818	0.	8.8064
14575	16.987	5.2727	5.e-002	4.5048
14576	17.264	5.2727	0.	11.234
14577	17.172	5.1818	0.	10.031
14578	17.172	5.2727	5.e-002	4.4834
14579	17.448	5.2727	0.	12.336
14580	17.356	5.1818	0.	11.23
14581	17.356	5.2727	5.e-002	4.4624
14582	17.633	5.2727	0.	13.422
14583	17.541	5.1818	0.	12.408
14584	17.541	5.2727	5.e-002	4.4418
14585	17.817	5.2727	0.	14.495
14586	17.725	5.1818	0.	13.569
14587	17.725	5.2727	5.e-002	4.4216
14588	18.002	5.2727	0.	15.561
14589	17.91	5.1818	0.	14.72
14590	17.91	5.2727	5.e-002	4.4018
14591	18.187	5.2727	0.	16.623
14592	18.094	5.1818	0.	15.865
14593	18.094	5.2727	5.e-002	4.3825
14594	18.371	5.2727	0.	17.686
14595	18.279	5.1818	0.	17.009
14596	18.279	5.2727	5.e-002	4.3636
14597	18.556	5.2727	0.	18.755
14598	18.463	5.1818	0.	18.158
14599	18.463	5.2727	5.e-002	4.3451
14600	18.74	5.2727	0.	19.835
14601	18.648	5.1818	0.	19.317
14602	18.648	5.2727	5.e-002	4.3272
14603	18.925	5.2727	0.	20.929
14604	18.833	5.1818	0.	20.49
14605	18.833	5.2727	5.e-002	4.3097
14606	19.109	5.2727	0.	22.043
14607	19.017	5.1818	0.	21.684
14608	19.017	5.2727	5.e-002	4.2927
14609	19.294	5.2727	0.	23.181
14610	19.202	5.1818	0.	22.903
14611	19.202	5.2727	5.e-002	4.2763
14612	19.478	5.2727	0.	24.348
14613	19.386	5.1818	0.	24.154
14614	19.386	5.2727	5.e-002	4.2604
14615	19.663	5.2727	0.	25.55
14616	19.571	5.1818	0.	25.441
14617	19.571	5.2727	5.e-002	4.2451
14618	19.848	5.2727	0.	26.79
14619	19.755	5.1818	0.	26.772
14620	19.755	5.2727	5.e-002	4.2304
14621	20.032	5.2727	0.	28.075
14622	19.94	5.1818	0.	28.151
14623	19.94	5.2727	5.e-002	4.2163
14624	20.217	5.2727	0.	29.41
14625	20.124	5.1818	0.	29.586
14626	20.124	5.2727	5.e-002	4.2029
14627	20.401	5.2727	0.	30.8
14628	20.309	5.1818	0.	31.083
14629	20.309	5.2727	5.e-002	4.1902
14630	20.586	5.2727	0.	32.254
14631	20.493	5.1818	0.	32.649
14632	20.493	5.2727	5.e-002	4.1782
14633	20.77	5.2727	0.	33.776
14634	20.678	5.1818	0.	34.294
14635	20.678	5.2727	5.e-002	4.1671
14636	20.955	5.2727	0.	35.377
14637	20.863	5.1818	0.	36.025
14638	20.863	5.2727	5.e-002	4.1568
14639	21.139	5.2727	0.	37.064
14640	21.047	5.1818	0.	37.853
14641	21.047	5.2727	5.e-002	4.1474
14642	21.324	5.2727	0.	38.848
14643	21.232	5.1818	0.	39.79
14644	21.232	5.2727	5.e-002	4.1389
14645	21.509	5.2727	0.	40.742
14646	21.416	5.1818	0.	41.85
14647	21.416	5.2727	5.e-002	4.1316
14648	21.693	5.2727	0.	42.763
14649	21.601	5.1818	0.	44.049
14650	21.601	5.2727	5.e-002	4.1254
14651	21.878	5.2727	0.	44.931
14652	21.785	5.1818	0.	46.408
14653	21.785	5.2727	5.e-002	4.1205
14654	22.062	5.2727	0.	47.27
14655	21.97	5.1818	0.	48.954
14656	21.97	5.2727	5.e-002	4.117
14657	22.247	5.2727	0.	49.816
14658	22.154	5.1818	0.	51.719
14659	22.154	5.2727	5.e-002	4.1153
14660	22.431	5.2727	0.	52.616
14661	22.339	5.1818	0.	54.748
14662	22.339	5.2727	5.e-002	4.1158
14663	22.616	5.2727	0.	55.732
14664	22.524	5.1818	0.	58.098
14665	22.524	5.2727	5.e-002	4.1189
14666	22.8	5.2727	0.	59.256
14667	22.708	5.1818	0.	61.846
14668	22.708	5.2727	5.e-002	4.1258
14669	22.985	5.2727	0.	63.311
14670	22.893	5.1818	0.	66.099
14671	22.893	5.2727	5.e-002	4.138
14672	23.17	5.2727	0.	68.076
14673	23.077	5.1818	0.	70.996
14674	23.077	5.2727	5.e-002	4.1582
14675	23.354	5.2727	0.	73.783
14676	23.262	5.1818	0.	76.724
14677	23.262	5.2727	5.e-002	4.1914
14678	23.539	5.2727	0.	80.745
14679	23.446	5.1818	0.	83.495
14680	23.446	5.2727	5.e-002	4.2454
14681	23.723	5.2727	0.	89.251
14682	23.631	5.1818	0.	91.604
14683	23.631	5.2727	5.e-002	4.3389
14684	23.815	5.1818	0.	101.16
14685	23.815	5.2727	5.e-002	4.5876
14686	23.908	5.2727	0.	97.861
14687	9.1435	5.0909	0.	659.19
14688	9.0512	5.	0.	968.98
14689	9.0512	5.0909	5.e-002	67.526
14690	8.9589	5.0909	0.	651.4
14691	9.328	5.0909	0.	427.95
14692	9.2358	5.	0.	613.65
14693	9.2358	5.0909	5.e-002	47.133
14694	9.5126	5.0909	0.	297.21
14695	9.4203	5.	0.	413.42
14696	9.4203	5.0909	5.e-002	39.58
14697	9.6972	5.0909	0.	212.3
14698	9.6049	5.	0.	280.54
14699	9.6049	5.0909	5.e-002	32.021
14700	9.8817	5.0909	0.	154.72
14701	9.7894	5.	0.	191.7
14702	9.7894	5.0909	5.e-002	25.296
14703	10.066	5.0909	0.	113.87
14704	9.974	5.	0.	131.74
14705	9.974	5.0909	5.e-002	19.708
14706	10.251	5.0909	0.	83.388
14707	10.159	5.	0.	90.003
14708	10.159	5.0909	5.e-002	15.229
14709	10.435	5.0909	0.	59.64
14710	10.343	5.	0.	59.841
14711	10.343	5.0909	5.e-002	11.7
14712	10.62	5.0909	0.	40.577
14713	10.528	5.	0.	37.287
14714	10.528	5.0909	5.e-002	8.9635
14715	10.804	5.0909	0.	25.079
14716	10.712	5.	0.	20.176
14717	10.712	5.0909	5.e-002	6.8971
14718	10.989	5.0909	0.	12.689
14719	10.897	5.	0.	8.0298
14720	10.897	5.0909	5.e-002	5.4177
14721	11.174	5.0909	0.	4.1978
14722	11.081	5.	0.	2.4326
14723	11.081	5.0909	5.e-002	4.4638
14724	11.358	5.0909	0.	1.2315
14725	11.266	5.	0.	0.97763
14726	11.266	5.0909	5.e-002	3.962
14727	11.543	5.0909	0.	0.53778
14728	11.45	5.	0.	0.50737
14729	11.45	5.0909	5.e-002	3.7988
14730	11.727	5.0909	0.	0.29543
14731	11.635	5.	0.	0.30182
14732	11.635	5.0909	5.e-002	3.8411
14733	11.912	5.0909	0.	0.18351
14734	11.82	5.	0.	0.19517
14735	11.82	5.0909	5.e-002	3.9799
14736	12.096	5.0909	0.	0.12318
14737	12.004	5.	0.	0.13373
14738	12.004	5.0909	5.e-002	4.1478
14739	12.281	5.0909	0.	8.735e-002
14740	12.189	5.	0.	9.5691e-002
14741	12.189	5.0909	5.e-002	4.3103
14742	12.465	5.0909	0.	6.4591e-002
14743	12.373	5.	0.	7.0913e-002
14744	12.373	5.0909	5.e-002	4.4524
14745	12.65	5.0909	0.	4.9362e-002
14746	12.558	5.	0.	5.4088e-002
14747	12.558	5.0909	5.e-002	4.5695
14748	12.835	5.0909	0.	3.8741e-002
14749	12.742	5.	0.	4.226e-002
14750	12.742	5.0909	5.e-002	4.6617
14751	13.019	5.0909	0.	3.1089e-002
14752	12.927	5.	0.	3.371e-002
14753	12.927	5.0909	5.e-002	4.7314
14754	13.204	5.0909	0.	2.5443e-002
14755	13.111	5.	0.	2.7394e-002
14756	13.111	5.0909	5.e-002	4.7817
14757	13.388	5.0909	0.	2.1176e-002
14758	13.296	5.	0.	2.2662e-002
14759	13.296	5.0909	5.e-002	4.8159
14760	13.573	5.0909	0.	1.7877e-002
14761	13.48	5.	0.	1.9021e-002
14762	13.48	5.0909	5.e-002	4.8368
14763	13.757	5.0909	0.	1.5304e-002
14764	13.665	5.	0.	1.6191e-002
14765	13.665	5.0909	5.e-002	4.8469
14766	13.942	5.0909	0.	1.3286e-002
14767	13.85	5.	0.	1.3991e-002
14768	13.85	5.0909	5.e-002	4.8486
14769	14.126	5.0909	0.	1.1687e-002
14770	14.034	5.	0.	1.2265e-002
14771	14.034	5.0909	5.e-002	4.8436
14772	14.311	5.0909	0.	1.0427e-002
14773	14.219	5.	0.	1.0902e-002
14774	14.219	5.0909	5.e-002	4.8334
14775	14.496	5.0909	0.	9.4694e-003
14776	14.403	5.	0.	9.8503e-003
14777	14.403	5.0909	5.e-002	4.8192
14778	14.68	5.0909	0.	8.7669e-003
14779	14.588	5.	0.	9.0806e-003
14780	14.588	5.0909	5.e-002	4.8021
14781	14.865	5.0909	0.	8.2999e-003
14782	14.772	5.	0.	8.52e-003
14783	14.772	5.0909	5.e-002	4.7827
14784	15.049	5.0909	0.	8.1134e-003
14785	14.957	5.	0.	8.1843e-003
14786	14.957	5.0909	5.e-002	4.7617
14787	15.234	5.0909	0.	8.3046e-003
14788	15.141	5.	0.	8.1171e-003
14789	15.141	5.0909	5.e-002	4.7396
14790	15.418	5.0909	0.	9.1222e-003
14791	15.326	5.	0.	8.3925e-003
14792	15.326	5.0909	5.e-002	4.7168
14793	15.603	5.0909	0.	1.1396e-002
14794	15.511	5.	0.	9.2225e-003
14795	15.511	5.0909	5.e-002	4.6935
14796	15.787	5.0909	0.	1.9495e-002
14797	15.695	5.	0.	1.128e-002
14798	15.695	5.0909	5.e-002	4.67
14799	15.972	5.0909	0.	0.22273
14800	15.88	5.	0.	1.7497e-002
14801	15.88	5.0909	5.e-002	4.6465
14802	16.157	5.0909	0.	1.6885
14803	16.064	5.	0.	8.0231e-002
14804	16.064	5.0909	5.e-002	4.6231
14805	16.341	5.0909	0.	3.1907
14806	16.249	5.	0.	1.3847
14807	16.249	5.0909	5.e-002	4.5998
14808	16.526	5.0909	0.	4.6462
14809	16.433	5.	0.	2.9621
14810	16.433	5.0909	5.e-002	4.5768
14811	16.71	5.0909	0.	6.0562
14812	16.618	5.	0.	4.4922
14813	16.618	5.0909	5.e-002	4.554
14814	16.895	5.0909	0.	7.4247
14815	16.802	5.	0.	5.9747
14816	16.802	5.0909	5.e-002	4.5317
14817	17.079	5.0909	0.	8.7568
14818	16.987	5.	0.	7.4142
14819	16.987	5.0909	5.e-002	4.5097
14820	17.264	5.0909	0.	10.058
14821	17.172	5.	0.	8.8163
14822	17.172	5.0909	5.e-002	4.4881
14823	17.448	5.0909	0.	11.333
14824	17.356	5.	0.	10.187
14825	17.356	5.0909	5.e-002	4.4669
14826	17.633	5.0909	0.	12.587
14827	17.541	5.	0.	11.533
14828	17.541	5.0909	5.e-002	4.4462
14829	17.817	5.0909	0.	13.827
14830	17.725	5.	0.	12.86
14831	17.725	5.0909	5.e-002	4.4258
14832	18.002	5.0909	0.	15.059
14833	17.91	5.	0.	14.174
14834	17.91	5.0909	5.e-002	4.406
14835	18.187	5.0909	0.	16.287
14836	18.094	5.	0.	15.482
14837	18.094	5.0909	5.e-002	4.3866
14838	18.371	5.0909	0.	17.517
14839	18.279	5.	0.	16.79
14840	18.279	5.0909	5.e-002	4.3676
14841	18.556	5.0909	0.	18.756
14842	18.463	5.	0.	18.105
14843	18.463	5.0909	5.e-002	4.3492
14844	18.74	5.0909	0.	20.01
14845	18.648	5.	0.	19.432
14846	18.648	5.0909	5.e-002	4.3312
14847	18.925	5.0909	0.	21.284
14848	18.833	5.	0.	20.78
14849	18.833	5.0909	5.e-002	4.3137
14850	19.109	5.0909	0.	22.584
14851	19.017	5.	0.	22.154
14852	19.017	5.0909	5.e-002	4.2968
14853	19.294	5.0909	0.	23.917
14854	19.202	5.	0.	23.562
14855	19.202	5.0909	5.e-002	4.2804
14856	19.478	5.0909	0.	25.289
14857	19.386	5.	0.	25.01
14858	19.386	5.0909	5.e-002	4.2646
14859	19.663	5.0909	0.	26.708
14860	19.571	5.	0.	26.506
14861	19.571	5.0909	5.e-002	4.2495
14862	19.848	5.0909	0.	28.178
14863	19.755	5.	0.	28.058
14864	19.755	5.0909	5.e-002	4.2349
14865	20.032	5.0909	0.	29.709
14866	19.94	5.	0.	29.673
14867	19.94	5.0909	5.e-002	4.221
14868	20.217	5.0909	0.	31.308
14869	20.124	5.	0.	31.359
14870	20.124	5.0909	5.e-002	4.2078
14871	20.401	5.0909	0.	32.983
14872	20.309	5.	0.	33.127
14873	20.309	5.0909	5.e-002	4.1954
14874	20.586	5.0909	0.	34.743
14875	20.493	5.	0.	34.986
14876	20.493	5.0909	5.e-002	4.1838
14877	20.77	5.0909	0.	36.598
14878	20.678	5.	0.	36.946
14879	20.678	5.0909	5.e-002	4.173
14880	20.955	5.0909	0.	38.559
14881	20.863	5.	0.	39.02
14882	20.863	5.0909	5.e-002	4.1632
14883	21.139	5.0909	0.	40.64
14884	21.047	5.	0.	41.221
14885	21.047	5.0909	5.e-002	4.1544
14886	21.324	5.0909	0.	42.856
14887	21.232	5.	0.	43.565
14888	21.232	5.0909	5.e-002	4.1466
14889	21.509	5.0909	0.	45.223
14890	21.416	5.	0.	46.069
14891	21.416	5.0909	5.e-002	4.1401
14892	21.693	5.0909	0.	47.765
14893	21.601	5.	0.	48.755
14894	21.601	5.0909	5.e-002	4.1349
14895	21.878	5.0909	0.	50.506
14896	21.785	5.	0.	51.649
14897	21.785	5.0909	5.e-002	4.1312
14898	22.062	5.0909	0.	53.482
14899	21.97	5.	0.	54.783
14900	21.97	5.0909	5.e-002	4.1293
14901	22.247	5.0909	0.	56.733
14902	22.154	5.	0.	58.195
14903	22.154	5.0909	5.e-002	4.1295
14904	22.431	5.0909	0.	60.316
14905	22.339	5.	0.	61.936
14906	22.339	5.0909	5.e-002	4.1323
14907	22.616	5.0909	0.	64.3
14908	22.524	5.	0.	66.067
14909	22.524	5.0909	5.e-002	4.1384
14910	22.8	5.0909	0.	68.778
14911	22.708	5.	0.	70.667
14912	22.708	5.0909	5.e-002	4.1489
14913	22.985	5.0909	0.	73.869
14914	22.893	5.	0.	75.835
14915	22.893	5.0909	5.e-002	4.1655
14916	23.17	5.0909	0.	79.723
14917	23.077	5.	0.	81.69
14918	23.077	5.0909	5.e-002	4.1908
14919	23.354	5.0909	0.	86.502
14920	23.262	5.	0.	88.375
14921	23.262	5.0909	5.e-002	4.2287
14922	23.539	5.0909	0.	94.404
14923	23.446	5.	0.	96.019
14924	23.446	5.0909	5.e-002	4.2846
14925	23.723	5.0909	0.	103.55
14926	23.631	5.	0.	104.8
14927	23.631	5.0909	5.e-002	4.3704
14928	23.815	5.	0.	114.7
14929	23.815	5.0909	5.e-002	4.5839
14930	23.908	5.0909	0.	112.6
14931	9.1435	4.9091	0.	888.13
14932	9.0512	4.8182	0.	1278.1
14933	9.0512	4.9091	5.e-002	81.363
14934	8.9589	4.9091	0.	880.35
14935	9.328	4.9091	0.	573.14
14936	9.2358	4.8182	0.	802.35
14937	9.2358	4.9091	5.e-002	53.357
14938	9.5126	4.9091	0.	379.72
14939	9.4203	4.8182	0.	517.64
14940	9.4203	4.9091	5.e-002	42.114
14941	9.6972	4.9091	0.	249.59
14942	9.6049	4.8182	0.	326.99
14943	9.6049	4.9091	5.e-002	32.303
14944	9.8817	4.9091	0.	162.67
14945	9.7894	4.8182	0.	201.65
14946	9.7894	4.9091	5.e-002	24.672
14947	10.066	4.9091	0.	104.42
14948	9.974	4.8182	0.	120.54
14949	9.974	4.9091	5.e-002	18.991
14950	10.251	4.9091	0.	64.577
14951	10.159	4.8182	0.	67.757
14952	10.159	4.9091	5.e-002	14.775
14953	10.435	4.9091	0.	36.663
14954	10.343	4.8182	0.	33.206
14955	10.343	4.9091	5.e-002	11.628
14956	10.62	4.9091	0.	17.162
14957	10.528	4.8182	0.	12.112
14958	10.528	4.9091	5.e-002	9.279
14959	10.804	4.9091	0.	5.7725
14960	10.712	4.8182	0.	3.7831
14961	10.712	4.9091	5.e-002	7.5541
14962	10.989	4.9091	0.	2.0222
14963	10.897	4.8182	0.	1.6215
14964	10.897	4.9091	5.e-002	6.3343
14965	11.174	4.9091	0.	0.95524
14966	11.081	4.8182	0.	0.87055
14967	11.081	4.9091	5.e-002	5.5258
14968	11.358	4.9091	0.	0.53668
14969	11.266	4.8182	0.	0.52511
14970	11.266	4.9091	5.e-002	5.0391
14971	11.543	4.9091	0.	0.33259
14972	11.45	4.8182	0.	0.33961
14973	11.45	4.9091	5.e-002	4.7852
14974	11.727	4.9091	0.	0.21972
14975	11.635	4.8182	0.	0.2304
14976	11.635	4.9091	5.e-002	4.6829
14977	11.912	4.9091	0.	0.15207
14978	11.82	4.8182	0.	0.16208
14979	11.82	4.9091	5.e-002	4.6686
14980	12.096	4.9091	0.	0.10914
14981	12.004	4.8182	0.	0.11741
14982	12.004	4.9091	5.e-002	4.6984
14983	12.281	4.9091	0.	8.0702e-002
14984	12.189	4.8182	0.	8.7158e-002
14985	12.189	4.9091	5.e-002	4.7454
14986	12.465	4.9091	0.	6.1229e-002
14987	12.373	4.8182	0.	6.6143e-002
14988	12.373	4.9091	5.e-002	4.7944
14989	12.65	4.9091	0.	4.75e-002
14990	12.558	4.8182	0.	5.1193e-002
14991	12.558	4.9091	5.e-002	4.8378
14992	12.835	4.9091	0.	3.7578e-002
14993	12.742	4.8182	0.	4.0334e-002
14994	12.742	4.9091	5.e-002	4.8722
14995	13.019	4.9091	0.	3.0265e-002
14996	12.927	4.8182	0.	3.2306e-002
14997	12.927	4.9091	5.e-002	4.8968
14998	13.204	4.9091	0.	2.4799e-002
14999	13.111	4.8182	0.	2.6296e-002
15000	13.111	4.9091	5.e-002	4.9118
15001	13.388	4.9091	0.	2.0647e-002
15002	13.296	4.8182	0.	2.1767e-002
15003	13.296	4.9091	5.e-002	4.9185
15004	13.573	4.9091	0.	1.744e-002
15005	13.48	4.8182	0.	1.8277e-002
15006	13.48	4.9091	5.e-002	4.9179
15007	13.757	4.9091	0.	1.4954e-002
15008	13.665	4.8182	0.	1.5577e-002
15009	13.665	4.9091	5.e-002	4.9114
15010	13.942	4.9091	0.	1.3021e-002
15011	13.85	4.8182	0.	1.3494e-002
15012	13.85	4.9091	5.e-002	4.8999
15013	14.126	4.9091	0.	1.1509e-002
15014	14.034	4.8182	0.	1.1876e-002
15015	14.034	4.9091	5.e-002	4.8847
15016	14.311	4.9091	0.	1.0334e-002
15017	14.219	4.8182	0.	1.0616e-002
15018	14.219	4.9091	5.e-002	4.8664
15019	14.496	4.9091	0.	9.4521e-003
15020	14.403	4.8182	0.	9.6564e-003
15021	14.403	4.9091	5.e-002	4.846
15022	14.68	4.9091	0.	8.8066e-003
15023	14.588	4.8182	0.	8.9651e-003
15024	14.588	4.9091	5.e-002	4.8238
15025	14.865	4.9091	0.	8.3611e-003
15026	14.772	4.8182	0.	8.4604e-003
15027	14.772	4.9091	5.e-002	4.8006
15028	15.049	4.9091	0.	8.1323e-003
15029	14.957	4.8182	0.	8.1439e-003
15030	14.957	4.9091	5.e-002	4.7766
15031	15.234	4.9091	0.	8.1487e-003
15032	15.141	4.8182	0.	8.0336e-003
15033	15.141	4.9091	5.e-002	4.752
15034	15.418	4.9091	0.	8.4764e-003
15035	15.326	4.8182	0.	8.145e-003
15036	15.326	4.9091	5.e-002	4.7273
15037	15.603	4.9091	0.	9.3148e-003
15038	15.511	4.8182	0.	8.5436e-003
15039	15.511	4.9091	5.e-002	4.7025
15040	15.787	4.9091	0.	1.1239e-002
15041	15.695	4.8182	0.	9.4319e-003
15042	15.695	4.9091	5.e-002	4.6777
15043	15.972	4.9091	0.	1.6494e-002
15044	15.88	4.8182	0.	1.1344e-002
15045	15.88	4.9091	5.e-002	4.6532
15046	16.157	4.9091	0.	5.1785e-002
15047	16.064	4.8182	0.	1.6271e-002
15048	16.064	4.9091	5.e-002	4.629
15049	16.341	4.9091	0.	1.1853
15050	16.249	4.8182	0.	4.5472e-002
15051	16.249	4.9091	5.e-002	4.6051
15052	16.526	4.9091	0.	2.8351
15053	16.433	4.8182	0.	1.126
15054	16.433	4.9091	5.e-002	4.5815
15055	16.71	4.9091	0.	4.4382
15056	16.618	4.8182	0.	2.8402
15057	16.618	4.9091	5.e-002	4.5584
15058	16.895	4.9091	0.	5.9924
15059	16.802	4.8182	0.	4.5076
15060	16.802	4.9091	5.e-002	4.5357
15061	17.079	4.9091	0.	7.5028
15062	16.987	4.8182	0.	6.125
15063	16.987	4.9091	5.e-002	4.5134
15064	17.264	4.9091	0.	8.9759
15065	17.172	4.8182	0.	7.6986
15066	17.172	4.9091	5.e-002	4.4916
15067	17.448	4.9091	0.	10.418
15068	17.356	4.8182	0.	9.2355
15069	17.356	4.9091	5.e-002	4.4702
15070	17.633	4.9091	0.	11.837
15071	17.541	4.8182	0.	10.743
15072	17.541	4.9091	5.e-002	4.4493
15073	17.817	4.9091	0.	13.239
15074	17.725	4.8182	0.	12.229
15075	17.725	4.9091	5.e-002	4.4289
15076	18.002	4.9091	0.	14.63
15077	17.91	4.8182	0.	13.7
15078	17.91	4.9091	5.e-002	4.4089
15079	18.187	4.9091	0.	16.019
15080	18.094	4.8182	0.	15.165
15081	18.094	4.9091	5.e-002	4.3895
15082	18.371	4.9091	0.	17.412
15083	18.279	4.8182	0.	16.631
15084	18.279	4.9091	5.e-002	4.3705
15085	18.556	4.9091	0.	18.817
15086	18.463	4.8182	0.	18.106
15087	18.463	4.9091	5.e-002	4.352
15088	18.74	4.9091	0.	20.24
15089	18.648	4.8182	0.	19.598
15090	18.648	4.9091	5.e-002	4.334
15091	18.925	4.9091	0.	21.689
15092	18.833	4.8182	0.	21.114
15093	18.833	4.9091	5.e-002	4.3166
15094	19.109	4.9091	0.	23.172
15095	19.017	4.8182	0.	22.663
15096	19.017	4.9091	5.e-002	4.2997
15097	19.294	4.9091	0.	24.695
15098	19.202	4.8182	0.	24.253
15099	19.202	4.9091	5.e-002	4.2834
15100	19.478	4.9091	0.	26.268
15101	19.386	4.8182	0.	25.893
15102	19.386	4.9091	5.e-002	4.2677
15103	19.663	4.9091	0.	27.899
15104	19.571	4.8182	0.	27.591
15105	19.571	4.9091	5.e-002	4.2527
15106	19.848	4.9091	0.	29.596
15107	19.755	4.8182	0.	29.358
15108	19.755	4.9091	5.e-002	4.2383
15109	20.032	4.9091	0.	31.368
15110	19.94	4.8182	0.	31.202
15111	19.94	4.9091	5.e-002	4.2246
15112	20.217	4.9091	0.	33.226
15113	20.124	4.8182	0.	33.134
15114	20.124	4.9091	5.e-002	4.2116
15115	20.401	4.9091	0.	35.179
15116	20.309	4.8182	0.	35.165
15117	20.309	4.9091	5.e-002	4.1995
15118	20.586	4.9091	0.	37.24
15119	20.493	4.8182	0.	37.307
15120	20.493	4.9091	5.e-002	4.1882
15121	20.77	4.9091	0.	39.421
15122	20.678	4.8182	0.	39.574
15123	20.678	4.9091	5.e-002	4.1779
15124	20.955	4.9091	0.	41.736
15125	20.863	4.8182	0.	41.98
15126	20.863	4.9091	5.e-002	4.1685
15127	21.139	4.9091	0.	44.201
15128	21.047	4.8182	0.	44.541
15129	21.047	4.9091	5.e-002	4.1603
15130	21.324	4.9091	0.	46.836
15131	21.232	4.8182	0.	47.276
15132	21.232	4.9091	5.e-002	4.1533
15133	21.509	4.9091	0.	49.661
15134	21.416	4.8182	0.	50.206
15135	21.416	4.9091	5.e-002	4.1476
15136	21.693	4.9091	0.	52.702
15137	21.601	4.8182	0.	53.355
15138	21.601	4.9091	5.e-002	4.1434
15139	21.878	4.9091	0.	55.99
15140	21.785	4.8182	0.	56.753
15141	21.785	4.9091	5.e-002	4.141
15142	22.062	4.9091	0.	59.562
15143	21.97	4.8182	0.	60.435
15144	21.97	4.9091	5.e-002	4.1406
15145	22.247	4.9091	0.	63.465
15146	22.154	4.8182	0.	64.442
15147	22.154	4.9091	5.e-002	4.1427
15148	22.431	4.9091	0.	67.755
15149	22.339	4.8182	0.	68.824
15150	22.339	4.9091	5.e-002	4.1477
15151	22.616	4.9091	0.	72.501
15152	22.524	4.8182	0.	73.642
15153	22.524	4.9091	5.e-002	4.1565
15154	22.8	4.9091	0.	77.788
15155	22.708	4.8182	0.	78.968
15156	22.708	4.9091	5.e-002	4.1701
15157	22.985	4.9091	0.	83.715
15158	22.893	4.8182	0.	84.885
15159	22.893	4.9091	5.e-002	4.1901
15160	23.17	4.9091	0.	90.395
15161	23.077	4.8182	0.	91.486
15162	23.077	4.9091	5.e-002	4.2187
15163	23.354	4.9091	0.	97.933
15164	23.262	4.8182	0.	98.872
15165	23.262	4.9091	5.e-002	4.259
15166	23.539	4.9091	0.	106.45
15167	23.446	4.8182	0.	107.11
15168	23.446	4.9091	5.e-002	4.3142
15169	23.723	4.9091	0.	115.98
15170	23.631	4.8182	0.	116.33
15171	23.631	4.9091	5.e-002	4.3924
15172	23.815	4.8182	0.	126.43
15173	23.815	4.9091	5.e-002	4.5756
15174	23.908	4.9091	0.	125.33
15175	9.1435	4.7273	0.	1150.5
15176	9.0512	4.6364	0.	1652.4
15177	9.0512	4.7273	5.e-002	102.56
15178	8.9589	4.7273	0.	1161.7
15179	9.328	4.7273	0.	717.9
15180	9.2358	4.6364	0.	987.92
15181	9.2358	4.7273	5.e-002	61.153
15182	9.5126	4.7273	0.	446.4
15183	9.4203	4.6364	0.	595.16
15184	9.4203	4.7273	5.e-002	44.679
15185	9.6972	4.7273	0.	267.83
15186	9.6049	4.6364	0.	343.77
15187	9.6049	4.7273	5.e-002	32.088
15188	9.8817	4.7273	0.	152.93
15189	9.7894	4.6364	0.	186.89
15190	9.7894	4.7273	5.e-002	24.016
15191	10.066	4.7273	0.	80.149
15192	9.974	4.6364	0.	90.668
15193	9.974	4.7273	5.e-002	18.606
15194	10.251	4.7273	0.	34.745
15195	10.159	4.6364	0.	33.426
15196	10.159	4.7273	5.e-002	14.85
15197	10.435	4.7273	0.	10.397
15198	10.343	4.6364	0.	8.0421
15199	10.343	4.7273	5.e-002	12.123
15200	10.62	4.7273	0.	3.3221
15201	10.528	4.6364	0.	2.8011
15202	10.528	4.7273	5.e-002	10.097
15203	10.804	4.7273	0.	1.5597
15204	10.712	4.6364	0.	1.426
15205	10.712	4.7273	5.e-002	8.5889
15206	10.989	4.7273	0.	0.88614
15207	10.897	4.6364	0.	0.85101
15208	10.897	4.7273	5.e-002	7.4789
15209	11.174	4.7273	0.	0.55424
15210	11.081	4.6364	0.	0.55043
15211	11.081	4.7273	5.e-002	6.681
15212	11.358	4.7273	0.	0.36719
15213	11.266	4.6364	0.	0.37357
15214	11.266	4.7273	5.e-002	6.1246
15215	11.543	4.7273	0.	0.25307
15216	11.45	4.6364	0.	0.262
15217	11.45	4.7273	5.e-002	5.7493
15218	11.727	4.7273	0.	0.17973
15219	11.635	4.6364	0.	0.18837
15220	11.635	4.7273	5.e-002	5.5038
15221	11.912	4.7273	0.	0.13081
15222	11.82	4.6364	0.	0.13822
15223	11.82	4.7273	5.e-002	5.3471
15224	12.096	4.7273	0.	9.7216e-002
15225	12.004	4.6364	0.	0.10321
15226	12.004	4.7273	5.e-002	5.2484
15227	12.281	4.7273	0.	7.3613e-002
15228	12.189	4.6364	0.	7.8281e-002
15229	12.189	4.7273	5.e-002	5.1858
15230	12.465	4.7273	0.	5.6724e-002
15231	12.373	4.6364	0.	6.0286e-002
15232	12.373	4.7273	5.e-002	5.1445
15233	12.65	4.7273	0.	4.4426e-002
15234	12.558	4.6364	0.	4.7108e-002
15235	12.558	4.7273	5.e-002	5.1148
15236	12.835	4.7273	0.	3.5333e-002
15237	12.742	4.6364	0.	3.7332e-002
15238	12.742	4.7273	5.e-002	5.091
15239	13.019	4.7273	0.	2.8529e-002
15240	12.927	4.6364	0.	3.0001e-002
15241	12.927	4.7273	5.e-002	5.0694
15242	13.204	4.7273	0.	2.3404e-002
15243	13.111	4.6364	0.	2.4466e-002
15244	13.111	4.7273	5.e-002	5.0482
15245	13.388	4.7273	0.	1.9499e-002
15246	13.296	4.6364	0.	2.0282e-002
15247	13.296	4.7273	5.e-002	5.0262
15248	13.573	4.7273	0.	1.6488e-002
15249	13.48	4.6364	0.	1.7058e-002
15250	13.48	4.7273	5.e-002	5.0032
15251	13.757	4.7273	0.	1.4168e-002
15252	13.665	4.6364	0.	1.4576e-002
15253	13.665	4.7273	5.e-002	4.9791
15254	13.942	4.7273	0.	1.2382e-002
15255	13.85	4.6364	0.	1.2678e-002
15256	13.85	4.7273	5.e-002	4.9538
15257	14.126	4.7273	0.	1.1001e-002
15258	14.034	4.6364	0.	1.1219e-002
15259	14.034	4.7273	5.e-002	4.9277
15260	14.311	4.7273	0.	9.9429e-003
15261	14.219	4.6364	0.	1.0099e-002
15262	14.219	4.7273	5.e-002	4.901
15263	14.496	4.7273	0.	9.1615e-003
15264	14.403	4.6364	0.	9.2597e-003
15265	14.403	4.7273	5.e-002	4.8738
15266	14.68	4.7273	0.	8.5998e-003
15267	14.588	4.6364	0.	8.6697e-003
15268	14.588	4.7273	5.e-002	4.8464
15269	14.865	4.7273	0.	8.2137e-003
15270	14.772	4.6364	0.	8.2457e-003
15271	14.772	4.7273	5.e-002	4.8191
15272	15.049	4.7273	0.	8.0062e-003
15273	14.957	4.6364	0.	7.9817e-003
15274	14.957	4.7273	5.e-002	4.7917
15275	15.234	4.7273	0.	7.9833e-003
15276	15.141	4.6364	0.	7.8881e-003
15277	15.141	4.7273	5.e-002	4.7646
15278	15.418	4.7273	0.	8.1621e-003
15279	15.326	4.6364	0.	7.9547e-003
15280	15.326	4.7273	5.e-002	4.7378
15281	15.603	4.7273	0.	8.6192e-003
15282	15.511	4.6364	0.	8.2062e-003
15283	15.511	4.7273	5.e-002	4.7114
15284	15.787	4.7273	0.	9.5477e-003
15285	15.695	4.6364	0.	8.7295e-003
15286	15.695	4.7273	5.e-002	4.6854
15287	15.972	4.7273	0.	1.1433e-002
15288	15.88	4.6364	0.	9.724e-003
15289	15.88	4.7273	5.e-002	4.6598
15290	16.157	4.7273	0.	1.62e-002
15291	16.064	4.6364	0.	1.166e-002
15292	16.064	4.7273	5.e-002	4.6347
15293	16.341	4.7273	0.	4.4015e-002
15294	16.249	4.6364	0.	1.6614e-002
15295	16.249	4.7273	5.e-002	4.6101
15296	16.526	4.7273	0.	1.1563
15297	16.433	4.6364	0.	4.9605e-002
15298	16.433	4.7273	5.e-002	4.5861
15299	16.71	4.7273	0.	2.9362
15300	16.618	4.6364	0.	1.3177
15301	16.618	4.7273	5.e-002	4.5625
15302	16.895	4.7273	0.	4.6679
15303	16.802	4.6364	0.	3.1552
15304	16.802	4.7273	5.e-002	4.5394
15305	17.079	4.7273	0.	6.3494
15306	16.987	4.6364	0.	4.9418
15307	16.987	4.7273	5.e-002	4.5169
15308	17.264	4.7273	0.	7.9877
15309	17.172	4.6364	0.	6.6786
15310	17.172	4.7273	5.e-002	4.4948
15311	17.448	4.7273	0.	9.5905
15312	17.356	4.6364	0.	8.3733
15313	17.356	4.7273	5.e-002	4.4733
15314	17.633	4.7273	0.	11.166
15315	17.541	4.6364	0.	10.035
15316	17.541	4.7273	5.e-002	4.4522
15317	17.817	4.7273	0.	12.722
15318	17.725	4.6364	0.	11.671
15319	17.725	4.7273	5.e-002	4.4316
15320	18.002	4.7273	0.	14.268
15321	17.91	4.6364	0.	13.292
15322	17.91	4.7273	5.e-002	4.4116
15323	18.187	4.7273	0.	15.811
15324	18.094	4.6364	0.	14.906
15325	18.094	4.7273	5.e-002	4.3921
15326	18.371	4.7273	0.	17.359
15327	18.279	4.6364	0.	16.523
15328	18.279	4.7273	5.e-002	4.3731
15329	18.556	4.7273	0.	18.922
15330	18.463	4.6364	0.	18.15
15331	18.463	4.7273	5.e-002	4.3546
15332	18.74	4.7273	0.	20.508
15333	18.648	4.6364	0.	19.797
15334	18.648	4.7273	5.e-002	4.3366
15335	18.925	4.7273	0.	22.125
15336	18.833	4.6364	0.	21.474
15337	18.833	4.7273	5.e-002	4.3192
15338	19.109	4.7273	0.	23.783
15339	19.017	4.6364	0.	23.189
15340	19.017	4.7273	5.e-002	4.3024
15341	19.294	4.7273	0.	25.49
15342	19.202	4.6364	0.	24.953
15343	19.202	4.7273	5.e-002	4.2861
15344	19.478	4.7273	0.	27.256
15345	19.386	4.6364	0.	26.776
15346	19.386	4.7273	5.e-002	4.2705
15347	19.663	4.7273	0.	29.091
15348	19.571	4.6364	0.	28.667
15349	19.571	4.7273	5.e-002	4.2556
15350	19.848	4.7273	0.	31.006
15351	19.755	4.6364	0.	30.638
15352	19.755	4.7273	5.e-002	4.2413
15353	20.032	4.7273	0.	33.01
15354	19.94	4.6364	0.	32.701
15355	19.94	4.7273	5.e-002	4.2278
15356	20.217	4.7273	0.	35.117
15357	20.124	4.6364	0.	34.867
15358	20.124	4.7273	5.e-002	4.2151
15359	20.401	4.7273	0.	37.339
15360	20.309	4.6364	0.	37.149
15361	20.309	4.7273	5.e-002	4.2032
15362	20.586	4.7273	0.	39.689
15363	20.493	4.6364	0.	39.562
15364	20.493	4.7273	5.e-002	4.1923
15365	20.77	4.7273	0.	42.182
15366	20.678	4.6364	0.	42.12
15367	20.678	4.7273	5.e-002	4.1823
15368	20.955	4.7273	0.	44.835
15369	20.863	4.6364	0.	44.84
15370	20.863	4.7273	5.e-002	4.1735
15371	21.139	4.7273	0.	47.667
15372	21.047	4.6364	0.	47.741
15373	21.047	4.7273	5.e-002	4.1658
15374	21.324	4.7273	0.	50.698
15375	21.232	4.6364	0.	50.844
15376	21.232	4.7273	5.e-002	4.1595
15377	21.509	4.7273	0.	53.953
15378	21.416	4.6364	0.	54.171
15379	21.416	4.7273	5.e-002	4.1547
15380	21.693	4.7273	0.	57.461
15381	21.601	4.6364	0.	57.75
15382	21.601	4.7273	5.e-002	4.1515
15383	21.878	4.7273	0.	61.254
15384	21.785	4.6364	0.	61.611
15385	21.785	4.7273	5.e-002	4.1503
15386	22.062	4.7273	0.	65.37
15387	21.97	4.6364	0.	65.79
15388	21.97	4.7273	5.e-002	4.1514
15389	22.247	4.7273	0.	69.856
15390	22.154	4.6364	0.	70.328
15391	22.154	4.7273	5.e-002	4.1551
15392	22.431	4.7273	0.	74.765
15393	22.339	4.6364	0.	75.272
15394	22.339	4.7273	5.e-002	4.1621
15395	22.616	4.7273	0.	80.16
15396	22.524	4.6364	0.	80.677
15397	22.524	4.7273	5.e-002	4.1732
15398	22.8	4.7273	0.	86.112
15399	22.708	4.6364	0.	86.605
15400	22.708	4.7273	5.e-002	4.1893
15401	22.985	4.7273	0.	92.699
15402	22.893	4.6364	0.	93.124
15403	22.893	4.7273	5.e-002	4.2118
15404	23.17	4.7273	0.	100.
15405	23.077	4.6364	0.	100.3
15406	23.077	4.7273	5.e-002	4.2425
15407	23.354	4.7273	0.	108.08
15408	23.262	4.6364	0.	108.2
15409	23.262	4.7273	5.e-002	4.2835
15410	23.539	4.7273	0.	117.02
15411	23.446	4.6364	0.	116.86
15412	23.446	4.7273	5.e-002	4.3368
15413	23.723	4.7273	0.	126.8
15414	23.631	4.6364	0.	126.38
15415	23.631	4.7273	5.e-002	4.408
15416	23.815	4.6364	0.	136.59
15417	23.815	4.7273	5.e-002	4.5652
15418	23.908	4.7273	0.	136.36
15419	9.1435	4.5455	0.	1437.1
15420	9.0512	4.4545	0.	2148.
15421	9.0512	4.5455	5.e-002	129.82
15422	8.9589	4.5455	0.	1534.
15423	9.328	4.5455	0.	833.91
15424	9.2358	4.4545	0.	1124.
15425	9.2358	4.5455	5.e-002	75.941
15426	9.5126	4.5455	0.	474.38
15427	9.4203	4.4545	0.	606.64
15428	9.4203	4.5455	5.e-002	45.369
15429	9.6972	4.5455	0.	252.02
15430	9.6049	4.4545	0.	311.88
15431	9.6049	4.5455	5.e-002	31.992
15432	9.8817	4.5455	0.	118.19
15433	9.7894	4.4545	0.	139.62
15434	9.7894	4.5455	5.e-002	24.077
15435	10.066	4.5455	0.	40.403
15436	9.974	4.4545	0.	42.738
15437	9.974	4.5455	5.e-002	19.254
15438	10.251	4.5455	0.	8.224
15439	10.159	4.4545	0.	7.3918
15440	10.159	4.5455	5.e-002	15.858
15441	10.435	4.5455	0.	2.811
15442	10.343	4.4545	0.	2.6259
15443	10.343	4.5455	5.e-002	13.346
15444	10.62	4.5455	0.	1.4527
15445	10.528	4.4545	0.	1.3954
15446	10.528	4.5455	5.e-002	11.42
15447	10.804	4.5455	0.	0.88207
15448	10.712	4.4545	0.	0.86583
15449	10.712	4.5455	5.e-002	9.9271
15450	10.989	4.5455	0.	0.5794
15451	10.897	4.4545	0.	0.57853
15452	10.897	4.5455	5.e-002	8.7687
15453	11.174	4.5455	0.	0.39844
15454	11.081	4.4545	0.	0.40358
15455	11.081	4.5455	5.e-002	7.875
15456	11.358	4.5455	0.	0.28236
15457	11.266	4.4545	0.	0.28933
15458	11.266	4.5455	5.e-002	7.1919
15459	11.543	4.5455	0.	0.20454
15460	11.45	4.4545	0.	0.21148
15461	11.45	4.5455	5.e-002	6.6747
15462	11.727	4.5455	0.	0.15079
15463	11.635	4.4545	0.	0.15692
15464	11.635	4.5455	5.e-002	6.2863
15465	11.912	4.5455	0.	0.11285
15466	11.82	4.4545	0.	0.11794
15467	11.82	4.5455	5.e-002	5.9958
15468	12.096	4.5455	0.	8.5604e-002
15469	12.004	4.4545	0.	8.9665e-002
15470	12.004	4.5455	5.e-002	5.7781
15471	12.281	4.5455	0.	6.5776e-002
15472	12.189	4.4545	0.	6.892e-002
15473	12.189	4.5455	5.e-002	5.6136
15474	12.465	4.5455	0.	5.12e-002
15475	12.373	4.4545	0.	5.355e-002
15476	12.373	4.5455	5.e-002	5.4873
15477	12.65	4.5455	0.	4.0368e-002
15478	12.558	4.4545	0.	4.2107e-002
15479	12.558	4.5455	5.e-002	5.3882
15480	12.835	4.5455	0.	3.2244e-002
15481	12.742	4.4545	0.	3.3506e-002
15482	12.742	4.5455	5.e-002	5.3082
15483	13.019	4.5455	0.	2.6109e-002
15484	12.927	4.4545	0.	2.7002e-002
15485	12.927	4.5455	5.e-002	5.2418
15486	13.204	4.5455	0.	2.1467e-002
15487	13.111	4.4545	0.	2.2072e-002
15488	13.111	4.5455	5.e-002	5.1848
15489	13.388	4.5455	0.	1.793e-002
15490	13.296	4.4545	0.	1.8347e-002
15491	13.296	4.5455	5.e-002	5.1345
15492	13.573	4.5455	0.	1.521e-002
15493	13.48	4.4545	0.	1.5485e-002
15494	13.48	4.5455	5.e-002	5.0892
15495	13.757	4.5455	0.	1.313e-002
15496	13.665	4.4545	0.	1.3294e-002
15497	13.665	4.5455	5.e-002	5.0473
15498	13.942	4.5455	0.	1.1544e-002
15499	13.85	4.4545	0.	1.1637e-002
15500	13.85	4.5455	5.e-002	5.0082
15501	14.126	4.5455	0.	1.0333e-002
15502	14.034	4.4545	0.	1.0381e-002
15503	14.034	4.5455	5.e-002	4.9712
15504	14.311	4.5455	0.	9.4206e-003
15505	14.219	4.4545	0.	9.4329e-003
15506	14.219	4.5455	5.e-002	4.9358
15507	14.496	4.5455	0.	8.7636e-003
15508	14.403	4.4545	0.	8.739e-003
15509	14.403	4.5455	5.e-002	4.9018
15510	14.68	4.5455	0.	8.3028e-003
15511	14.588	4.4545	0.	8.2707e-003
15512	14.588	4.5455	5.e-002	4.8691
15513	14.865	4.5455	0.	7.9931e-003
15514	14.772	4.4545	0.	7.9438e-003
15515	14.772	4.5455	5.e-002	4.8375
15516	15.049	4.5455	0.	7.8359e-003
15517	14.957	4.4545	0.	7.7538e-003
15518	14.957	4.5455	5.e-002	4.8068
15519	15.234	4.5455	0.	7.8251e-003
15520	15.141	4.4545	0.	7.7043e-003
15521	15.141	4.5455	5.e-002	4.7771
15522	15.418	4.5455	0.	7.9578e-003
15523	15.326	4.4545	0.	7.777e-003
15524	15.326	4.5455	5.e-002	4.7482
15525	15.603	4.5455	0.	8.2689e-003
15526	15.511	4.4545	0.	7.9792e-003
15527	15.511	4.5455	5.e-002	4.7201
15528	15.787	4.5455	0.	8.8499e-003
15529	15.695	4.4545	0.	8.3551e-003
15530	15.695	4.5455	5.e-002	4.6927
15531	15.972	4.5455	0.	9.8752e-003
15532	15.88	4.4545	0.	9.0043e-003
15533	15.88	4.5455	5.e-002	4.6661
15534	16.157	4.5455	0.	1.1867e-002
15535	16.064	4.4545	0.	1.0085e-002
15536	16.064	4.5455	5.e-002	4.6402
15537	16.341	4.5455	0.	1.7136e-002
15538	16.249	4.4545	0.	1.2216e-002
15539	16.249	4.5455	5.e-002	4.615
15540	16.526	4.5455	0.	6.3193e-002
15541	16.433	4.4545	0.	1.8281e-002
15542	16.433	4.5455	5.e-002	4.5903
15543	16.71	4.5455	0.	1.5599
15544	16.618	4.4545	0.	0.12244
15545	16.618	4.5455	5.e-002	4.5663
15546	16.895	4.5455	0.	3.4558
15547	16.802	4.4545	0.	1.9244
15548	16.802	4.5455	5.e-002	4.5429
15549	17.079	4.5455	0.	5.2989
15550	16.987	4.4545	0.	3.8679
15551	16.987	4.5455	5.e-002	4.5201
15552	17.264	4.5455	0.	7.0931
15553	17.172	4.4545	0.	5.7575
15554	17.172	4.5455	5.e-002	4.4978
15555	17.448	4.5455	0.	8.8473
15556	17.356	4.4545	0.	7.6002
15557	17.356	4.5455	5.e-002	4.476
15558	17.633	4.5455	0.	10.571
15559	17.541	4.4545	0.	9.4054
15560	17.541	4.5455	5.e-002	4.4548
15561	17.817	4.5455	0.	12.273
15562	17.725	4.4545	0.	11.183
15563	17.725	4.5455	5.e-002	4.4342
15564	18.002	4.5455	0.	13.963
15565	17.91	4.4545	0.	12.944
15566	17.91	4.5455	5.e-002	4.4141
15567	18.187	4.5455	0.	15.651
15568	18.094	4.4545	0.	14.697
15569	18.094	4.5455	5.e-002	4.3945
15570	18.371	4.5455	0.	17.347
15571	18.279	4.4545	0.	16.453
15572	18.279	4.5455	5.e-002	4.3754
15573	18.556	4.5455	0.	19.059
15574	18.463	4.4545	0.	18.223
15575	18.463	4.5455	5.e-002	4.3569
15576	18.74	4.5455	0.	20.798
15577	18.648	4.4545	0.	20.016
15578	18.648	4.5455	5.e-002	4.3389
15579	18.925	4.5455	0.	22.574
15580	18.833	4.4545	0.	21.842
15581	18.833	4.5455	5.e-002	4.3215
15582	19.109	4.5455	0.	24.396
15583	19.017	4.4545	0.	23.713
15584	19.017	4.5455	5.e-002	4.3047
15585	19.294	4.5455	0.	26.277
15586	19.202	4.4545	0.	25.64
15587	19.202	4.5455	5.e-002	4.2886
15588	19.478	4.5455	0.	28.226
15589	19.386	4.4545	0.	27.634
15590	19.386	4.5455	5.e-002	4.273
15591	19.663	4.5455	0.	30.254
15592	19.571	4.4545	0.	29.706
15593	19.571	4.5455	5.e-002	4.2582
15594	19.848	4.5455	0.	32.374
15595	19.755	4.4545	0.	31.869
15596	19.755	4.5455	5.e-002	4.2441
15597	20.032	4.5455	0.	34.599
15598	19.94	4.4545	0.	34.136
15599	19.94	4.5455	5.e-002	4.2308
15600	20.217	4.5455	0.	36.941
15601	20.124	4.4545	0.	36.521
15602	20.124	4.5455	5.e-002	4.2183
15603	20.401	4.5455	0.	39.415
15604	20.309	4.4545	0.	39.038
15605	20.309	4.5455	5.e-002	4.2067
15606	20.586	4.5455	0.	42.037
15607	20.493	4.4545	0.	41.702
15608	20.493	4.5455	5.e-002	4.196
15609	20.77	4.5455	0.	44.823
15610	20.678	4.4545	0.	44.531
15611	20.678	4.5455	5.e-002	4.1865
15612	20.955	4.5455	0.	47.792
15613	20.863	4.4545	0.	47.544
15614	20.863	4.5455	5.e-002	4.1781
15615	21.139	4.5455	0.	50.965
15616	21.047	4.4545	0.	50.759
15617	21.047	4.5455	5.e-002	4.171
15618	21.324	4.5455	0.	54.364
15619	21.232	4.4545	0.	54.199
15620	21.232	4.5455	5.e-002	4.1653
15621	21.509	4.5455	0.	58.015
15622	21.416	4.4545	0.	57.889
15623	21.416	4.5455	5.e-002	4.1613
15624	21.693	4.5455	0.	61.948
15625	21.601	4.4545	0.	61.857
15626	21.601	4.5455	5.e-002	4.1591
15627	21.878	4.5455	0.	66.195
15628	21.785	4.4545	0.	66.133
15629	21.785	4.5455	5.e-002	4.159
15630	22.062	4.5455	0.	70.794
15631	21.97	4.4545	0.	70.752
15632	21.97	4.5455	5.e-002	4.1614
15633	22.247	4.5455	0.	75.789
15634	22.154	4.4545	0.	75.753
15635	22.154	4.5455	5.e-002	4.1667
15636	22.431	4.5455	0.	81.228
15637	22.339	4.4545	0.	81.178
15638	22.339	4.5455	5.e-002	4.1754
15639	22.616	4.5455	0.	87.163
15640	22.524	4.4545	0.	87.076
15641	22.524	4.5455	5.e-002	4.1884
15642	22.8	4.5455	0.	93.654
15643	22.708	4.4545	0.	93.496
15644	22.708	4.5455	5.e-002	4.2064
15645	22.985	4.5455	0.	100.76
15646	22.893	4.4545	0.	100.49
15647	22.893	4.5455	5.e-002	4.2307
15648	23.17	4.5455	0.	108.53
15649	23.077	4.4545	0.	108.11
15650	23.077	4.5455	5.e-002	4.2626
15651	23.354	4.5455	0.	117.
15652	23.262	4.4545	0.	116.39
15653	23.262	4.5455	5.e-002	4.3034
15654	23.539	4.5455	0.	126.24
15655	23.446	4.4545	0.	125.36
15656	23.446	4.5455	5.e-002	4.3544
15657	23.723	4.5455	0.	136.18
15658	23.631	4.4545	0.	135.07
15659	23.631	4.5455	5.e-002	4.4195
15660	23.815	4.4545	0.	145.37
15661	23.815	4.5455	5.e-002	4.5543
15662	23.908	4.5455	0.	145.9
15663	9.1435	4.3636	0.	1758.
15664	9.0512	4.2727	0.	2547.7
15665	9.0512	4.3636	5.e-002	197.24
15666	8.9589	4.3636	0.	1957.4
15667	9.328	4.3636	0.	869.23
15668	9.2358	4.2727	0.	1119.1
15669	9.2358	4.3636	5.e-002	77.142
15670	9.5126	4.3636	0.	428.85
15671	9.4203	4.2727	0.	510.68
15672	9.4203	4.3636	5.e-002	47.182
15673	9.6972	4.3636	0.	190.33
15674	9.6049	4.2727	0.	222.5
15675	9.6049	4.3636	5.e-002	33.967
15676	9.8817	4.3636	0.	58.063
15677	9.7894	4.2727	0.	64.305
15678	9.7894	4.3636	5.e-002	26.186
15679	10.066	4.3636	0.	8.5977
15680	9.974	4.2727	0.	8.2617
15681	9.974	4.3636	5.e-002	21.409
15682	10.251	4.3636	0.	2.7823
15683	10.159	4.2727	0.	2.6684
15684	10.159	4.3636	5.e-002	17.885
15685	10.435	4.3636	0.	1.4597
15686	10.343	4.2727	0.	1.4248
15687	10.343	4.3636	5.e-002	15.206
15688	10.62	4.3636	0.	0.90364
15689	10.528	4.2727	0.	0.89052
15690	10.528	4.3636	5.e-002	13.112
15691	10.804	4.3636	0.	0.60705
15692	10.712	4.2727	0.	0.60567
15693	10.712	4.3636	5.e-002	11.449
15694	10.989	4.3636	0.	0.42611
15695	10.897	4.2727	0.	0.42926
15696	10.897	4.3636	5.e-002	10.122
15697	11.174	4.3636	0.	0.30746
15698	11.081	4.2727	0.	0.31245
15699	11.081	4.3636	5.e-002	9.0608
15700	11.358	4.3636	0.	0.22595
15701	11.266	4.2727	0.	0.2312
15702	11.266	4.3636	5.e-002	8.2155
15703	11.543	4.3636	0.	0.16833
15704	11.45	4.2727	0.	0.17313
15705	11.45	4.3636	5.e-002	7.5451
15706	11.727	4.3636	0.	0.12679
15707	11.635	4.2727	0.	0.13085
15708	11.635	4.3636	5.e-002	7.0159
15709	11.912	4.3636	0.	9.6455e-002
15710	11.82	4.2727	0.	9.9724e-002
15711	11.82	4.3636	5.e-002	6.5997
15712	12.096	4.3636	0.	7.4053e-002
15713	12.004	4.2727	0.	7.6593e-002
15714	12.004	4.3636	5.e-002	6.2726
15715	12.281	4.3636	0.	5.7392e-002
15716	12.189	4.2727	0.	5.9276e-002
15717	12.189	4.3636	5.e-002	6.015
15718	12.465	4.3636	0.	4.4942e-002
15719	12.373	4.2727	0.	4.6297e-002
15720	12.373	4.3636	5.e-002	5.8108
15721	12.65	4.3636	0.	3.5579e-002
15722	12.558	4.2727	0.	3.6524e-002
15723	12.558	4.3636	5.e-002	5.6477
15724	12.835	4.3636	0.	2.85e-002
15725	12.742	4.2727	0.	2.913e-002
15726	12.742	4.3636	5.e-002	5.5156
15727	13.019	4.3636	0.	2.3133e-002
15728	12.927	4.2727	0.	2.3522e-002
15729	12.927	4.3636	5.e-002	5.4071
15730	13.204	4.3636	0.	1.9072e-002
15731	13.111	4.2727	0.	1.9273e-002
15732	13.111	4.3636	5.e-002	5.3163
15733	13.388	4.3636	0.	1.5989e-002
15734	13.296	4.2727	0.	1.608e-002
15735	13.296	4.3636	5.e-002	5.2392
15736	13.573	4.3636	0.	1.3631e-002
15737	13.48	4.2727	0.	1.3641e-002
15738	13.48	4.3636	5.e-002	5.1725
15739	13.757	4.3636	0.	1.1845e-002
15740	13.665	4.2727	0.	1.1793e-002
15741	13.665	4.3636	5.e-002	5.1137
15742	13.942	4.3636	0.	1.0504e-002
15743	13.85	4.2727	0.	1.0418e-002
15744	13.85	4.3636	5.e-002	5.0611
15745	14.126	4.3636	0.	9.4992e-003
15746	14.034	4.2727	0.	9.3976e-003
15747	14.034	4.3636	5.e-002	5.0135
15748	14.311	4.3636	0.	8.7592e-003
15749	14.219	4.2727	0.	8.6455e-003
15750	14.219	4.3636	5.e-002	4.9697
15751	14.496	4.3636	0.	8.2458e-003
15752	14.403	4.2727	0.	8.1152e-003
15753	14.403	4.3636	5.e-002	4.9291
15754	14.68	4.3636	0.	7.9044e-003
15755	14.588	4.2727	0.	7.7836e-003
15756	14.588	4.3636	5.e-002	4.8912
15757	14.865	4.3636	0.	7.6909e-003
15758	14.772	4.2727	0.	7.5686e-003
15759	14.772	4.3636	5.e-002	4.8554
15760	15.049	4.3636	0.	7.6028e-003
15761	14.957	4.2727	0.	7.4673e-003
15762	14.957	4.3636	5.e-002	4.8215
15763	15.234	4.3636	0.	7.6313e-003
15764	15.141	4.2727	0.	7.4781e-003
15765	15.141	4.3636	5.e-002	4.7891
15766	15.418	4.3636	0.	7.7679e-003
15767	15.326	4.2727	0.	7.5865e-003
15768	15.326	4.3636	5.e-002	4.7582
15769	15.603	4.3636	0.	8.0281e-003
15770	15.511	4.2727	0.	7.7846e-003
15771	15.511	4.3636	5.e-002	4.7285
15772	15.787	4.3636	0.	8.4619e-003
15773	15.695	4.2727	0.	8.1018e-003
15774	15.695	4.3636	5.e-002	4.6998
15775	15.972	4.3636	0.	9.143e-003
15776	15.88	4.2727	0.	8.5962e-003
15777	15.88	4.3636	5.e-002	4.6722
15778	16.157	4.3636	0.	1.0276e-002
15779	16.064	4.2727	0.	9.3198e-003
15780	16.064	4.3636	5.e-002	4.6454
15781	16.341	4.3636	0.	1.2568e-002
15782	16.249	4.2727	0.	1.0536e-002
15783	16.249	4.3636	5.e-002	4.6195
15784	16.526	4.3636	0.	1.9866e-002
15785	16.433	4.2727	0.	1.3121e-002
15786	16.433	4.3636	5.e-002	4.5943
15787	16.71	4.3636	0.	0.35665
15788	16.618	4.2727	0.	2.3283e-002
15789	16.618	4.3636	5.e-002	4.5699
15790	16.895	4.3636	0.	2.3613
15791	16.802	4.2727	0.	0.82839
15792	16.802	4.3636	5.e-002	4.5461
15793	17.079	4.3636	0.	4.3538
15794	16.987	4.2727	0.	2.9073
15795	16.987	4.3636	5.e-002	4.523
15796	17.264	4.3636	0.	6.2929
15797	17.172	4.2727	0.	4.9373
15798	17.172	4.3636	5.e-002	4.5005
15799	17.448	4.3636	0.	8.1876
15800	17.356	4.2727	0.	6.9159
15801	17.356	4.3636	5.e-002	4.4786
15802	17.633	4.3636	0.	10.048
15803	17.541	4.2727	0.	8.8532
15804	17.541	4.3636	5.e-002	4.4572
15805	17.817	4.3636	0.	11.885
15806	17.725	4.2727	0.	10.761
15807	17.725	4.3636	5.e-002	4.4365
15808	18.002	4.3636	0.	13.71
15809	17.91	4.2727	0.	12.649
15810	17.91	4.3636	5.e-002	4.4162
15811	18.187	4.3636	0.	15.532
15812	18.094	4.2727	0.	14.53
15813	18.094	4.3636	5.e-002	4.3966
15814	18.371	4.3636	0.	17.363
15815	18.279	4.2727	0.	16.415
15816	18.279	4.3636	5.e-002	4.3775
15817	18.556	4.3636	0.	19.214
15818	18.463	4.2727	0.	18.315
15819	18.463	4.3636	5.e-002	4.359
15820	18.74	4.3636	0.	21.095
15821	18.648	4.2727	0.	20.241
15822	18.648	4.3636	5.e-002	4.341
15823	18.925	4.3636	0.	23.018
15824	18.833	4.2727	0.	22.205
15825	18.833	4.3636	5.e-002	4.3236
15826	19.109	4.3636	0.	24.993
15827	19.017	4.2727	0.	24.219
15828	19.017	4.3636	5.e-002	4.3069
15829	19.294	4.3636	0.	27.034
15830	19.202	4.2727	0.	26.295
15831	19.202	4.3636	5.e-002	4.2907
15832	19.478	4.3636	0.	29.152
15833	19.386	4.2727	0.	28.446
15834	19.386	4.3636	5.e-002	4.2753
15835	19.663	4.3636	0.	31.36
15836	19.571	4.2727	0.	30.684
15837	19.571	4.3636	5.e-002	4.2606
15838	19.848	4.3636	0.	33.671
15839	19.755	4.2727	0.	33.023
15840	19.755	4.3636	5.e-002	4.2466
15841	20.032	4.3636	0.	36.098
15842	19.94	4.2727	0.	35.477
15843	19.94	4.3636	5.e-002	4.2334
15844	20.217	4.3636	0.	38.658
15845	20.124	4.2727	0.	38.062
15846	20.124	4.3636	5.e-002	4.2211
15847	20.401	4.3636	0.	41.366
15848	20.309	4.2727	0.	40.793
15849	20.309	4.3636	5.e-002	4.2098
15850	20.586	4.3636	0.	44.238
15851	20.493	4.2727	0.	43.687
15852	20.493	4.3636	5.e-002	4.1995
15853	20.77	4.3636	0.	47.293
15854	20.678	4.2727	0.	46.763
15855	20.678	4.3636	5.e-002	4.1903
15856	20.955	4.3636	0.	50.552
15857	20.863	4.2727	0.	50.039
15858	20.863	4.3636	5.e-002	4.1823
15859	21.139	4.3636	0.	54.035
15860	21.047	4.2727	0.	53.538
15861	21.047	4.3636	5.e-002	4.1757
15862	21.324	4.3636	0.	57.767
15863	21.232	4.2727	0.	57.282
15864	21.232	4.3636	5.e-002	4.1707
15865	21.509	4.3636	0.	61.773
15866	21.416	4.2727	0.	61.296
15867	21.416	4.3636	5.e-002	4.1674
15868	21.693	4.3636	0.	66.084
15869	21.601	4.2727	0.	65.608
15870	21.601	4.3636	5.e-002	4.1661
15871	21.878	4.3636	0.	70.731
15872	21.785	4.2727	0.	70.248
15873	21.785	4.3636	5.e-002	4.1671
15874	22.062	4.3636	0.	75.75
15875	21.97	4.2727	0.	75.248
15876	21.97	4.3636	5.e-002	4.1707
15877	22.247	4.3636	0.	81.18
15878	22.154	4.2727	0.	80.644
15879	22.154	4.3636	5.e-002	4.1773
15880	22.431	4.3636	0.	87.063
15881	22.339	4.2727	0.	86.474
15882	22.339	4.3636	5.e-002	4.1875
15883	22.616	4.3636	0.	93.442
15884	22.524	4.2727	0.	92.778
15885	22.524	4.3636	5.e-002	4.202
15886	22.8	4.3636	0.	100.36
15887	22.708	4.2727	0.	99.595
15888	22.708	4.3636	5.e-002	4.2215
15889	22.985	4.3636	0.	107.87
15890	22.893	4.2727	0.	106.97
15891	22.893	4.3636	5.e-002	4.2469
15892	23.17	4.3636	0.	115.99
15893	23.077	4.2727	0.	114.92
15894	23.077	4.3636	5.e-002	4.2793
15895	23.354	4.3636	0.	124.76
15896	23.262	4.2727	0.	123.49
15897	23.262	4.3636	5.e-002	4.3194
15898	23.539	4.3636	0.	134.21
15899	23.446	4.2727	0.	132.68
15900	23.446	4.3636	5.e-002	4.3681
15901	23.723	4.3636	0.	144.27
15902	23.631	4.2727	0.	142.54
15903	23.631	4.3636	5.e-002	4.428
15904	23.815	4.2727	0.	152.89
15905	23.815	4.3636	5.e-002	4.5435
15906	23.908	4.3636	0.	154.11
15907	9.1435	4.1818	0.	1844.9
15908	9.0512	4.0909	0.	2166.4
15909	9.0512	4.1818	5.e-002	352.36
15910	8.9589	4.1818	0.	3039.
15911	9.328	4.1818	0.	741.92
15912	9.2358	4.0909	0.	829.61
15913	9.2358	4.1818	5.e-002	117.92
15914	9.5126	4.1818	0.	294.24
15915	9.4203	4.0909	0.	329.18
15916	9.4203	4.1818	5.e-002	54.511
15917	9.6972	4.1818	0.	89.002
15918	9.6049	4.0909	0.	99.779
15919	9.6049	4.1818	5.e-002	39.213
15920	9.8817	4.1818	0.	9.9428
15921	9.7894	4.0909	0.	9.1739
15922	9.7894	4.1818	5.e-002	30.668
15923	10.066	4.1818	0.	2.9011
15924	9.974	4.0909	0.	2.8279
15925	9.974	4.1818	5.e-002	24.77
15926	10.251	4.1818	0.	1.4829
15927	10.159	4.0909	0.	1.408
15928	10.159	4.1818	5.e-002	20.592
15929	10.435	4.1818	0.	0.92926
15930	10.343	4.0909	0.	0.91517
15931	10.343	4.1818	5.e-002	17.442
15932	10.62	4.1818	0.	0.63048
15933	10.528	4.0909	0.	0.62417
15934	10.528	4.1818	5.e-002	14.989
15935	10.804	4.1818	0.	0.44935
15936	10.712	4.0909	0.	0.45093
15937	10.712	4.1818	5.e-002	13.038
15938	10.989	4.1818	0.	0.32842
15939	10.897	4.0909	0.	0.33198
15940	10.897	4.1818	5.e-002	11.468
15941	11.174	4.1818	0.	0.2441
15942	11.081	4.0909	0.	0.24836
15943	11.081	4.1818	5.e-002	10.199
15944	11.358	4.1818	0.	0.18339
15945	11.266	4.0909	0.	0.18737
15946	11.266	4.1818	5.e-002	9.1731
15947	11.543	4.1818	0.	0.13889
15948	11.45	4.0909	0.	0.14227
15949	11.45	4.1818	5.e-002	8.3458
15950	11.727	4.1818	0.	0.1059
15951	11.635	4.0909	0.	0.10858
15952	11.635	4.1818	5.e-002	7.6807
15953	11.912	4.1818	0.	8.127e-002
15954	11.82	4.0909	0.	8.3299e-002
15955	11.82	4.1818	5.e-002	7.1476
15956	12.096	4.1818	0.	6.277e-002
15957	12.004	4.0909	0.	6.4241e-002
15958	12.004	4.1818	5.e-002	6.7211
15959	12.281	4.1818	0.	4.8837e-002
15960	12.189	4.0909	0.	4.9823e-002
15961	12.189	4.1818	5.e-002	6.3798
15962	12.465	4.1818	0.	3.8338e-002
15963	12.373	4.0909	0.	3.8951e-002
15964	12.373	4.1818	5.e-002	6.106
15965	12.65	4.1818	0.	3.04e-002
15966	12.558	4.0909	0.	3.0739e-002
15967	12.558	4.1818	5.e-002	5.8854
15968	12.835	4.1818	0.	2.4386e-002
15969	12.742	4.0909	0.	2.4523e-002
15970	12.742	4.1818	5.e-002	5.7065
15971	13.019	4.1818	0.	1.9832e-002
15972	12.927	4.0909	0.	1.982e-002
15973	12.927	4.1818	5.e-002	5.5599
15974	13.204	4.1818	0.	1.6404e-002
15975	13.111	4.0909	0.	1.628e-002
15976	13.111	4.1818	5.e-002	5.4385
15977	13.388	4.1818	0.	1.3823e-002
15978	13.296	4.0909	0.	1.3648e-002
15979	13.296	4.1818	5.e-002	5.3367
15980	13.573	4.1818	0.	1.1869e-002
15981	13.48	4.0909	0.	1.1661e-002
15982	13.48	4.1818	5.e-002	5.2503
15983	13.757	4.1818	0.	1.0413e-002
15984	13.665	4.0909	0.	1.0181e-002
15985	13.665	4.1818	5.e-002	5.1758
15986	13.942	4.1818	0.	9.3436e-003
15987	13.85	4.0909	0.	9.1088e-003
15988	13.85	4.1818	5.e-002	5.1107
15989	14.126	4.1818	0.	8.5646e-003
15990	14.034	4.0909	0.	8.3386e-003
15991	14.034	4.1818	5.e-002	5.0532
15992	14.311	4.1818	0.	8.0129e-003
15993	14.219	4.0909	0.	7.7947e-003
15994	14.219	4.1818	5.e-002	5.0015
15995	14.496	4.1818	0.	7.6568e-003
15996	14.403	4.0909	0.	7.4383e-003
15997	14.403	4.1818	5.e-002	4.9547
15998	14.68	4.1818	0.	7.4452e-003
15999	14.588	4.0909	0.	7.2497e-003
16000	14.588	4.1818	5.e-002	4.9119
16001	14.865	4.1818	0.	7.3369e-003
16002	14.772	4.0909	0.	7.1533e-003
16003	14.772	4.1818	5.e-002	4.8722
16004	15.049	4.1818	0.	7.3296e-003
16005	14.957	4.0909	0.	7.1461e-003
16006	14.957	4.1818	5.e-002	4.8352
16007	15.234	4.1818	0.	7.4157e-003
16008	15.141	4.0909	0.	7.2297e-003
16009	15.141	4.1818	5.e-002	4.8004
16010	15.418	4.1818	0.	7.5811e-003
16011	15.326	4.0909	0.	7.3862e-003
16012	15.326	4.1818	5.e-002	4.7675
16013	15.603	4.1818	0.	7.831e-003
16014	15.511	4.0909	0.	7.6041e-003
16015	15.511	4.1818	5.e-002	4.7362
16016	15.787	4.1818	0.	8.2013e-003
16017	15.695	4.0909	0.	7.9054e-003
16018	15.695	4.1818	5.e-002	4.7063
16019	15.972	4.1818	0.	8.7229e-003
16020	15.88	4.0909	0.	8.3278e-003
16021	15.88	4.1818	5.e-002	4.6777
16022	16.157	4.1818	0.	9.4844e-003
16023	16.064	4.0909	0.	8.878e-003
16024	16.064	4.1818	5.e-002	4.6502
16025	16.341	4.1818	0.	1.0788e-002
16026	16.249	4.0909	0.	9.6887e-003
16027	16.249	4.1818	5.e-002	4.6236
16028	16.526	4.1818	0.	1.3755e-002
16029	16.433	4.0909	0.	1.1129e-002
16030	16.433	4.1818	5.e-002	4.598
16031	16.71	4.1818	0.	3.0904e-002
16032	16.618	4.0909	0.	1.4836e-002
16033	16.618	4.1818	5.e-002	4.5731
16034	16.895	4.1818	0.	1.3907
16035	16.802	4.0909	0.	7.7958e-002
16036	16.802	4.1818	5.e-002	4.5491
16037	17.079	4.1818	0.	3.5172
16038	16.987	4.0909	0.	2.064
16039	16.987	4.1818	5.e-002	4.5257
16040	17.264	4.1818	0.	5.5881
16041	17.172	4.0909	0.	4.22
16042	17.172	4.1818	5.e-002	4.503
16043	17.448	4.1818	0.	7.6104
16044	17.356	4.0909	0.	6.3207
16045	17.356	4.1818	5.e-002	4.4809
16046	17.633	4.1818	0.	9.5954
16047	17.541	4.0909	0.	8.3766
16048	17.541	4.1818	5.e-002	4.4594
16049	17.817	4.1818	0.	11.555
16050	17.725	4.0909	0.	10.4
16051	17.725	4.1818	5.e-002	4.4385
16052	18.002	4.1818	0.	13.501
16053	17.91	4.0909	0.	12.403
16054	17.91	4.1818	5.e-002	4.4182
16055	18.187	4.1818	0.	15.445
16056	18.094	4.0909	0.	14.399
16057	18.094	4.1818	5.e-002	4.3985
16058	18.371	4.1818	0.	17.399
16059	18.279	4.0909	0.	16.398
16060	18.279	4.1818	5.e-002	4.3794
16061	18.556	4.1818	0.	19.375
16062	18.463	4.0909	0.	18.415
16063	18.463	4.1818	5.e-002	4.3608
16064	18.74	4.1818	0.	21.385
16065	18.648	4.0909	0.	20.46
16066	18.648	4.1818	5.e-002	4.3428
16067	18.925	4.1818	0.	23.441
16068	18.833	4.0909	0.	22.548
16069	18.833	4.1818	5.e-002	4.3255
16070	19.109	4.1818	0.	25.556
16071	19.017	4.0909	0.	24.69
16072	19.017	4.1818	5.e-002	4.3087
16073	19.294	4.1818	0.	27.742
16074	19.202	4.0909	0.	26.899
16075	19.202	4.1818	5.e-002	4.2927
16076	19.478	4.1818	0.	30.013
16077	19.386	4.0909	0.	29.191
16078	19.386	4.1818	5.e-002	4.2773
16079	19.663	4.1818	0.	32.384
16080	19.571	4.0909	0.	31.577
16081	19.571	4.1818	5.e-002	4.2627
16082	19.848	4.1818	0.	34.867
16083	19.755	4.0909	0.	34.074
16084	19.755	4.1818	5.e-002	4.2488
16085	20.032	4.1818	0.	37.479
16086	19.94	4.0909	0.	36.695
16087	19.94	4.1818	5.e-002	4.2358
16088	20.217	4.1818	0.	40.235
16089	20.124	4.0909	0.	39.459
16090	20.124	4.1818	5.e-002	4.2237
16091	20.401	4.1818	0.	43.153
16092	20.309	4.0909	0.	42.381
16093	20.309	4.1818	5.e-002	4.2126
16094	20.586	4.1818	0.	46.251
16095	20.493	4.0909	0.	45.48
16096	20.493	4.1818	5.e-002	4.2025
16097	20.77	4.1818	0.	49.548
16098	20.678	4.0909	0.	48.774
16099	20.678	4.1818	5.e-002	4.1937
16100	20.955	4.1818	0.	53.064
16101	20.863	4.0909	0.	52.284
16102	20.863	4.1818	5.e-002	4.1861
16103	21.139	4.1818	0.	56.824
16104	21.047	4.0909	0.	56.033
16105	21.047	4.1818	5.e-002	4.1801
16106	21.324	4.1818	0.	60.85
16107	21.232	4.0909	0.	60.042
16108	21.232	4.1818	5.e-002	4.1756
16109	21.509	4.1818	0.	65.168
16110	21.416	4.0909	0.	64.339
16111	21.416	4.1818	5.e-002	4.173
16112	21.693	4.1818	0.	69.808
16113	21.601	4.0909	0.	68.948
16114	21.601	4.1818	5.e-002	4.1725
16115	21.878	4.1818	0.	74.8
16116	21.785	4.0909	0.	73.899
16117	21.785	4.1818	5.e-002	4.1744
16118	22.062	4.1818	0.	80.176
16119	21.97	4.0909	0.	79.223
16120	21.97	4.1818	5.e-002	4.179
16121	22.247	4.1818	0.	85.971
16122	22.154	4.0909	0.	84.95
16123	22.154	4.1818	5.e-002	4.1868
16124	22.431	4.1818	0.	92.22
16125	22.339	4.0909	0.	91.113
16126	22.339	4.1818	5.e-002	4.1982
16127	22.616	4.1818	0.	98.958
16128	22.524	4.0909	0.	97.746
16129	22.524	4.1818	5.e-002	4.2139
16130	22.8	4.1818	0.	106.22
16131	22.708	4.0909	0.	104.88
16132	22.708	4.1818	5.e-002	4.2344
16133	22.985	4.1818	0.	114.04
16134	22.893	4.0909	0.	112.54
16135	22.893	4.1818	5.e-002	4.2606
16136	23.17	4.1818	0.	122.44
16137	23.077	4.0909	0.	120.76
16138	23.077	4.1818	5.e-002	4.293
16139	23.354	4.1818	0.	131.42
16140	23.262	4.0909	0.	129.55
16141	23.262	4.1818	5.e-002	4.3323
16142	23.539	4.1818	0.	141.02
16143	23.446	4.0909	0.	138.9
16144	23.446	4.1818	5.e-002	4.3788
16145	23.723	4.1818	0.	151.17
16146	23.631	4.0909	0.	148.87
16147	23.631	4.1818	5.e-002	4.4343
16148	23.815	4.0909	0.	159.25
16149	23.815	4.1818	5.e-002	4.5334
16150	23.908	4.1818	0.	161.11
16151	9.1435	4.	0.	1167.9
16152	9.0512	3.9091	0.	1180.2
16153	9.0512	4.	5.e-002	630.47
16154	8.9589	4.	0.	1769.2
16155	9.328	4.	0.	414.85
16156	9.2358	3.9091	0.	479.87
16157	9.2358	4.	5.e-002	109.79
16158	9.5126	4.	0.	128.17
16159	9.4203	3.9091	0.	157.91
16160	9.4203	4.	5.e-002	70.884
16161	9.6972	4.	0.	12.056
16162	9.6049	3.9091	0.	13.267
16163	9.6049	4.	5.e-002	47.419
16164	9.8817	4.	0.	2.5744
16165	9.7894	3.9091	0.	1.8866
16166	9.7894	4.	5.e-002	35.943
16167	10.066	4.	0.	1.5213
16168	9.974	3.9091	0.	1.5301
16169	9.974	4.	5.e-002	28.6
16170	10.251	4.	0.	0.9171
16171	10.159	3.9091	0.	0.8671
16172	10.159	4.	5.e-002	23.552
16173	10.435	4.	0.	0.64926
16174	10.343	3.9091	0.	0.64955
16175	10.343	4.	5.e-002	19.802
16176	10.62	4.	0.	0.46698
16177	10.528	3.9091	0.	0.4684
16178	10.528	4.	5.e-002	16.903
16179	10.804	4.	0.	0.3472
16180	10.712	3.9091	0.	0.35287
16181	10.712	4.	5.e-002	14.603
16182	10.989	4.	0.	0.26059
16183	10.897	3.9091	0.	0.26604
16184	10.897	4.	5.e-002	12.754
16185	11.174	4.	0.	0.19729
16186	11.081	3.9091	0.	0.20214
16187	11.081	4.	5.e-002	11.258
16188	11.358	4.	0.	0.15003
16189	11.266	3.9091	0.	0.1539
16190	11.266	4.	5.e-002	10.046
16191	11.543	4.	0.	0.11453
16192	11.45	3.9091	0.	0.11744
16193	11.45	4.	5.e-002	9.0642
16194	11.727	4.	0.	8.7741e-002
16195	11.635	3.9091	0.	8.9797e-002
16196	11.635	4.	5.e-002	8.271
16197	11.912	4.	0.	6.7491e-002
16198	11.82	3.9091	0.	6.8866e-002
16199	11.82	4.	5.e-002	7.6312
16200	12.096	4.	0.	5.2154e-002
16201	12.004	3.9091	0.	5.3009e-002
16202	12.004	4.	5.e-002	7.1159
16203	12.281	4.	0.	4.0549e-002
16204	12.189	3.9091	0.	4.0987e-002
16205	12.189	4.	5.e-002	6.7009
16206	12.465	4.	0.	3.1792e-002
16207	12.373	3.9091	0.	3.1934e-002
16208	12.373	4.	5.e-002	6.3663
16209	12.65	4.	0.	2.5181e-002
16210	12.558	3.9091	0.	2.5122e-002
16211	12.558	4.	5.e-002	6.0957
16212	12.835	4.	0.	2.0191e-002
16213	12.742	3.9091	0.	1.9998e-002
16214	12.742	4.	5.e-002	5.8758
16215	13.019	4.	0.	1.6441e-002
16216	12.927	3.9091	0.	1.6156e-002
16217	12.927	4.	5.e-002	5.696
16218	13.204	4.	0.	1.3651e-002
16219	13.111	3.9091	0.	1.3301e-002
16220	13.111	4.	5.e-002	5.5477
16221	13.388	4.	0.	1.1582e-002
16222	13.296	3.9091	0.	1.1222e-002
16223	13.296	4.	5.e-002	5.4242
16224	13.573	4.	0.	1.0043e-002
16225	13.48	3.9091	0.	9.6825e-003
16226	13.48	4.	5.e-002	5.3203
16227	13.757	4.	0.	8.9282e-003
16228	13.665	3.9091	0.	8.5684e-003
16229	13.665	4.	5.e-002	5.2319
16230	13.942	4.	0.	8.1399e-003
16231	13.85	3.9091	0.	7.798e-003
16232	13.85	4.	5.e-002	5.1557
16233	14.126	4.	0.	7.593e-003
16234	14.034	3.9091	0.	7.2762e-003
16235	14.034	4.	5.e-002	5.0892
16236	14.311	4.	0.	7.2352e-003
16237	14.219	3.9091	0.	6.9386e-003
16238	14.219	4.	5.e-002	5.0305
16239	14.496	4.	0.	7.039e-003
16240	14.403	3.9091	0.	6.7545e-003
16241	14.403	4.	5.e-002	4.978
16242	14.68	4.	0.	6.9594e-003
16243	14.588	3.9091	0.	6.7085e-003
16244	14.588	4.	5.e-002	4.9306
16245	14.865	4.	0.	6.9588e-003
16246	14.772	3.9091	0.	6.7284e-003
16247	14.772	4.	5.e-002	4.8874
16248	15.049	4.	0.	7.0381e-003
16249	14.957	3.9091	0.	6.8161e-003
16250	14.957	4.	5.e-002	4.8476
16251	15.234	4.	0.	7.1883e-003
16252	15.141	3.9091	0.	6.9747e-003
16253	15.141	4.	5.e-002	4.8106
16254	15.418	4.	0.	7.3936e-003
16255	15.326	3.9091	0.	7.1836e-003
16256	15.326	4.	5.e-002	4.7759
16257	15.603	4.	0.	7.6591e-003
16258	15.511	3.9091	0.	7.4342e-003
16259	15.511	4.	5.e-002	4.7432
16260	15.787	4.	0.	8.0075e-003
16261	15.695	3.9091	0.	7.7418e-003
16262	15.695	4.	5.e-002	4.7122
16263	15.972	4.	0.	8.4491e-003
16264	15.88	3.9091	0.	8.133e-003
16265	15.88	4.	5.e-002	4.6827
16266	16.157	4.	0.	9.0252e-003
16267	16.064	3.9091	0.	8.5937e-003
16268	16.064	4.	5.e-002	4.6544
16269	16.341	4.	0.	9.8861e-003
16270	16.249	3.9091	0.	9.1986e-003
16271	16.249	4.	5.e-002	4.6273
16272	16.526	4.	0.	1.1479e-002
16273	16.433	3.9091	0.	1.0127e-002
16274	16.433	4.	5.e-002	4.6012
16275	16.71	4.	0.	1.6537e-002
16276	16.618	3.9091	0.	1.1989e-002
16277	16.618	4.	5.e-002	4.576
16278	16.895	4.	0.	0.55668
16279	16.802	3.9091	0.	2.1083e-002
16280	16.802	4.	5.e-002	4.5516
16281	17.079	4.	0.	2.7921
16282	16.987	3.9091	0.	1.3423
16283	16.987	4.	5.e-002	4.528
16284	17.264	4.	0.	4.98
16285	17.172	3.9091	0.	3.6077
16286	17.172	4.	5.e-002	4.5051
16287	17.448	4.	0.	7.1154
16288	17.356	3.9091	0.	5.8151
16289	17.356	4.	5.e-002	4.4828
16290	17.633	4.	0.	9.2105
16291	17.541	3.9091	0.	7.9745
16292	17.541	4.	5.e-002	4.4612
16293	17.817	4.	0.	11.278
16294	17.725	3.9091	0.	10.099
16295	17.725	4.	5.e-002	4.4403
16296	18.002	4.	0.	13.332
16297	17.91	3.9091	0.	12.202
16298	17.91	4.	5.e-002	4.4199
16299	18.187	4.	0.	15.383
16300	18.094	3.9091	0.	14.297
16301	18.094	4.	5.e-002	4.4001
16302	18.371	4.	0.	17.446
16303	18.279	3.9091	0.	16.397
16304	18.279	4.	5.e-002	4.3809
16305	18.556	4.	0.	19.533
16306	18.463	3.9091	0.	18.515
16307	18.463	4.	5.e-002	4.3624
16308	18.74	4.	0.	21.657
16309	18.648	3.9091	0.	20.664
16310	18.648	4.	5.e-002	4.3444
16311	18.925	4.	0.	23.83
16312	18.833	3.9091	0.	22.859
16313	18.833	4.	5.e-002	4.327
16314	19.109	4.	0.	26.068
16315	19.017	3.9091	0.	25.112
16316	19.017	4.	5.e-002	4.3104
16317	19.294	4.	0.	28.383
16318	19.202	3.9091	0.	27.438
16319	19.202	4.	5.e-002	4.2943
16320	19.478	4.	0.	30.789
16321	19.386	3.9091	0.	29.851
16322	19.386	4.	5.e-002	4.279
16323	19.663	4.	0.	33.303
16324	19.571	3.9091	0.	32.367
16325	19.571	4.	5.e-002	4.2645
16326	19.848	4.	0.	35.938
16327	19.755	3.9091	0.	35.
16328	19.755	4.	5.e-002	4.2507
16329	20.032	4.	0.	38.712
16330	19.94	3.9091	0.	37.767
16331	19.94	4.	5.e-002	4.2379
16332	20.217	4.	0.	41.641
16333	20.124	3.9091	0.	40.686
16334	20.124	4.	5.e-002	4.2259
16335	20.401	4.	0.	44.744
16336	20.309	3.9091	0.	43.773
16337	20.309	4.	5.e-002	4.215
16338	20.586	4.	0.	48.039
16339	20.493	3.9091	0.	47.048
16340	20.493	4.	5.e-002	4.2052
16341	20.77	4.	0.	51.547
16342	20.678	3.9091	0.	50.531
16343	20.678	4.	5.e-002	4.1966
16344	20.955	4.	0.	55.289
16345	20.863	3.9091	0.	54.242
16346	20.863	4.	5.e-002	4.1895
16347	21.139	4.	0.	59.287
16348	21.047	3.9091	0.	58.204
16349	21.047	4.	5.e-002	4.1838
16350	21.324	4.	0.	63.567
16351	21.232	3.9091	0.	62.44
16352	21.232	4.	5.e-002	4.1799
16353	21.509	4.	0.	68.153
16354	21.416	3.9091	0.	66.975
16355	21.416	4.	5.e-002	4.1779
16356	21.693	4.	0.	73.072
16357	21.601	3.9091	0.	71.835
16358	21.601	4.	5.e-002	4.1781
16359	21.878	4.	0.	78.354
16360	21.785	3.9091	0.	77.046
16361	21.785	4.	5.e-002	4.1808
16362	22.062	4.	0.	84.027
16363	21.97	3.9091	0.	82.636
16364	21.97	4.	5.e-002	4.1863
16365	22.247	4.	0.	90.121
16366	22.154	3.9091	0.	88.634
16367	22.154	4.	5.e-002	4.195
16368	22.431	4.	0.	96.667
16369	22.339	3.9091	0.	95.067
16370	22.339	4.	5.e-002	4.2074
16371	22.616	4.	0.	103.69
16372	22.524	3.9091	0.	101.96
16373	22.524	4.	5.e-002	4.224
16374	22.8	4.	0.	111.22
16375	22.708	3.9091	0.	109.34
16376	22.708	4.	5.e-002	4.2453
16377	22.985	4.	0.	119.28
16378	22.893	3.9091	0.	117.23
16379	22.893	4.	5.e-002	4.2719
16380	23.17	4.	0.	127.89
16381	23.077	3.9091	0.	125.65
16382	23.077	4.	5.e-002	4.3041
16383	23.354	4.	0.	137.03
16384	23.262	3.9091	0.	134.6
16385	23.262	4.	5.e-002	4.3425
16386	23.539	4.	0.	146.75
16387	23.446	3.9091	0.	144.07
16388	23.446	4.	5.e-002	4.3871
16389	23.723	4.	0.	156.96
16390	23.631	3.9091	0.	154.12
16391	23.631	4.	5.e-002	4.439
16392	23.815	3.9091	0.	164.53
16393	23.815	4.	5.e-002	4.5243
16394	23.908	4.	0.	166.98
16395	9.1435	3.8182	0.	601.17
16396	9.0512	3.7273	0.	799.06
16397	9.0512	3.8182	5.e-002	345.44
16398	9.328	3.8182	0.	230.31
16399	9.2358	3.7273	0.	355.69
16400	9.2358	3.8182	5.e-002	158.32
16401	9.5126	3.8182	0.	19.599
16402	9.4203	3.7273	0.	85.675
16403	9.4203	3.8182	5.e-002	79.845
16404	9.6972	3.8182	0.	3.297
16405	9.6049	3.7273	0.	3.0691
16406	9.6049	3.8182	5.e-002	54.869
16407	9.8817	3.8182	0.	1.1076
16408	9.7894	3.7273	0.	0.98586
16409	9.7894	3.8182	5.e-002	40.922
16410	10.066	3.8182	0.	0.97544
16411	9.974	3.7273	0.	0.99651
16412	9.974	3.8182	5.e-002	32.377
16413	10.251	3.8182	0.	0.64635
16414	10.159	3.7273	0.	0.65438
16415	10.159	3.8182	5.e-002	26.484
16416	10.435	3.8182	0.	0.49433
16417	10.343	3.7273	0.	0.51341
16418	10.343	3.8182	5.e-002	22.12
16419	10.62	3.8182	0.	0.36969
16420	10.528	3.7273	0.	0.38481
16421	10.528	3.8182	5.e-002	18.747
16422	10.804	3.8182	0.	0.28152
16423	10.712	3.7273	0.	0.29425
16424	10.712	3.8182	5.e-002	16.077
16425	10.989	3.8182	0.	0.21408
16426	10.897	3.7273	0.	0.22361
16427	10.897	3.8182	5.e-002	13.937
16428	11.174	3.8182	0.	0.16315
16429	11.081	3.7273	0.	0.17012
16430	11.081	3.8182	5.e-002	12.211
16431	11.358	3.8182	0.	0.12434
16432	11.266	3.7273	0.	0.12923
16433	11.266	3.8182	5.e-002	10.817
16434	11.543	3.8182	0.	9.4841e-002
16435	11.45	3.7273	0.	9.8142e-002
16436	11.45	3.8182	5.e-002	9.6895
16437	11.727	3.8182	0.	7.2443e-002
16438	11.635	3.7273	0.	7.456e-002
16439	11.635	3.8182	5.e-002	8.779
16440	11.912	3.8182	0.	5.5477e-002
16441	11.82	3.7273	0.	5.6745e-002
16442	11.82	3.8182	5.e-002	8.0443
16443	12.096	3.8182	0.	4.2635e-002
16444	12.004	3.7273	0.	4.3311e-002
16445	12.004	3.8182	5.e-002	7.4517
16446	12.281	3.8182	0.	3.2952e-002
16447	12.189	3.7273	0.	3.319e-002
16448	12.189	3.8182	5.e-002	6.9736
16449	12.465	3.8182	0.	2.5691e-002
16450	12.373	3.7273	0.	2.5639e-002
16451	12.373	3.8182	5.e-002	6.5874
16452	12.65	3.8182	0.	2.0256e-002
16453	12.558	3.7273	0.	2.0021e-002
16454	12.558	3.8182	5.e-002	6.2746
16455	12.835	3.8182	0.	1.6199e-002
16456	12.742	3.7273	0.	1.5852e-002
16457	12.742	3.8182	5.e-002	6.0203
16458	13.019	3.8182	0.	1.3193e-002
16459	12.927	3.7273	0.	1.2778e-002
16460	12.927	3.8182	5.e-002	5.8124
16461	13.204	3.8182	0.	1.1005e-002
16462	13.111	3.7273	0.	1.0544e-002
16463	13.111	3.8182	5.e-002	5.6414
16464	13.388	3.8182	0.	9.4224e-003
16465	13.296	3.7273	0.	8.9693e-003
16466	13.296	3.8182	5.e-002	5.4995
16467	13.573	3.8182	0.	8.2818e-003
16468	13.48	3.7273	0.	7.8421e-003
16469	13.48	3.8182	5.e-002	5.3808
16470	13.757	3.8182	0.	7.4931e-003
16471	13.665	3.7273	0.	7.0678e-003
16472	13.665	3.8182	5.e-002	5.2804
16473	13.942	3.8182	0.	6.9742e-003
16474	13.85	3.7273	0.	6.5751e-003
16475	13.85	3.8182	5.e-002	5.1946
16476	14.126	3.8182	0.	6.6498e-003
16477	14.034	3.7273	0.	6.2852e-003
16478	14.034	3.8182	5.e-002	5.1205
16479	14.311	3.8182	0.	6.4765e-003
16480	14.219	3.7273	0.	6.1376e-003
16481	14.219	3.8182	5.e-002	5.0556
16482	14.496	3.8182	0.	6.4351e-003
16483	14.403	3.7273	0.	6.113e-003
16484	14.403	3.8182	5.e-002	4.9983
16485	14.68	3.8182	0.	6.4826e-003
16486	14.588	3.7273	0.	6.1984e-003
16487	14.588	3.8182	5.e-002	4.947
16488	14.865	3.8182	0.	6.5857e-003
16489	14.772	3.7273	0.	6.3265e-003
16490	14.772	3.8182	5.e-002	4.9007
16491	15.049	3.8182	0.	6.7486e-003
16492	14.957	3.7273	0.	6.5022e-003
16493	14.957	3.8182	5.e-002	4.8584
16494	15.234	3.8182	0.	6.9625e-003
16495	15.141	3.7273	0.	6.7308e-003
16496	15.141	3.8182	5.e-002	4.8194
16497	15.418	3.8182	0.	7.2137e-003
16498	15.326	3.7273	0.	6.9932e-003
16499	15.326	3.8182	5.e-002	4.7832
16500	15.603	3.8182	0.	7.5035e-003
16501	15.511	3.7273	0.	7.2793e-003
16502	15.511	3.8182	5.e-002	4.7493
16503	15.787	3.8182	0.	7.8506e-003
16504	15.695	3.7273	0.	7.6026e-003
16505	15.695	3.8182	5.e-002	4.7173
16506	15.972	3.8182	0.	8.2556e-003
16507	15.88	3.7273	0.	7.9853e-003
16508	15.88	3.8182	5.e-002	4.687
16509	16.157	3.8182	0.	8.7332e-003
16510	16.064	3.7273	0.	8.3991e-003
16511	16.064	3.8182	5.e-002	4.6581
16512	16.341	3.8182	0.	9.3664e-003
16513	16.249	3.7273	0.	8.8925e-003
16514	16.249	3.8182	5.e-002	4.6305
16515	16.526	3.8182	0.	1.0357e-002
16516	16.433	3.7273	0.	9.557e-003
16517	16.433	3.8182	5.e-002	4.604
16518	16.71	3.8182	0.	1.2649e-002
16519	16.618	3.7273	0.	1.0649e-002
16520	16.618	3.8182	5.e-002	4.5784
16521	16.895	3.8182	0.	5.3621e-002
16522	16.802	3.7273	0.	1.3966e-002
16523	16.802	3.8182	5.e-002	4.5538
16524	17.079	3.8182	0.	2.1817
16525	16.987	3.7273	0.	0.74684
16526	16.987	3.8182	5.e-002	4.53
16527	17.264	3.8182	0.	4.47
16528	17.172	3.7273	0.	3.1029
16529	17.172	3.8182	5.e-002	4.5069
16530	17.448	3.8182	0.	6.7024
16531	17.356	3.7273	0.	5.4
16532	17.356	3.8182	5.e-002	4.4845
16533	17.633	3.8182	0.	8.892
16534	17.541	3.7273	0.	7.6462
16535	17.541	3.8182	5.e-002	4.4628
16536	17.817	3.8182	0.	11.052
16537	17.725	3.7273	0.	9.8555
16538	17.725	3.8182	5.e-002	4.4418
16539	18.002	3.8182	0.	13.198
16540	17.91	3.7273	0.	12.042
16541	17.91	3.8182	5.e-002	4.4213
16542	18.187	3.8182	0.	15.341
16543	18.094	3.7273	0.	14.22
16544	18.094	3.8182	5.e-002	4.4015
16545	18.371	3.8182	0.	17.497
16546	18.279	3.7273	0.	16.404
16547	18.279	3.8182	5.e-002	4.3823
16548	18.556	3.8182	0.	19.678
16549	18.463	3.7273	0.	18.607
16550	18.463	3.8182	5.e-002	4.3637
16551	18.74	3.8182	0.	21.899
16552	18.648	3.7273	0.	20.843
16553	18.648	3.8182	5.e-002	4.3457
16554	18.925	3.8182	0.	24.174
16555	18.833	3.7273	0.	23.128
16556	18.833	3.8182	5.e-002	4.3284
16557	19.109	3.8182	0.	26.516
16558	19.017	3.7273	0.	25.474
16559	19.017	3.8182	5.e-002	4.3117
16560	19.294	3.8182	0.	28.941
16561	19.202	3.7273	0.	27.897
16562	19.202	3.8182	5.e-002	4.2957
16563	19.478	3.8182	0.	31.463
16564	19.386	3.7273	0.	30.412
16565	19.386	3.8182	5.e-002	4.2805
16566	19.663	3.8182	0.	34.098
16567	19.571	3.7273	0.	33.036
16568	19.571	3.8182	5.e-002	4.266
16569	19.848	3.8182	0.	36.864
16570	19.755	3.7273	0.	35.783
16571	19.755	3.8182	5.e-002	4.2524
16572	20.032	3.8182	0.	39.776
16573	19.94	3.7273	0.	38.672
16574	19.94	3.8182	5.e-002	4.2396
16575	20.217	3.8182	0.	42.852
16576	20.124	3.7273	0.	41.719
16577	20.124	3.8182	5.e-002	4.2278
16578	20.401	3.8182	0.	46.112
16579	20.309	3.7273	0.	44.944
16580	20.309	3.8182	5.e-002	4.2171
16581	20.586	3.8182	0.	49.574
16582	20.493	3.7273	0.	48.366
16583	20.493	3.8182	5.e-002	4.2075
16584	20.77	3.8182	0.	53.26
16585	20.678	3.7273	0.	52.005
16586	20.678	3.8182	5.e-002	4.1992
16587	20.955	3.8182	0.	57.191
16588	20.863	3.7273	0.	55.883
16589	20.863	3.8182	5.e-002	4.1924
16590	21.139	3.8182	0.	61.39
16591	21.047	3.7273	0.	60.021
16592	21.047	3.8182	5.e-002	4.1871
16593	21.324	3.8182	0.	65.881
16594	21.232	3.7273	0.	64.443
16595	21.232	3.8182	5.e-002	4.1836
16596	21.509	3.8182	0.	70.689
16597	21.416	3.7273	0.	69.173
16598	21.416	3.8182	5.e-002	4.1821
16599	21.693	3.8182	0.	75.839
16600	21.601	3.7273	0.	74.235
16601	21.601	3.8182	5.e-002	4.1829
16602	21.878	3.8182	0.	81.357
16603	21.785	3.7273	0.	79.655
16604	21.785	3.8182	5.e-002	4.1863
16605	22.062	3.8182	0.	87.27
16606	21.97	3.7273	0.	85.459
16607	21.97	3.8182	5.e-002	4.1925
16608	22.247	3.8182	0.	93.605
16609	22.154	3.7273	0.	91.671
16610	22.154	3.8182	5.e-002	4.202
16611	22.431	3.8182	0.	100.39
16612	22.339	3.7273	0.	98.316
16613	22.339	3.8182	5.e-002	4.2151
16614	22.616	3.8182	0.	107.64
16615	22.524	3.7273	0.	105.41
16616	22.524	3.8182	5.e-002	4.2324
16617	22.8	3.8182	0.	115.37
16618	22.708	3.7273	0.	112.99
16619	22.708	3.8182	5.e-002	4.2542
16620	22.985	3.8182	0.	123.62
16621	22.893	3.7273	0.	121.05
16622	22.893	3.8182	5.e-002	4.281
16623	23.17	3.8182	0.	132.38
16624	23.077	3.7273	0.	129.61
16625	23.077	3.8182	5.e-002	4.313
16626	23.354	3.8182	0.	141.65
16627	23.262	3.7273	0.	138.68
16628	23.262	3.8182	5.e-002	4.3505
16629	23.539	3.8182	0.	151.45
16630	23.446	3.7273	0.	148.25
16631	23.446	3.8182	5.e-002	4.3934
16632	23.723	3.8182	0.	161.7
16633	23.631	3.7273	0.	158.36
16634	23.631	3.8182	5.e-002	4.4425
16635	23.815	3.7273	0.	168.78
16636	23.815	3.8182	5.e-002	4.5165
16637	23.908	3.8182	0.	171.79
16638	9.1435	3.6364	0.	597.56
16639	9.0512	3.5455	0.	783.52
16640	9.0512	3.6364	5.e-002	148.95
16641	9.328	3.6364	0.	228.52
16642	9.2358	3.5455	0.	383.1
16643	9.2358	3.6364	5.e-002	117.2
16644	9.5126	3.6364	0.	8.6933
16645	9.4203	3.5455	0.	106.18
16646	9.4203	3.6364	5.e-002	84.022
16647	9.6972	3.6364	0.	1.1371
16648	9.6049	3.5455	0.	1.3798
16649	9.6049	3.6364	5.e-002	58.91
16650	9.8817	3.6364	0.	0.99989
16651	9.7894	3.5455	0.	1.1135
16652	9.7894	3.6364	5.e-002	44.855
16653	10.066	3.6364	0.	0.73036
16654	9.974	3.5455	0.	0.80142
16655	9.974	3.6364	5.e-002	35.695
16656	10.251	3.6364	0.	0.55056
16657	10.159	3.5455	0.	0.60848
16658	10.159	3.6364	5.e-002	29.169
16659	10.435	3.6364	0.	0.42117
16660	10.343	3.5455	0.	0.46344
16661	10.343	3.6364	5.e-002	24.253
16662	10.62	3.6364	0.	0.32036
16663	10.528	3.5455	0.	0.35073
16664	10.528	3.6364	5.e-002	20.428
16665	10.804	3.6364	0.	0.24367
16666	10.712	3.5455	0.	0.26507
16667	10.712	3.6364	5.e-002	17.398
16668	10.989	3.6364	0.	0.1847
16669	10.897	3.5455	0.	0.19945
16670	10.897	3.6364	5.e-002	14.976
16671	11.174	3.6364	0.	0.13975
16672	11.081	3.5455	0.	0.14977
16673	11.081	3.6364	5.e-002	13.033
16674	11.358	3.6364	0.	0.10557
16675	11.266	3.5455	0.	0.11226
16676	11.266	3.6364	5.e-002	11.469
16677	11.543	3.6364	0.	7.9705e-002
16678	11.45	3.5455	0.	8.4056e-002
16679	11.45	3.6364	5.e-002	10.211
16680	11.727	3.6364	0.	6.0212e-002
16681	11.635	3.5455	0.	6.2939e-002
16682	11.635	3.6364	5.e-002	9.1977
16683	11.912	3.6364	0.	4.5575e-002
16684	11.82	3.5455	0.	4.7196e-002
16685	11.82	3.6364	5.e-002	8.3818
16686	12.096	3.6364	0.	3.4606e-002
16687	12.004	3.5455	0.	3.5486e-002
16688	12.004	3.6364	5.e-002	7.7246
16689	12.281	3.6364	0.	2.643e-002
16690	12.189	3.5455	0.	2.6784e-002
16691	12.189	3.6364	5.e-002	7.1946
16692	12.465	3.6364	0.	2.0384e-002
16693	12.373	3.5455	0.	2.0399e-002
16694	12.373	3.6364	5.e-002	6.7664
16695	12.65	3.6364	0.	1.5931e-002
16696	12.558	3.5455	0.	1.5734e-002
16697	12.558	3.6364	5.e-002	6.4195
16698	12.835	3.6364	0.	1.2669e-002
16699	12.742	3.5455	0.	1.2344e-002
16700	12.742	3.6364	5.e-002	6.1375
16701	13.019	3.6364	0.	1.0309e-002
16702	12.927	3.5455	0.	9.9057e-003
16703	12.927	3.6364	5.e-002	5.9071
16704	13.204	3.6364	0.	8.6454e-003
16705	13.111	3.5455	0.	8.1928e-003
16706	13.111	3.6364	5.e-002	5.7178
16707	13.388	3.6364	0.	7.4928e-003
16708	13.296	3.5455	0.	7.0431e-003
16709	13.296	3.6364	5.e-002	5.5611
16710	13.573	3.6364	0.	6.7065e-003
16711	13.48	3.5455	0.	6.2664e-003
16712	13.48	3.6364	5.e-002	5.4303
16713	13.757	3.6364	0.	6.2085e-003
16714	13.665	3.5455	0.	5.7813e-003
16715	13.665	3.6364	5.e-002	5.3203
16716	13.942	3.6364	0.	5.9295e-003
16717	13.85	3.5455	0.	5.5265e-003
16718	13.85	3.6364	5.e-002	5.2267
16719	14.126	3.6364	0.	5.8043e-003
16720	14.034	3.5455	0.	5.4346e-003
16721	14.034	3.6364	5.e-002	5.1463
16722	14.311	3.6364	0.	5.7958e-003
16723	14.219	3.5455	0.	5.4504e-003
16724	14.219	3.6364	5.e-002	5.0764
16725	14.496	3.6364	0.	5.8904e-003
16726	14.403	3.5455	0.	5.5609e-003
16727	14.403	3.6364	5.e-002	5.0151
16728	14.68	3.6364	0.	6.0503e-003
16729	14.588	3.5455	0.	5.7579e-003
16730	14.588	3.6364	5.e-002	4.9606
16731	14.865	3.6364	0.	6.2461e-003
16732	14.772	3.5455	0.	5.9787e-003
16733	14.772	3.6364	5.e-002	4.9117
16734	15.049	3.6364	0.	6.4836e-003
16735	14.957	3.5455	0.	6.2302e-003
16736	14.957	3.6364	5.e-002	4.8674
16737	15.234	3.6364	0.	6.7575e-003
16738	15.141	3.5455	0.	6.5192e-003
16739	15.141	3.6364	5.e-002	4.8268
16740	15.418	3.6364	0.	7.0522e-003
16741	15.326	3.5455	0.	6.8287e-003
16742	15.326	3.6364	5.e-002	4.7892
16743	15.603	3.6364	0.	7.3696e-003
16744	15.511	3.5455	0.	7.1478e-003
16745	15.511	3.6364	5.e-002	4.7543
16746	15.787	3.6364	0.	7.7263e-003
16747	15.695	3.5455	0.	7.4905e-003
16748	15.695	3.6364	5.e-002	4.7215
16749	15.972	3.6364	0.	8.1151e-003
16750	15.88	3.5455	0.	7.8741e-003
16751	15.88	3.6364	5.e-002	4.6905
16752	16.157	3.6364	0.	8.5393e-003
16753	16.064	3.5455	0.	8.2656e-003
16754	16.064	3.6364	5.e-002	4.6611
16755	16.341	3.6364	0.	9.047e-003
16756	16.249	3.5455	0.	8.6953e-003
16757	16.249	3.6364	5.e-002	4.6331
16758	16.526	3.6364	0.	9.7314e-003
16759	16.433	3.5455	0.	9.2147e-003
16760	16.433	3.6364	5.e-002	4.6062
16761	16.71	3.6364	0.	1.0968e-002
16762	16.618	3.5455	0.	9.9272e-003
16763	16.618	3.6364	5.e-002	4.5804
16764	16.895	3.6364	0.	1.7862e-002
16765	16.802	3.5455	0.	1.1469e-002
16766	16.802	3.6364	5.e-002	4.5556
16767	17.079	3.6364	0.	1.6888
16768	16.987	3.5455	0.	0.28457
16769	16.987	3.6364	5.e-002	4.5316
16770	17.264	3.6364	0.	4.0597
16771	17.172	3.5455	0.	2.7074
16772	17.172	3.6364	5.e-002	4.5084
16773	17.448	3.6364	0.	6.3716
16774	17.356	3.5455	0.	5.076
16775	17.356	3.6364	5.e-002	4.4859
16776	17.633	3.6364	0.	8.6384
16777	17.541	3.5455	0.	7.3911
16778	17.541	3.6364	5.e-002	4.4641
16779	17.817	3.6364	0.	10.875
16780	17.725	3.5455	0.	9.6678
16781	17.725	3.6364	5.e-002	4.443
16782	18.002	3.6364	0.	13.095
16783	17.91	3.5455	0.	11.921
16784	17.91	3.6364	5.e-002	4.4225
16785	18.187	3.6364	0.	15.314
16786	18.094	3.5455	0.	14.165
16787	18.094	3.6364	5.e-002	4.4026
16788	18.371	3.6364	0.	17.545
16789	18.279	3.5455	0.	16.415
16790	18.279	3.6364	5.e-002	4.3834
16791	18.556	3.6364	0.	19.804
16792	18.463	3.5455	0.	18.685
16793	18.463	3.6364	5.e-002	4.3648
16794	18.74	3.6364	0.	22.104
16795	18.648	3.5455	0.	20.991
16796	18.648	3.6364	5.e-002	4.3468
16797	18.925	3.6364	0.	24.461
16798	18.833	3.5455	0.	23.346
16799	18.833	3.6364	5.e-002	4.3295
16800	19.109	3.6364	0.	26.888
16801	19.017	3.5455	0.	25.766
16802	19.017	3.6364	5.e-002	4.3128
16803	19.294	3.6364	0.	29.402
16804	19.202	3.5455	0.	28.266
16805	19.202	3.6364	5.e-002	4.2969
16806	19.478	3.6364	0.	32.019
16807	19.386	3.5455	0.	30.862
16808	19.386	3.6364	5.e-002	4.2817
16809	19.663	3.6364	0.	34.754
16810	19.571	3.5455	0.	33.57
16811	19.571	3.6364	5.e-002	4.2672
16812	19.848	3.6364	0.	37.625
16813	19.755	3.5455	0.	36.408
16814	19.755	3.6364	5.e-002	4.2537
16815	20.032	3.6364	0.	40.65
16816	19.94	3.5455	0.	39.393
16817	19.94	3.6364	5.e-002	4.241
16818	20.217	3.6364	0.	43.846
16819	20.124	3.5455	0.	42.542
16820	20.124	3.6364	5.e-002	4.2293
16821	20.401	3.6364	0.	47.233
16822	20.309	3.5455	0.	45.876
16823	20.309	3.6364	5.e-002	4.2188
16824	20.586	3.6364	0.	50.831
16825	20.493	3.5455	0.	49.413
16826	20.493	3.6364	5.e-002	4.2094
16827	20.77	3.6364	0.	54.661
16828	20.678	3.5455	0.	53.175
16829	20.678	3.6364	5.e-002	4.2013
16830	20.955	3.6364	0.	58.744
16831	20.863	3.5455	0.	57.182
16832	20.863	3.6364	5.e-002	4.1947
16833	21.139	3.6364	0.	63.104
16834	21.047	3.5455	0.	61.458
16835	21.047	3.6364	5.e-002	4.1898
16836	21.324	3.6364	0.	67.764
16837	21.232	3.5455	0.	66.024
16838	21.232	3.6364	5.e-002	4.1866
16839	21.509	3.6364	0.	72.748
16840	21.416	3.5455	0.	70.905
16841	21.416	3.6364	5.e-002	4.1856
16842	21.693	3.6364	0.	78.08
16843	21.601	3.5455	0.	76.125
16844	21.601	3.6364	5.e-002	4.1868
16845	21.878	3.6364	0.	83.784
16846	21.785	3.5455	0.	81.706
16847	21.785	3.6364	5.e-002	4.1907
16848	22.062	3.6364	0.	89.885
16849	21.97	3.5455	0.	87.672
16850	21.97	3.6364	5.e-002	4.1975
16851	22.247	3.6364	0.	96.405
16852	22.154	3.5455	0.	94.046
16853	22.154	3.6364	5.e-002	4.2076
16854	22.431	3.6364	0.	103.37
16855	22.339	3.5455	0.	100.85
16856	22.339	3.6364	5.e-002	4.2213
16857	22.616	3.6364	0.	110.79
16858	22.524	3.5455	0.	108.1
16859	22.524	3.6364	5.e-002	4.2391
16860	22.8	3.6364	0.	118.68
16861	22.708	3.5455	0.	115.81
16862	22.708	3.6364	5.e-002	4.2612
16863	22.985	3.6364	0.	127.06
16864	22.893	3.5455	0.	124.
16865	22.893	3.6364	5.e-002	4.288
16866	23.17	3.6364	0.	135.93
16867	23.077	3.5455	0.	132.67
16868	23.077	3.6364	5.e-002	4.3198
16869	23.354	3.6364	0.	145.3
16870	23.262	3.5455	0.	141.83
16871	23.262	3.6364	5.e-002	4.3566
16872	23.539	3.6364	0.	155.16
16873	23.446	3.5455	0.	151.46
16874	23.446	3.6364	5.e-002	4.3982
16875	23.723	3.6364	0.	165.44
16876	23.631	3.5455	0.	161.61
16877	23.631	3.6364	5.e-002	4.4451
16878	23.815	3.5455	0.	172.04
16879	23.815	3.6364	5.e-002	4.5102
16880	23.908	3.6364	0.	175.58
16881	9.1435	3.4545	0.	586.63
16882	9.0512	3.3636	0.	736.21
16883	9.0512	3.4545	5.e-002	83.392
16884	9.328	3.4545	0.	276.6
16885	9.2358	3.3636	0.	422.63
16886	9.2358	3.4545	5.e-002	88.273
16887	9.5126	3.4545	0.	37.837
16888	9.4203	3.3636	0.	148.09
16889	9.4203	3.4545	5.e-002	73.061
16890	9.6972	3.4545	0.	1.3489
16891	9.6049	3.3636	0.	1.7792
16892	9.6049	3.4545	5.e-002	58.711
16893	9.8817	3.4545	0.	0.95375
16894	9.7894	3.3636	0.	1.0944
16895	9.7894	3.4545	5.e-002	47.019
16896	10.066	3.4545	0.	0.70469
16897	9.974	3.3636	0.	0.81754
16898	9.974	3.4545	5.e-002	38.156
16899	10.251	3.4545	0.	0.53781
16900	10.159	3.3636	0.	0.62268
16901	10.159	3.4545	5.e-002	31.354
16902	10.435	3.4545	0.	0.4041
16903	10.343	3.3636	0.	0.46486
16904	10.343	3.4545	5.e-002	26.039
16905	10.62	3.4545	0.	0.30317
16906	10.528	3.3636	0.	0.34552
16907	10.528	3.4545	5.e-002	21.835
16908	10.804	3.4545	0.	0.22636
16909	10.712	3.3636	0.	0.25534
16910	10.712	3.4545	5.e-002	18.492
16911	10.989	3.4545	0.	0.16851
16912	10.897	3.3636	0.	0.18813
16913	10.897	3.4545	5.e-002	15.824
16914	11.174	3.4545	0.	0.12521
16915	11.081	3.3636	0.	0.13837
16916	11.081	3.4545	5.e-002	13.691
16917	11.358	3.4545	0.	9.2916e-002
16918	11.266	3.3636	0.	0.10168
16919	11.266	3.4545	5.e-002	11.984
16920	11.543	3.4545	0.	6.8917e-002
16921	11.45	3.3636	0.	7.4681e-002
16922	11.45	3.4545	5.e-002	10.617
16923	11.727	3.4545	0.	5.1147e-002
16924	11.635	3.3636	0.	5.4862e-002
16925	11.635	3.4545	5.e-002	9.5201
16926	11.912	3.4545	0.	3.8031e-002
16927	11.82	3.3636	0.	4.0361e-002
16928	11.82	3.4545	5.e-002	8.6396
16929	12.096	3.4545	0.	2.8366e-002
16930	12.004	3.3636	0.	2.9768e-002
16931	12.004	3.4545	5.e-002	7.9319
16932	12.281	3.4545	0.	2.1288e-002
16933	12.189	3.3636	0.	2.2037e-002
16934	12.189	3.4545	5.e-002	7.3618
16935	12.465	3.4545	0.	1.6157e-002
16936	12.373	3.3636	0.	1.6476e-002
16937	12.373	3.4545	5.e-002	6.9016
16938	12.65	3.4545	0.	1.2459e-002
16939	12.558	3.3636	0.	1.2501e-002
16940	12.558	3.4545	5.e-002	6.529
16941	12.835	3.4545	0.	9.8196e-003
16942	12.742	3.3636	0.	9.6838e-003
16943	12.742	3.4545	5.e-002	6.2262
16944	13.019	3.4545	0.	7.9726e-003
16945	12.927	3.3636	0.	7.7196e-003
16946	12.927	3.4545	5.e-002	5.9789
16947	13.204	3.4545	0.	6.7308e-003
16948	13.111	3.3636	0.	6.3978e-003
16949	13.111	3.4545	5.e-002	5.7757
16950	13.388	3.4545	0.	5.924e-003
16951	13.296	3.3636	0.	5.5718e-003
16952	13.296	3.4545	5.e-002	5.6079
16953	13.573	3.4545	0.	5.423e-003
16954	13.48	3.3636	0.	5.0613e-003
16955	13.48	3.4545	5.e-002	5.4681
16956	13.757	3.4545	0.	5.1612e-003
16957	13.665	3.3636	0.	4.7952e-003
16958	13.665	3.4545	5.e-002	5.3507
16959	13.942	3.4545	0.	5.0779e-003
16960	13.85	3.3636	0.	4.7227e-003
16961	13.85	3.4545	5.e-002	5.2512
16962	14.126	3.4545	0.	5.1147e-003
16963	14.034	3.3636	0.	4.781e-003
16964	14.034	3.4545	5.e-002	5.1661
16965	14.311	3.4545	0.	5.2398e-003
16966	14.219	3.3636	0.	4.9229e-003
16967	14.219	3.4545	5.e-002	5.0924
16968	14.496	3.4545	0.	5.4449e-003
16969	14.403	3.3636	0.	5.136e-003
16970	14.403	3.4545	5.e-002	5.028
16971	14.68	3.4545	0.	5.6967e-003
16972	14.588	3.3636	0.	5.4191e-003
16973	14.588	3.4545	5.e-002	4.971
16974	14.865	3.4545	0.	5.9684e-003
16975	14.772	3.3636	0.	5.7109e-003
16976	14.772	3.4545	5.e-002	4.9202
16977	15.049	3.4545	0.	6.2675e-003
16978	14.957	3.3636	0.	6.021e-003
16979	14.957	3.4545	5.e-002	4.8743
16980	15.234	3.4545	0.	6.589e-003
16981	15.141	3.3636	0.	6.355e-003
16982	15.141	3.4545	5.e-002	4.8324
16983	15.418	3.4545	0.	6.9206e-003
16984	15.326	3.3636	0.	6.7016e-003
16985	15.326	3.4545	5.e-002	4.7939
16986	15.603	3.4545	0.	7.2632e-003
16987	15.511	3.3636	0.	7.0476e-003
16988	15.511	3.4545	5.e-002	4.7581
16989	15.787	3.4545	0.	7.6315e-003
16990	15.695	3.3636	0.	7.4066e-003
16991	15.695	3.4545	5.e-002	4.7247
16992	15.972	3.4545	0.	8.0167e-003
16993	15.88	3.3636	0.	7.7944e-003
16994	15.88	3.4545	5.e-002	4.6932
16995	16.157	3.4545	0.	8.4121e-003
16996	16.064	3.3636	0.	8.1766e-003
16997	16.064	3.4545	5.e-002	4.6634
16998	16.341	3.4545	0.	8.848e-003
16999	16.249	3.3636	0.	8.571e-003
17000	16.249	3.4545	5.e-002	4.6351
17001	16.526	3.4545	0.	9.3665e-003
17002	16.433	3.3636	0.	9.0101e-003
17003	16.433	3.4545	5.e-002	4.608
17004	16.71	3.4545	0.	1.0113e-002
17005	16.618	3.3636	0.	9.5244e-003
17006	16.618	3.4545	5.e-002	4.5819
17007	16.895	3.4545	0.	1.2453e-002
17008	16.802	3.3636	0.	1.0334e-002
17009	16.802	3.4545	5.e-002	4.5569
17010	17.079	3.4545	0.	1.3161
17011	16.987	3.3636	0.	3.1909e-002
17012	16.987	3.4545	5.e-002	4.5328
17013	17.264	3.4545	0.	3.7505
17014	17.172	3.3636	0.	2.4234
17015	17.172	3.4545	5.e-002	4.5095
17016	17.448	3.4545	0.	6.1232
17017	17.356	3.3636	0.	4.844
17018	17.356	3.4545	5.e-002	4.4869
17019	17.633	3.4545	0.	8.4489
17020	17.541	3.3636	0.	7.2091
17021	17.541	3.4545	5.e-002	4.4651
17022	17.817	3.4545	0.	10.743
17023	17.725	3.3636	0.	9.5345
17024	17.725	3.4545	5.e-002	4.4439
17025	18.002	3.4545	0.	13.021
17026	17.91	3.3636	0.	11.836
17027	17.91	3.4545	5.e-002	4.4234
17028	18.187	3.4545	0.	15.297
17029	18.094	3.3636	0.	14.128
17030	18.094	3.4545	5.e-002	4.4035
17031	18.371	3.4545	0.	17.586
17032	18.279	3.3636	0.	16.426
17033	18.279	3.4545	5.e-002	4.3842
17034	18.556	3.4545	0.	19.903
17035	18.463	3.3636	0.	18.745
17036	18.463	3.4545	5.e-002	4.3656
17037	18.74	3.4545	0.	22.264
17038	18.648	3.3636	0.	21.1
17039	18.648	3.4545	5.e-002	4.3476
17040	18.925	3.4545	0.	24.683
17041	18.833	3.3636	0.	23.506
17042	18.833	3.4545	5.e-002	4.3303
17043	19.109	3.4545	0.	27.176
17044	19.017	3.3636	0.	25.979
17045	19.017	3.4545	5.e-002	4.3137
17046	19.294	3.4545	0.	29.758
17047	19.202	3.3636	0.	28.535
17048	19.202	3.4545	5.e-002	4.2977
17049	19.478	3.4545	0.	32.446
17050	19.386	3.3636	0.	31.19
17051	19.386	3.4545	5.e-002	4.2825
17052	19.663	3.4545	0.	35.258
17053	19.571	3.3636	0.	33.96
17054	19.571	3.4545	5.e-002	4.2682
17055	19.848	3.4545	0.	38.209
17056	19.755	3.3636	0.	36.863
17057	19.755	3.4545	5.e-002	4.2547
17058	20.032	3.4545	0.	41.319
17059	19.94	3.3636	0.	39.917
17060	19.94	3.4545	5.e-002	4.2421
17061	20.217	3.4545	0.	44.605
17062	20.124	3.3636	0.	43.14
17063	20.124	3.4545	5.e-002	4.2305
17064	20.401	3.4545	0.	48.089
17065	20.309	3.3636	0.	46.552
17066	20.309	3.4545	5.e-002	4.22
17067	20.586	3.4545	0.	51.789
17068	20.493	3.3636	0.	50.172
17069	20.493	3.4545	5.e-002	4.2108
17070	20.77	3.4545	0.	55.728
17071	20.678	3.3636	0.	54.022
17072	20.678	3.4545	5.e-002	4.2029
17073	20.955	3.4545	0.	59.927
17074	20.863	3.3636	0.	58.123
17075	20.863	3.4545	5.e-002	4.1965
17076	21.139	3.4545	0.	64.408
17077	21.047	3.3636	0.	62.497
17078	21.047	3.4545	5.e-002	4.1918
17079	21.324	3.4545	0.	69.195
17080	21.232	3.3636	0.	67.167
17081	21.232	3.4545	5.e-002	4.1889
17082	21.509	3.4545	0.	74.31
17083	21.416	3.3636	0.	72.156
17084	21.416	3.4545	5.e-002	4.1882
17085	21.693	3.4545	0.	79.777
17086	21.601	3.3636	0.	77.486
17087	21.601	3.4545	5.e-002	4.1898
17088	21.878	3.4545	0.	85.618
17089	21.785	3.3636	0.	83.18
17090	21.785	3.4545	5.e-002	4.1941
17091	22.062	3.4545	0.	91.857
17092	21.97	3.3636	0.	89.261
17093	21.97	3.4545	5.e-002	4.2013
17094	22.247	3.4545	0.	98.512
17095	22.154	3.3636	0.	95.749
17096	22.154	3.4545	5.e-002	4.2118
17097	22.431	3.4545	0.	105.6
17098	22.339	3.3636	0.	102.66
17099	22.339	3.4545	5.e-002	4.2259
17100	22.616	3.4545	0.	113.15
17101	22.524	3.3636	0.	110.02
17102	22.524	3.4545	5.e-002	4.244
17103	22.8	3.4545	0.	121.15
17104	22.708	3.3636	0.	117.83
17105	22.708	3.4545	5.e-002	4.2664
17106	22.985	3.4545	0.	129.63
17107	22.893	3.3636	0.	126.1
17108	22.893	3.4545	5.e-002	4.2932
17109	23.17	3.4545	0.	138.58
17110	23.077	3.3636	0.	134.85
17111	23.077	3.4545	5.e-002	4.3247
17112	23.354	3.4545	0.	148.01
17113	23.262	3.3636	0.	144.07
17114	23.262	3.4545	5.e-002	4.3609
17115	23.539	3.4545	0.	157.92
17116	23.446	3.3636	0.	153.74
17117	23.446	3.4545	5.e-002	4.4016
17118	23.723	3.4545	0.	168.22
17119	23.631	3.3636	0.	163.92
17120	23.631	3.4545	5.e-002	4.4469
17121	23.815	3.3636	0.	174.36
17122	23.815	3.4545	5.e-002	4.5053
17123	23.908	3.4545	0.	178.4
17124	9.1435	3.2727	0.	581.67
17125	9.0512	3.1818	0.	712.3
17126	9.0512	3.2727	5.e-002	51.307
17127	9.328	3.2727	0.	306.1
17128	9.2358	3.1818	0.	439.5
17129	9.2358	3.2727	5.e-002	64.68
17130	9.5126	3.2727	0.	70.048
17131	9.4203	3.1818	0.	177.65
17132	9.4203	3.2727	5.e-002	63.597
17133	9.6972	3.2727	0.	1.2461
17134	9.6049	3.1818	0.	1.5197
17135	9.6049	3.2727	5.e-002	56.172
17136	9.8817	3.2727	0.	0.95735
17137	9.7894	3.1818	0.	1.0748
17138	9.7894	3.2727	5.e-002	47.55
17139	10.066	3.2727	0.	0.74377
17140	9.974	3.1818	0.	0.85834
17141	9.974	3.2727	5.e-002	39.598
17142	10.251	3.2727	0.	0.55784
17143	10.159	3.1818	0.	0.65032
17144	10.159	3.2727	5.e-002	32.848
17145	10.435	3.2727	0.	0.41302
17146	10.343	3.1818	0.	0.48116
17147	10.343	3.2727	5.e-002	27.315
17148	10.62	3.2727	0.	0.30304
17149	10.528	3.1818	0.	0.35124
17150	10.528	3.2727	5.e-002	22.852
17151	10.804	3.2727	0.	0.22129
17152	10.712	3.1818	0.	0.25473
17153	10.712	3.2727	5.e-002	19.279
17154	10.989	3.2727	0.	0.16121
17155	10.897	3.1818	0.	0.18418
17156	10.897	3.2727	5.e-002	16.428
17157	11.174	3.2727	0.	0.11733
17158	11.081	3.1818	0.	0.13305
17159	11.081	3.2727	5.e-002	14.155
17160	11.358	3.2727	0.	8.5359e-002
17161	11.266	3.1818	0.	9.6099e-002
17162	11.266	3.2727	5.e-002	12.342
17163	11.543	3.2727	0.	6.2098e-002
17164	11.45	3.1818	0.	6.9405e-002
17165	11.45	3.2727	5.e-002	10.896
17166	11.727	3.2727	0.	4.521e-002
17167	11.635	3.1818	0.	5.0143e-002
17168	11.635	3.2727	5.e-002	9.7397
17169	11.912	3.2727	0.	3.2971e-002
17170	11.82	3.1818	0.	3.6273e-002
17171	11.82	3.2727	5.e-002	8.814
17172	12.096	3.2727	0.	2.4113e-002
17173	12.004	3.1818	0.	2.6296e-002
17174	12.004	3.2727	5.e-002	8.0714
17175	12.281	3.2727	0.	1.7745e-002
17176	12.189	3.1818	0.	1.9124e-002
17177	12.189	3.2727	5.e-002	7.474
17178	12.465	3.2727	0.	1.3221e-002
17179	12.373	3.1818	0.	1.405e-002
17180	12.373	3.2727	5.e-002	6.9922
17181	12.65	3.2727	0.	1.0035e-002
17182	12.558	3.1818	0.	1.0492e-002
17183	12.558	3.2727	5.e-002	6.6023
17184	12.835	3.2727	0.	7.8233e-003
17185	12.742	3.1818	0.	8.0252e-003
17186	12.742	3.2727	5.e-002	6.2856
17187	13.019	3.2727	0.	6.3298e-003
17188	12.927	3.1818	0.	6.3531e-003
17189	12.927	3.2727	5.e-002	6.027
17190	13.204	3.2727	0.	5.3815e-003
17191	13.111	3.1818	0.	5.2734e-003
17192	13.111	3.2727	5.e-002	5.8147
17193	13.388	3.2727	0.	4.8189e-003
17194	13.296	3.1818	0.	4.6487e-003
17195	13.296	3.2727	5.e-002	5.6394
17196	13.573	3.2727	0.	4.5178e-003
17197	13.48	3.1818	0.	4.3048e-003
17198	13.48	3.2727	5.e-002	5.4936
17199	13.757	3.2727	0.	4.4209e-003
17200	13.665	3.1818	0.	4.1763e-003
17201	13.665	3.2727	5.e-002	5.3713
17202	13.942	3.2727	0.	4.4742e-003
17203	13.85	3.1818	0.	4.2175e-003
17204	13.85	3.2727	5.e-002	5.2678
17205	14.126	3.2727	0.	4.6252e-003
17206	14.034	3.1818	0.	4.3696e-003
17207	14.034	3.2727	5.e-002	5.1794
17208	14.311	3.2727	0.	4.8453e-003
17209	14.219	3.1818	0.	4.5905e-003
17210	14.219	3.2727	5.e-002	5.1032
17211	14.496	3.2727	0.	5.1285e-003
17212	14.403	3.1818	0.	4.8685e-003
17213	14.403	3.2727	5.e-002	5.0367
17214	14.68	3.2727	0.	5.4455e-003
17215	14.588	3.1818	0.	5.2053e-003
17216	14.588	3.2727	5.e-002	4.9781
17217	14.865	3.2727	0.	5.7707e-003
17218	14.772	3.1818	0.	5.5417e-003
17219	14.772	3.2727	5.e-002	4.9259
17220	15.049	3.2727	0.	6.1119e-003
17221	14.957	3.1818	0.	5.8879e-003
17222	14.957	3.2727	5.e-002	4.879
17223	15.234	3.2727	0.	6.468e-003
17224	15.141	3.1818	0.	6.2508e-003
17225	15.141	3.2727	5.e-002	4.8362
17226	15.418	3.2727	0.	6.8269e-003
17227	15.326	3.1818	0.	6.6212e-003
17228	15.326	3.2727	5.e-002	4.797
17229	15.603	3.2727	0.	7.1878e-003
17230	15.511	3.1818	0.	6.9842e-003
17231	15.511	3.2727	5.e-002	4.7608
17232	15.787	3.2727	0.	7.5655e-003
17233	15.695	3.1818	0.	7.3539e-003
17234	15.695	3.2727	5.e-002	4.7269
17235	15.972	3.2727	0.	7.9502e-003
17236	15.88	3.1818	0.	7.7471e-003
17237	15.88	3.2727	5.e-002	4.6951
17238	16.157	3.2727	0.	8.332e-003
17239	16.064	3.1818	0.	8.1241e-003
17240	16.064	3.2727	5.e-002	4.665
17241	16.341	3.2727	0.	8.7303e-003
17242	16.249	3.1818	0.	8.5014e-003
17243	16.249	3.2727	5.e-002	4.6364
17244	16.526	3.2727	0.	9.1606e-003
17245	16.433	3.1818	0.	8.8999e-003
17246	16.433	3.2727	5.e-002	4.6091
17247	16.71	3.2727	0.	9.6676e-003
17248	16.618	3.1818	0.	9.317e-003
17249	16.618	3.2727	5.e-002	4.583
17250	16.895	3.2727	0.	1.0602e-002
17251	16.802	3.1818	0.	9.809e-003
17252	16.802	3.2727	5.e-002	4.5578
17253	17.079	3.2727	0.	1.0657
17254	16.987	3.1818	0.	1.2011e-002
17255	16.987	3.2727	5.e-002	4.5336
17256	17.264	3.2727	0.	3.5436
17257	17.172	3.1818	0.	2.2523
17258	17.172	3.2727	5.e-002	4.5103
17259	17.448	3.2727	0.	5.9574
17260	17.356	3.1818	0.	4.7045
17261	17.356	3.2727	5.e-002	4.4876
17262	17.633	3.2727	0.	8.3229
17263	17.541	3.1818	0.	7.0999
17264	17.541	3.2727	5.e-002	4.4657
17265	17.817	3.2727	0.	10.656
17266	17.725	3.1818	0.	9.4548
17267	17.725	3.2727	5.e-002	4.4445
17268	18.002	3.2727	0.	12.972
17269	17.91	3.1818	0.	11.785
17270	17.91	3.2727	5.e-002	4.4239
17271	18.187	3.2727	0.	15.287
17272	18.094	3.1818	0.	14.106
17273	18.094	3.2727	5.e-002	4.404
17274	18.371	3.2727	0.	17.615
17275	18.279	3.1818	0.	16.433
17276	18.279	3.2727	5.e-002	4.3848
17277	18.556	3.2727	0.	19.972
17278	18.463	3.1818	0.	18.782
17279	18.463	3.2727	5.e-002	4.3661
17280	18.74	3.2727	0.	22.373
17281	18.648	3.1818	0.	21.167
17282	18.648	3.2727	5.e-002	4.3481
17283	18.925	3.2727	0.	24.835
17284	18.833	3.1818	0.	23.604
17285	18.833	3.2727	5.e-002	4.3308
17286	19.109	3.2727	0.	27.371
17287	19.017	3.1818	0.	26.11
17288	19.017	3.2727	5.e-002	4.3142
17289	19.294	3.2727	0.	30.
17290	19.202	3.1818	0.	28.699
17291	19.202	3.2727	5.e-002	4.2983
17292	19.478	3.2727	0.	32.736
17293	19.386	3.1818	0.	31.39
17294	19.386	3.2727	5.e-002	4.2831
17295	19.663	3.2727	0.	35.598
17296	19.571	3.1818	0.	34.197
17297	19.571	3.2727	5.e-002	4.2688
17298	19.848	3.2727	0.	38.604
17299	19.755	3.1818	0.	37.14
17300	19.755	3.2727	5.e-002	4.2553
17301	20.032	3.2727	0.	41.771
17302	19.94	3.1818	0.	40.235
17303	19.94	3.2727	5.e-002	4.2428
17304	20.217	3.2727	0.	45.119
17305	20.124	3.1818	0.	43.503
17306	20.124	3.2727	5.e-002	4.2313
17307	20.401	3.2727	0.	48.667
17308	20.309	3.1818	0.	46.962
17309	20.309	3.2727	5.e-002	4.2209
17310	20.586	3.2727	0.	52.436
17311	20.493	3.1818	0.	50.632
17312	20.493	3.2727	5.e-002	4.2117
17313	20.77	3.2727	0.	56.448
17314	20.678	3.1818	0.	54.535
17315	20.678	3.2727	5.e-002	4.2039
17316	20.955	3.2727	0.	60.723
17317	20.863	3.1818	0.	58.692
17318	20.863	3.2727	5.e-002	4.1977
17319	21.139	3.2727	0.	65.285
17320	21.047	3.1818	0.	63.126
17321	21.047	3.2727	5.e-002	4.1931
17322	21.324	3.2727	0.	70.156
17323	21.232	3.1818	0.	67.858
17324	21.232	3.2727	5.e-002	4.1905
17325	21.509	3.2727	0.	75.358
17326	21.416	3.1818	0.	72.911
17327	21.416	3.2727	5.e-002	4.19
17328	21.693	3.2727	0.	80.915
17329	21.601	3.1818	0.	78.307
17330	21.601	3.2727	5.e-002	4.1918
17331	21.878	3.2727	0.	86.847
17332	21.785	3.1818	0.	84.069
17333	21.785	3.2727	5.e-002	4.1964
17334	22.062	3.2727	0.	93.176
17335	21.97	3.1818	0.	90.218
17336	21.97	3.2727	5.e-002	4.2039
17337	22.247	3.2727	0.	99.919
17338	22.154	3.1818	0.	96.773
17339	22.154	3.2727	5.e-002	4.2146
17340	22.431	3.2727	0.	107.1
17341	22.339	3.1818	0.	103.75
17342	22.339	3.2727	5.e-002	4.229
17343	22.616	3.2727	0.	114.72
17344	22.524	3.1818	0.	111.17
17345	22.524	3.2727	5.e-002	4.2473
17346	22.8	3.2727	0.	122.8
17347	22.708	3.1818	0.	119.04
17348	22.708	3.2727	5.e-002	4.2698
17349	22.985	3.2727	0.	131.34
17350	22.893	3.1818	0.	127.36
17351	22.893	3.2727	5.e-002	4.2966
17352	23.17	3.2727	0.	140.34
17353	23.077	3.1818	0.	136.15
17354	23.077	3.2727	5.e-002	4.3279
17355	23.354	3.2727	0.	149.81
17356	23.262	3.1818	0.	145.4
17357	23.262	3.2727	5.e-002	4.3638
17358	23.539	3.2727	0.	159.75
17359	23.446	3.1818	0.	155.1
17360	23.446	3.2727	5.e-002	4.4038
17361	23.723	3.2727	0.	170.06
17362	23.631	3.1818	0.	165.29
17363	23.631	3.2727	5.e-002	4.448
17364	23.815	3.1818	0.	175.73
17365	23.815	3.2727	5.e-002	4.502
17366	23.908	3.2727	0.	180.26
17367	9.1435	3.0909	0.	577.36
17368	9.0512	3.	0.	703.15
17369	9.0512	3.0909	5.e-002	40.23
17370	9.328	3.0909	0.	320.67
17371	9.2358	3.	0.	444.71
17372	9.2358	3.0909	5.e-002	54.435
17373	9.5126	3.0909	0.	88.151
17374	9.4203	3.	0.	187.75
17375	9.4203	3.0909	5.e-002	57.901
17376	9.6972	3.0909	0.	1.119
17377	9.6049	3.	0.	1.1413
17378	9.6049	3.0909	5.e-002	54.209
17379	9.8817	3.0909	0.	0.9708
17380	9.7894	3.	0.	1.0731
17381	9.7894	3.0909	5.e-002	47.465
17382	10.066	3.0909	0.	0.76677
17383	9.974	3.	0.	0.86944
17384	9.974	3.0909	5.e-002	40.205
17385	10.251	3.0909	0.	0.57753
17386	10.159	3.	0.	0.66332
17387	10.159	3.0909	5.e-002	33.586
17388	10.435	3.0909	0.	0.42363
17389	10.343	3.	0.	0.48904
17390	10.343	3.0909	5.e-002	27.977
17391	10.62	3.0909	0.	0.30685
17392	10.528	3.	0.	0.35478
17393	10.528	3.0909	5.e-002	23.386
17394	10.804	3.0909	0.	0.22097
17395	10.712	3.	0.	0.25548
17396	10.712	3.0909	5.e-002	19.692
17397	10.989	3.0909	0.	0.15877
17398	10.897	3.	0.	0.1834
17399	10.897	3.0909	5.e-002	16.743
17400	11.174	3.0909	0.	0.11403
17401	11.081	3.	0.	0.13156
17402	11.081	3.0909	5.e-002	14.395
17403	11.358	3.0909	0.	8.1895e-002
17404	11.266	3.	0.	9.4381e-002
17405	11.266	3.0909	5.e-002	12.526
17406	11.543	3.0909	0.	5.8827e-002
17407	11.45	3.	0.	6.7714e-002
17408	11.45	3.0909	5.e-002	11.038
17409	11.727	3.0909	0.	4.2285e-002
17410	11.635	3.	0.	4.8596e-002
17411	11.635	3.0909	5.e-002	9.8511
17412	11.912	3.0909	0.	3.044e-002
17413	11.82	3.	0.	3.4915e-002
17414	11.82	3.0909	5.e-002	8.902
17415	12.096	3.0909	0.	2.1963e-002
17416	12.004	3.	0.	2.5133e-002
17417	12.004	3.0909	5.e-002	8.1415
17418	12.281	3.0909	0.	1.594e-002
17419	12.189	3.	0.	1.8143e-002
17420	12.189	3.0909	5.e-002	7.5303
17421	12.465	3.0909	0.	1.1718e-002
17422	12.373	3.	0.	1.323e-002
17423	12.373	3.0909	5.e-002	7.0376
17424	12.65	3.0909	0.	8.7905e-003
17425	12.558	3.	0.	9.8106e-003
17426	12.558	3.0909	5.e-002	6.6391
17427	12.835	3.0909	0.	6.7949e-003
17428	12.742	3.	0.	7.4615e-003
17429	12.742	3.0909	5.e-002	6.3153
17430	13.019	3.0909	0.	5.4829e-003
17431	12.927	3.	0.	5.8879e-003
17432	12.927	3.0909	5.e-002	6.0511
17433	13.204	3.0909	0.	4.6849e-003
17434	13.111	3.	0.	4.8912e-003
17435	13.111	3.0909	5.e-002	5.8342
17436	13.388	3.0909	0.	4.246e-003
17437	13.296	3.	0.	4.3339e-003
17438	13.296	3.0909	5.e-002	5.6552
17439	13.573	3.0909	0.	4.0491e-003
17440	13.48	3.	0.	4.0464e-003
17441	13.48	3.0909	5.e-002	5.5064
17442	13.757	3.0909	0.	4.0386e-003
17443	13.665	3.	0.	3.9652e-003
17444	13.665	3.0909	5.e-002	5.3816
17445	13.942	3.0909	0.	4.1627e-003
17446	13.85	3.	0.	4.0454e-003
17447	13.85	3.0909	5.e-002	5.2762
17448	14.126	3.0909	0.	4.3722e-003
17449	14.034	3.	0.	4.2298e-003
17450	14.034	3.0909	5.e-002	5.1862
17451	14.311	3.0909	0.	4.641e-003
17452	14.219	3.	0.	4.4767e-003
17453	14.219	3.0909	5.e-002	5.1086
17454	14.496	3.0909	0.	4.9646e-003
17455	14.403	3.	0.	4.7771e-003
17456	14.403	3.0909	5.e-002	5.0411
17457	14.68	3.0909	0.	5.3147e-003
17458	14.588	3.	0.	5.1322e-003
17459	14.588	3.0909	5.e-002	4.9817
17460	14.865	3.0909	0.	5.6671e-003
17461	14.772	3.	0.	5.4836e-003
17462	14.772	3.0909	5.e-002	4.9288
17463	15.049	3.0909	0.	6.0313e-003
17464	14.957	3.	0.	5.8418e-003
17465	14.957	3.0909	5.e-002	4.8813
17466	15.234	3.0909	0.	6.4055e-003
17467	15.141	3.	0.	6.2157e-003
17468	15.141	3.0909	5.e-002	4.8382
17469	15.418	3.0909	0.	6.7779e-003
17470	15.326	3.	0.	6.5936e-003
17471	15.326	3.0909	5.e-002	4.7986
17472	15.603	3.0909	0.	7.1485e-003
17473	15.511	3.	0.	6.9622e-003
17474	15.511	3.0909	5.e-002	4.7621
17475	15.787	3.0909	0.	7.533e-003
17476	15.695	3.	0.	7.3361e-003
17477	15.695	3.0909	5.e-002	4.728
17478	15.972	3.0909	0.	7.919e-003
17479	15.88	3.	0.	7.7314e-003
17480	15.88	3.0909	5.e-002	4.696
17481	16.157	3.0909	0.	8.2933e-003
17482	16.064	3.	0.	8.1067e-003
17483	16.064	3.0909	5.e-002	4.6658
17484	16.341	3.0909	0.	8.6746e-003
17485	16.249	3.	0.	8.4794e-003
17486	16.249	3.0909	5.e-002	4.6371
17487	16.526	3.0909	0.	9.0665e-003
17488	16.433	3.	0.	8.8648e-003
17489	16.433	3.0909	5.e-002	4.6097
17490	16.71	3.0909	0.	9.4727e-003
17491	16.618	3.	0.	9.2523e-003
17492	16.618	3.0909	5.e-002	4.5835
17493	16.895	3.0909	0.	9.9289e-003
17494	16.802	3.	0.	9.6539e-003
17495	16.802	3.0909	5.e-002	4.5583
17496	17.079	3.0909	0.	0.93988
17497	16.987	3.	0.	1.006e-002
17498	16.987	3.0909	5.e-002	4.5341
17499	17.264	3.0909	0.	3.4399
17500	17.172	3.	0.	2.1951
17501	17.172	3.0909	5.e-002	4.5106
17502	17.448	3.0909	0.	5.8745
17503	17.356	3.	0.	4.6579
17504	17.356	3.0909	5.e-002	4.488
17505	17.633	3.0909	0.	8.26
17506	17.541	3.	0.	7.0635
17507	17.541	3.0909	5.e-002	4.466
17508	17.817	3.0909	0.	10.613
17509	17.725	3.	0.	9.4284
17510	17.725	3.0909	5.e-002	4.4448
17511	18.002	3.0909	0.	12.948
17512	17.91	3.	0.	11.768
17513	17.91	3.0909	5.e-002	4.4242
17514	18.187	3.0909	0.	15.282
17515	18.094	3.	0.	14.099
17516	18.094	3.0909	5.e-002	4.4043
17517	18.371	3.0909	0.	17.63
17518	18.279	3.	0.	16.436
17519	18.279	3.0909	5.e-002	4.3851
17520	18.556	3.0909	0.	20.007
17521	18.463	3.	0.	18.794
17522	18.463	3.0909	5.e-002	4.3664
17523	18.74	3.0909	0.	22.429
17524	18.648	3.	0.	21.19
17525	18.648	3.0909	5.e-002	4.3484
17526	18.925	3.0909	0.	24.911
17527	18.833	3.	0.	23.637
17528	18.833	3.0909	5.e-002	4.3311
17529	19.109	3.0909	0.	27.47
17530	19.017	3.	0.	26.154
17531	19.017	3.0909	5.e-002	4.3145
17532	19.294	3.0909	0.	30.122
17533	19.202	3.	0.	28.755
17534	19.202	3.0909	5.e-002	4.2986
17535	19.478	3.0909	0.	32.883
17536	19.386	3.	0.	31.457
17537	19.386	3.0909	5.e-002	4.2834
17538	19.663	3.0909	0.	35.771
17539	19.571	3.	0.	34.277
17540	19.571	3.0909	5.e-002	4.2691
17541	19.848	3.0909	0.	38.803
17542	19.755	3.	0.	37.232
17543	19.755	3.0909	5.e-002	4.2557
17544	20.032	3.0909	0.	41.999
17545	19.94	3.	0.	40.342
17546	19.94	3.0909	5.e-002	4.2431
17547	20.217	3.0909	0.	45.377
17548	20.124	3.	0.	43.624
17549	20.124	3.0909	5.e-002	4.2317
17550	20.401	3.0909	0.	48.958
17551	20.309	3.	0.	47.099
17552	20.309	3.0909	5.e-002	4.2213
17553	20.586	3.0909	0.	52.762
17554	20.493	3.	0.	50.786
17555	20.493	3.0909	5.e-002	4.2122
17556	20.77	3.0909	0.	56.81
17557	20.678	3.	0.	54.707
17558	20.678	3.0909	5.e-002	4.2045
17559	20.955	3.0909	0.	61.124
17560	20.863	3.	0.	58.883
17561	20.863	3.0909	5.e-002	4.1983
17562	21.139	3.0909	0.	65.726
17563	21.047	3.	0.	63.336
17564	21.047	3.0909	5.e-002	4.1938
17565	21.324	3.0909	0.	70.639
17566	21.232	3.	0.	68.089
17567	21.232	3.0909	5.e-002	4.1913
17568	21.509	3.0909	0.	75.885
17569	21.416	3.	0.	73.163
17570	21.416	3.0909	5.e-002	4.1909
17571	21.693	3.0909	0.	81.486
17572	21.601	3.	0.	78.582
17573	21.601	3.0909	5.e-002	4.1928
17574	21.878	3.0909	0.	87.463
17575	21.785	3.	0.	84.366
17576	21.785	3.0909	5.e-002	4.1975
17577	22.062	3.0909	0.	93.836
17578	21.97	3.	0.	90.537
17579	21.97	3.0909	5.e-002	4.2051
17580	22.247	3.0909	0.	100.62
17581	22.154	3.	0.	97.114
17582	22.154	3.0909	5.e-002	4.216
17583	22.431	3.0909	0.	107.84
17584	22.339	3.	0.	104.11
17585	22.339	3.0909	5.e-002	4.2306
17586	22.616	3.0909	0.	115.5
17587	22.524	3.	0.	111.55
17588	22.524	3.0909	5.e-002	4.2489
17589	22.8	3.0909	0.	123.62
17590	22.708	3.	0.	119.44
17591	22.708	3.0909	5.e-002	4.2715
17592	22.985	3.0909	0.	132.19
17593	22.893	3.	0.	127.78
17594	22.893	3.0909	5.e-002	4.2983
17595	23.17	3.0909	0.	141.22
17596	23.077	3.	0.	136.58
17597	23.077	3.0909	5.e-002	4.3295
17598	23.354	3.0909	0.	150.7
17599	23.262	3.	0.	145.84
17600	23.262	3.0909	5.e-002	4.3652
17601	23.539	3.0909	0.	160.65
17602	23.446	3.	0.	155.55
17603	23.446	3.0909	5.e-002	4.4049
17604	23.723	3.0909	0.	170.98
17605	23.631	3.	0.	165.75
17606	23.631	3.0909	5.e-002	4.4486
17607	23.815	3.	0.	176.19
17608	23.815	3.0909	5.e-002	4.5004
17609	23.908	3.0909	0.	181.18
17610	9.1435	2.9091	0.	577.36
17611	9.0512	2.8182	0.	712.3
17612	9.0512	2.9091	5.e-002	40.231
17613	9.328	2.9091	0.	320.67
17614	9.2358	2.8182	0.	439.5
17615	9.2358	2.9091	5.e-002	54.435
17616	9.5126	2.9091	0.	88.151
17617	9.4203	2.8182	0.	177.65
17618	9.4203	2.9091	5.e-002	57.901
17619	9.6972	2.9091	0.	1.119
17620	9.6049	2.8182	0.	1.5197
17621	9.6049	2.9091	5.e-002	54.209
17622	9.8817	2.9091	0.	0.9708
17623	9.7894	2.8182	0.	1.0748
17624	9.7894	2.9091	5.e-002	47.465
17625	10.066	2.9091	0.	0.76677
17626	9.974	2.8182	0.	0.85834
17627	9.974	2.9091	5.e-002	40.205
17628	10.251	2.9091	0.	0.57753
17629	10.159	2.8182	0.	0.65032
17630	10.159	2.9091	5.e-002	33.586
17631	10.435	2.9091	0.	0.42363
17632	10.343	2.8182	0.	0.48116
17633	10.343	2.9091	5.e-002	27.977
17634	10.62	2.9091	0.	0.30685
17635	10.528	2.8182	0.	0.35124
17636	10.528	2.9091	5.e-002	23.386
17637	10.804	2.9091	0.	0.22097
17638	10.712	2.8182	0.	0.25473
17639	10.712	2.9091	5.e-002	19.692
17640	10.989	2.9091	0.	0.15877
17641	10.897	2.8182	0.	0.18418
17642	10.897	2.9091	5.e-002	16.743
17643	11.174	2.9091	0.	0.11403
17644	11.081	2.8182	0.	0.13305
17645	11.081	2.9091	5.e-002	14.395
17646	11.358	2.9091	0.	8.1895e-002
17647	11.266	2.8182	0.	9.6098e-002
17648	11.266	2.9091	5.e-002	12.526
17649	11.543	2.9091	0.	5.8827e-002
17650	11.45	2.8182	0.	6.9405e-002
17651	11.45	2.9091	5.e-002	11.038
17652	11.727	2.9091	0.	4.2286e-002
17653	11.635	2.8182	0.	5.0143e-002
17654	11.635	2.9091	5.e-002	9.8511
17655	11.912	2.9091	0.	3.044e-002
17656	11.82	2.8182	0.	3.6273e-002
17657	11.82	2.9091	5.e-002	8.902
17658	12.096	2.9091	0.	2.1963e-002
17659	12.004	2.8182	0.	2.6296e-002
17660	12.004	2.9091	5.e-002	8.1415
17661	12.281	2.9091	0.	1.594e-002
17662	12.189	2.8182	0.	1.9124e-002
17663	12.189	2.9091	5.e-002	7.5303
17664	12.465	2.9091	0.	1.1718e-002
17665	12.373	2.8182	0.	1.405e-002
17666	12.373	2.9091	5.e-002	7.0376
17667	12.65	2.9091	0.	8.79e-003
17668	12.558	2.8182	0.	1.0491e-002
17669	12.558	2.9091	5.e-002	6.6391
17670	12.835	2.9091	0.	6.7945e-003
17671	12.742	2.8182	0.	8.0249e-003
17672	12.742	2.9091	5.e-002	6.3153
17673	13.019	2.9091	0.	5.4827e-003
17674	12.927	2.8182	0.	6.3529e-003
17675	12.927	2.9091	5.e-002	6.0511
17676	13.204	2.9091	0.	4.6849e-003
17677	13.111	2.8182	0.	5.2736e-003
17678	13.111	2.9091	5.e-002	5.8342
17679	13.388	2.9091	0.	4.2463e-003
17680	13.296	2.8182	0.	4.6485e-003
17681	13.296	2.9091	5.e-002	5.6552
17682	13.573	2.9091	0.	4.0489e-003
17683	13.48	2.8182	0.	4.3044e-003
17684	13.48	2.9091	5.e-002	5.5063
17685	13.757	2.9091	0.	4.0382e-003
17686	13.665	2.8182	0.	4.176e-003
17687	13.665	2.9091	5.e-002	5.3816
17688	13.942	2.9091	0.	4.1628e-003
17689	13.85	2.8182	0.	4.2176e-003
17690	13.85	2.9091	5.e-002	5.2762
17691	14.126	2.9091	0.	4.372e-003
17692	14.034	2.8182	0.	4.3704e-003
17693	14.034	2.9091	5.e-002	5.1862
17694	14.311	2.9091	0.	4.6405e-003
17695	14.219	2.8182	0.	4.5899e-003
17696	14.219	2.9091	5.e-002	5.1086
17697	14.496	2.9091	0.	4.9644e-003
17698	14.403	2.8182	0.	4.8685e-003
17699	14.403	2.9091	5.e-002	5.0411
17700	14.68	2.9091	0.	5.3146e-003
17701	14.588	2.8182	0.	5.2053e-003
17702	14.588	2.9091	5.e-002	4.9817
17703	14.865	2.9091	0.	5.6668e-003
17704	14.772	2.8182	0.	5.5418e-003
17705	14.772	2.9091	5.e-002	4.9288
17706	15.049	2.9091	0.	6.0309e-003
17707	14.957	2.8182	0.	5.8867e-003
17708	14.957	2.9091	5.e-002	4.8813
17709	15.234	2.9091	0.	6.4055e-003
17710	15.141	2.8182	0.	6.2516e-003
17711	15.141	2.9091	5.e-002	4.8382
17712	15.418	2.9091	0.	6.7776e-003
17713	15.326	2.8182	0.	6.6208e-003
17714	15.326	2.9091	5.e-002	4.7986
17715	15.603	2.9091	0.	7.1484e-003
17716	15.511	2.8182	0.	6.9841e-003
17717	15.511	2.9091	5.e-002	4.7621
17718	15.787	2.9091	0.	7.5326e-003
17719	15.695	2.8182	0.	7.3541e-003
17720	15.695	2.9091	5.e-002	4.728
17721	15.972	2.9091	0.	7.9179e-003
17722	15.88	2.8182	0.	7.7471e-003
17723	15.88	2.9091	5.e-002	4.696
17724	16.157	2.9091	0.	8.2937e-003
17725	16.064	2.8182	0.	8.1241e-003
17726	16.064	2.9091	5.e-002	4.6658
17727	16.341	2.9091	0.	8.6751e-003
17728	16.249	2.8182	0.	8.5019e-003
17729	16.249	2.9091	5.e-002	4.6371
17730	16.526	2.9091	0.	9.066e-003
17731	16.433	2.8182	0.	8.8998e-003
17732	16.433	2.9091	5.e-002	4.6097
17733	16.71	2.9091	0.	9.4728e-003
17734	16.618	2.8182	0.	9.3165e-003
17735	16.618	2.9091	5.e-002	4.5835
17736	16.895	2.9091	0.	9.929e-003
17737	16.802	2.8182	0.	9.8089e-003
17738	16.802	2.9091	5.e-002	4.5583
17739	17.079	2.9091	0.	0.93988
17740	16.987	2.8182	0.	1.201e-002
17741	16.987	2.9091	5.e-002	4.5341
17742	17.264	2.9091	0.	3.4399
17743	17.172	2.8182	0.	2.2523
17744	17.172	2.9091	5.e-002	4.5106
17745	17.448	2.9091	0.	5.8745
17746	17.356	2.8182	0.	4.7045
17747	17.356	2.9091	5.e-002	4.488
17748	17.633	2.9091	0.	8.26
17749	17.541	2.8182	0.	7.0999
17750	17.541	2.9091	5.e-002	4.466
17751	17.817	2.9091	0.	10.613
17752	17.725	2.8182	0.	9.4548
17753	17.725	2.9091	5.e-002	4.4448
17754	18.002	2.9091	0.	12.948
17755	17.91	2.8182	0.	11.785
17756	17.91	2.9091	5.e-002	4.4242
17757	18.187	2.9091	0.	15.282
17758	18.094	2.8182	0.	14.106
17759	18.094	2.9091	5.e-002	4.4043
17760	18.371	2.9091	0.	17.63
17761	18.279	2.8182	0.	16.433
17762	18.279	2.9091	5.e-002	4.3851
17763	18.556	2.9091	0.	20.007
17764	18.463	2.8182	0.	18.782
17765	18.463	2.9091	5.e-002	4.3664
17766	18.74	2.9091	0.	22.429
17767	18.648	2.8182	0.	21.167
17768	18.648	2.9091	5.e-002	4.3484
17769	18.925	2.9091	0.	24.911
17770	18.833	2.8182	0.	23.604
17771	18.833	2.9091	5.e-002	4.3311
17772	19.109	2.9091	0.	27.47
17773	19.017	2.8182	0.	26.11
17774	19.017	2.9091	5.e-002	4.3145
17775	19.294	2.9091	0.	30.122
17776	19.202	2.8182	0.	28.699
17777	19.202	2.9091	5.e-002	4.2986
17778	19.478	2.9091	0.	32.883
17779	19.386	2.8182	0.	31.39
17780	19.386	2.9091	5.e-002	4.2834
17781	19.663	2.9091	0.	35.771
17782	19.571	2.8182	0.	34.197
17783	19.571	2.9091	5.e-002	4.2691
17784	19.848	2.9091	0.	38.803
17785	19.755	2.8182	0.	37.14
17786	19.755	2.9091	5.e-002	4.2557
17787	20.032	2.9091	0.	41.999
17788	19.94	2.8182	0.	40.235
17789	19.94	2.9091	5.e-002	4.2431
17790	20.217	2.9091	0.	45.377
17791	20.124	2.8182	0.	43.503
17792	20.124	2.9091	5.e-002	4.2317
17793	20.401	2.9091	0.	48.958
17794	20.309	2.8182	0.	46.962
17795	20.309	2.9091	5.e-002	4.2213
17796	20.586	2.9091	0.	52.762
17797	20.493	2.8182	0.	50.632
17798	20.493	2.9091	5.e-002	4.2122
17799	20.77	2.9091	0.	56.81
17800	20.678	2.8182	0.	54.535
17801	20.678	2.9091	5.e-002	4.2045
17802	20.955	2.9091	0.	61.124
17803	20.863	2.8182	0.	58.692
17804	20.863	2.9091	5.e-002	4.1983
17805	21.139	2.9091	0.	65.726
17806	21.047	2.8182	0.	63.126
17807	21.047	2.9091	5.e-002	4.1938
17808	21.324	2.9091	0.	70.639
17809	21.232	2.8182	0.	67.858
17810	21.232	2.9091	5.e-002	4.1913
17811	21.509	2.9091	0.	75.885
17812	21.416	2.8182	0.	72.91
17813	21.416	2.9091	5.e-002	4.1909
17814	21.693	2.9091	0.	81.486
17815	21.601	2.8182	0.	78.307
17816	21.601	2.9091	5.e-002	4.1928
17817	21.878	2.9091	0.	87.463
17818	21.785	2.8182	0.	84.069
17819	21.785	2.9091	5.e-002	4.1975
17820	22.062	2.9091	0.	93.836
17821	21.97	2.8182	0.	90.218
17822	21.97	2.9091	5.e-002	4.2051
17823	22.247	2.9091	0.	100.62
17824	22.154	2.8182	0.	96.773
17825	22.154	2.9091	5.e-002	4.2161
17826	22.431	2.9091	0.	107.84
17827	22.339	2.8182	0.	103.75
17828	22.339	2.9091	5.e-002	4.2306
17829	22.616	2.9091	0.	115.5
17830	22.524	2.8182	0.	111.17
17831	22.524	2.9091	5.e-002	4.2489
17832	22.8	2.9091	0.	123.62
17833	22.708	2.8182	0.	119.04
17834	22.708	2.9091	5.e-002	4.2715
17835	22.985	2.9091	0.	132.19
17836	22.893	2.8182	0.	127.36
17837	22.893	2.9091	5.e-002	4.2983
17838	23.17	2.9091	0.	141.22
17839	23.077	2.8182	0.	136.15
17840	23.077	2.9091	5.e-002	4.3295
17841	23.354	2.9091	0.	150.7
17842	23.262	2.8182	0.	145.4
17843	23.262	2.9091	5.e-002	4.3652
17844	23.539	2.9091	0.	160.65
17845	23.446	2.8182	0.	155.1
17846	23.446	2.9091	5.e-002	4.4049
17847	23.723	2.9091	0.	170.98
17848	23.631	2.8182	0.	165.29
17849	23.631	2.9091	5.e-002	4.4486
17850	23.815	2.8182	0.	175.73
17851	23.815	2.9091	5.e-002	4.5004
17852	23.908	2.9091	0.	181.18
17853	9.1435	2.7273	0.	581.67
17854	9.0512	2.6364	0.	736.21
17855	9.0512	2.7273	5.e-002	51.307
17856	9.328	2.7273	0.	306.1
17857	9.2358	2.6364	0.	422.63
17858	9.2358	2.7273	5.e-002	64.68
17859	9.5126	2.7273	0.	70.048
17860	9.4203	2.6364	0.	148.09
17861	9.4203	2.7273	5.e-002	63.597
17862	9.6972	2.7273	0.	1.2461
17863	9.6049	2.6364	0.	1.7792
17864	9.6049	2.7273	5.e-002	56.172
17865	9.8817	2.7273	0.	0.95735
17866	9.7894	2.6364	0.	1.0944
17867	9.7894	2.7273	5.e-002	47.55
17868	10.066	2.7273	0.	0.74377
17869	9.974	2.6364	0.	0.81754
17870	9.974	2.7273	5.e-002	39.598
17871	10.251	2.7273	0.	0.55784
17872	10.159	2.6364	0.	0.62268
17873	10.159	2.7273	5.e-002	32.848
17874	10.435	2.7273	0.	0.41302
17875	10.343	2.6364	0.	0.46486
17876	10.343	2.7273	5.e-002	27.315
17877	10.62	2.7273	0.	0.30304
17878	10.528	2.6364	0.	0.34552
17879	10.528	2.7273	5.e-002	22.852
17880	10.804	2.7273	0.	0.22129
17881	10.712	2.6364	0.	0.25534
17882	10.712	2.7273	5.e-002	19.279
17883	10.989	2.7273	0.	0.16121
17884	10.897	2.6364	0.	0.18813
17885	10.897	2.7273	5.e-002	16.428
17886	11.174	2.7273	0.	0.11733
17887	11.081	2.6364	0.	0.13837
17888	11.081	2.7273	5.e-002	14.155
17889	11.358	2.7273	0.	8.5359e-002
17890	11.266	2.6364	0.	0.10168
17891	11.266	2.7273	5.e-002	12.342
17892	11.543	2.7273	0.	6.2098e-002
17893	11.45	2.6364	0.	7.4681e-002
17894	11.45	2.7273	5.e-002	10.896
17895	11.727	2.7273	0.	4.5209e-002
17896	11.635	2.6364	0.	5.4862e-002
17897	11.635	2.7273	5.e-002	9.7397
17898	11.912	2.7273	0.	3.2971e-002
17899	11.82	2.6364	0.	4.0361e-002
17900	11.82	2.7273	5.e-002	8.814
17901	12.096	2.7273	0.	2.4113e-002
17902	12.004	2.6364	0.	2.9768e-002
17903	12.004	2.7273	5.e-002	8.0714
17904	12.281	2.7273	0.	1.7745e-002
17905	12.189	2.6364	0.	2.2038e-002
17906	12.189	2.7273	5.e-002	7.474
17907	12.465	2.7273	0.	1.3221e-002
17908	12.373	2.6364	0.	1.6476e-002
17909	12.373	2.7273	5.e-002	6.9922
17910	12.65	2.7273	0.	1.0035e-002
17911	12.558	2.6364	0.	1.2501e-002
17912	12.558	2.7273	5.e-002	6.6023
17913	12.835	2.7273	0.	7.8233e-003
17914	12.742	2.6364	0.	9.6838e-003
17915	12.742	2.7273	5.e-002	6.2856
17916	13.019	2.7273	0.	6.33e-003
17917	12.927	2.6364	0.	7.7199e-003
17918	12.927	2.7273	5.e-002	6.027
17919	13.204	2.7273	0.	5.3814e-003
17920	13.111	2.6364	0.	6.398e-003
17921	13.111	2.7273	5.e-002	5.8147
17922	13.388	2.7273	0.	4.8181e-003
17923	13.296	2.6364	0.	5.5715e-003
17924	13.296	2.7273	5.e-002	5.6394
17925	13.573	2.7273	0.	4.5173e-003
17926	13.48	2.6364	0.	5.0617e-003
17927	13.48	2.7273	5.e-002	5.4936
17928	13.757	2.7273	0.	4.4211e-003
17929	13.665	2.6364	0.	4.7953e-003
17930	13.665	2.7273	5.e-002	5.3713
17931	13.942	2.7273	0.	4.475e-003
17932	13.85	2.6364	0.	4.7229e-003
17933	13.85	2.7273	5.e-002	5.2678
17934	14.126	2.7273	0.	4.6255e-003
17935	14.034	2.6364	0.	4.781e-003
17936	14.034	2.7273	5.e-002	5.1794
17937	14.311	2.7273	0.	4.8451e-003
17938	14.219	2.6364	0.	4.9228e-003
17939	14.219	2.7273	5.e-002	5.1032
17940	14.496	2.7273	0.	5.1287e-003
17941	14.403	2.6364	0.	5.1362e-003
17942	14.403	2.7273	5.e-002	5.0367
17943	14.68	2.7273	0.	5.4456e-003
17944	14.588	2.6364	0.	5.4195e-003
17945	14.588	2.7273	5.e-002	4.9781
17946	14.865	2.7273	0.	5.7699e-003
17947	14.772	2.6364	0.	5.7116e-003
17948	14.772	2.7273	5.e-002	4.9259
17949	15.049	2.7273	0.	6.1119e-003
17950	14.957	2.6364	0.	6.0203e-003
17951	14.957	2.7273	5.e-002	4.879
17952	15.234	2.7273	0.	6.4684e-003
17953	15.141	2.6364	0.	6.3556e-003
17954	15.141	2.7273	5.e-002	4.8362
17955	15.418	2.7273	0.	6.8266e-003
17956	15.326	2.6364	0.	6.7013e-003
17957	15.326	2.7273	5.e-002	4.797
17958	15.603	2.7273	0.	7.1878e-003
17959	15.511	2.6364	0.	7.0479e-003
17960	15.511	2.7273	5.e-002	4.7608
17961	15.787	2.7273	0.	7.5662e-003
17962	15.695	2.6364	0.	7.4066e-003
17963	15.695	2.7273	5.e-002	4.7269
17964	15.972	2.7273	0.	7.9513e-003
17965	15.88	2.6364	0.	7.7955e-003
17966	15.88	2.7273	5.e-002	4.6951
17967	16.157	2.7273	0.	8.3322e-003
17968	16.064	2.6364	0.	8.1761e-003
17969	16.064	2.7273	5.e-002	4.665
17970	16.341	2.7273	0.	8.7303e-003
17971	16.249	2.6364	0.	8.5712e-003
17972	16.249	2.7273	5.e-002	4.6364
17973	16.526	2.7273	0.	9.1605e-003
17974	16.433	2.6364	0.	9.0103e-003
17975	16.433	2.7273	5.e-002	4.6091
17976	16.71	2.7273	0.	9.6669e-003
17977	16.618	2.6364	0.	9.5238e-003
17978	16.618	2.7273	5.e-002	4.583
17979	16.895	2.7273	0.	1.0601e-002
17980	16.802	2.6364	0.	1.0334e-002
17981	16.802	2.7273	5.e-002	4.5579
17982	17.079	2.7273	0.	1.0657
17983	16.987	2.6364	0.	3.1904e-002
17984	16.987	2.7273	5.e-002	4.5336
17985	17.264	2.7273	0.	3.5436
17986	17.172	2.6364	0.	2.4234
17987	17.172	2.7273	5.e-002	4.5103
17988	17.448	2.7273	0.	5.9574
17989	17.356	2.6364	0.	4.844
17990	17.356	2.7273	5.e-002	4.4876
17991	17.633	2.7273	0.	8.3229
17992	17.541	2.6364	0.	7.2091
17993	17.541	2.7273	5.e-002	4.4657
17994	17.817	2.7273	0.	10.656
17995	17.725	2.6364	0.	9.5345
17996	17.725	2.7273	5.e-002	4.4445
17997	18.002	2.7273	0.	12.972
17998	17.91	2.6364	0.	11.836
17999	17.91	2.7273	5.e-002	4.4239
18000	18.187	2.7273	0.	15.287
18001	18.094	2.6364	0.	14.128
18002	18.094	2.7273	5.e-002	4.404
18003	18.371	2.7273	0.	17.615
18004	18.279	2.6364	0.	16.426
18005	18.279	2.7273	5.e-002	4.3848
18006	18.556	2.7273	0.	19.972
18007	18.463	2.6364	0.	18.745
18008	18.463	2.7273	5.e-002	4.3661
18009	18.74	2.7273	0.	22.373
18010	18.648	2.6364	0.	21.1
18011	18.648	2.7273	5.e-002	4.3482
18012	18.925	2.7273	0.	24.835
18013	18.833	2.6364	0.	23.506
18014	18.833	2.7273	5.e-002	4.3308
18015	19.109	2.7273	0.	27.371
18016	19.017	2.6364	0.	25.979
18017	19.017	2.7273	5.e-002	4.3142
18018	19.294	2.7273	0.	30.
18019	19.202	2.6364	0.	28.535
18020	19.202	2.7273	5.e-002	4.2983
18021	19.478	2.7273	0.	32.736
18022	19.386	2.6364	0.	31.19
18023	19.386	2.7273	5.e-002	4.2831
18024	19.663	2.7273	0.	35.598
18025	19.571	2.6364	0.	33.96
18026	19.571	2.7273	5.e-002	4.2688
18027	19.848	2.7273	0.	38.604
18028	19.755	2.6364	0.	36.863
18029	19.755	2.7273	5.e-002	4.2553
18030	20.032	2.7273	0.	41.771
18031	19.94	2.6364	0.	39.917
18032	19.94	2.7273	5.e-002	4.2428
18033	20.217	2.7273	0.	45.119
18034	20.124	2.6364	0.	43.14
18035	20.124	2.7273	5.e-002	4.2313
18036	20.401	2.7273	0.	48.667
18037	20.309	2.6364	0.	46.552
18038	20.309	2.7273	5.e-002	4.2209
18039	20.586	2.7273	0.	52.436
18040	20.493	2.6364	0.	50.172
18041	20.493	2.7273	5.e-002	4.2117
18042	20.77	2.7273	0.	56.448
18043	20.678	2.6364	0.	54.022
18044	20.678	2.7273	5.e-002	4.2039
18045	20.955	2.7273	0.	60.723
18046	20.863	2.6364	0.	58.123
18047	20.863	2.7273	5.e-002	4.1977
18048	21.139	2.7273	0.	65.285
18049	21.047	2.6364	0.	62.497
18050	21.047	2.7273	5.e-002	4.1931
18051	21.324	2.7273	0.	70.156
18052	21.232	2.6364	0.	67.167
18053	21.232	2.7273	5.e-002	4.1905
18054	21.509	2.7273	0.	75.358
18055	21.416	2.6364	0.	72.156
18056	21.416	2.7273	5.e-002	4.19
18057	21.693	2.7273	0.	80.915
18058	21.601	2.6364	0.	77.486
18059	21.601	2.7273	5.e-002	4.1918
18060	21.878	2.7273	0.	86.847
18061	21.785	2.6364	0.	83.18
18062	21.785	2.7273	5.e-002	4.1964
18063	22.062	2.7273	0.	93.176
18064	21.97	2.6364	0.	89.261
18065	21.97	2.7273	5.e-002	4.2039
18066	22.247	2.7273	0.	99.919
18067	22.154	2.6364	0.	95.749
18068	22.154	2.7273	5.e-002	4.2146
18069	22.431	2.7273	0.	107.1
18070	22.339	2.6364	0.	102.66
18071	22.339	2.7273	5.e-002	4.229
18072	22.616	2.7273	0.	114.72
18073	22.524	2.6364	0.	110.02
18074	22.524	2.7273	5.e-002	4.2473
18075	22.8	2.7273	0.	122.8
18076	22.708	2.6364	0.	117.83
18077	22.708	2.7273	5.e-002	4.2698
18078	22.985	2.7273	0.	131.34
18079	22.893	2.6364	0.	126.1
18080	22.893	2.7273	5.e-002	4.2966
18081	23.17	2.7273	0.	140.34
18082	23.077	2.6364	0.	134.85
18083	23.077	2.7273	5.e-002	4.3279
18084	23.354	2.7273	0.	149.81
18085	23.262	2.6364	0.	144.07
18086	23.262	2.7273	5.e-002	4.3638
18087	23.539	2.7273	0.	159.75
18088	23.446	2.6364	0.	153.74
18089	23.446	2.7273	5.e-002	4.4038
18090	23.723	2.7273	0.	170.06
18091	23.631	2.6364	0.	163.92
18092	23.631	2.7273	5.e-002	4.448
18093	23.815	2.6364	0.	174.36
18094	23.815	2.7273	5.e-002	4.502
18095	23.908	2.7273	0.	180.26
18096	9.1435	2.5455	0.	586.63
18097	9.0512	2.4545	0.	783.52
18098	9.0512	2.5455	5.e-002	83.392
18099	9.328	2.5455	0.	276.6
18100	9.2358	2.4545	0.	383.1
18101	9.2358	2.5455	5.e-002	88.273
18102	9.5126	2.5455	0.	37.837
18103	9.4203	2.4545	0.	106.18
18104	9.4203	2.5455	5.e-002	73.061
18105	9.6972	2.5455	0.	1.3489
18106	9.6049	2.4545	0.	1.3798
18107	9.6049	2.5455	5.e-002	58.711
18108	9.8817	2.5455	0.	0.95375
18109	9.7894	2.4545	0.	1.1135
18110	9.7894	2.5455	5.e-002	47.019
18111	10.066	2.5455	0.	0.70469
18112	9.974	2.4545	0.	0.80143
18113	9.974	2.5455	5.e-002	38.156
18114	10.251	2.5455	0.	0.53781
18115	10.159	2.4545	0.	0.60848
18116	10.159	2.5455	5.e-002	31.354
18117	10.435	2.5455	0.	0.4041
18118	10.343	2.4545	0.	0.46344
18119	10.343	2.5455	5.e-002	26.039
18120	10.62	2.5455	0.	0.30317
18121	10.528	2.4545	0.	0.35073
18122	10.528	2.5455	5.e-002	21.835
18123	10.804	2.5455	0.	0.22636
18124	10.712	2.4545	0.	0.26507
18125	10.712	2.5455	5.e-002	18.492
18126	10.989	2.5455	0.	0.16851
18127	10.897	2.4545	0.	0.19945
18128	10.897	2.5455	5.e-002	15.824
18129	11.174	2.5455	0.	0.12521
18130	11.081	2.4545	0.	0.14977
18131	11.081	2.5455	5.e-002	13.691
18132	11.358	2.5455	0.	9.2917e-002
18133	11.266	2.4545	0.	0.11226
18134	11.266	2.5455	5.e-002	11.984
18135	11.543	2.5455	0.	6.8918e-002
18136	11.45	2.4545	0.	8.4056e-002
18137	11.45	2.5455	5.e-002	10.617
18138	11.727	2.5455	0.	5.1148e-002
18139	11.635	2.4545	0.	6.294e-002
18140	11.635	2.5455	5.e-002	9.5201
18141	11.912	2.5455	0.	3.8031e-002
18142	11.82	2.4545	0.	4.7196e-002
18143	11.82	2.5455	5.e-002	8.6396
18144	12.096	2.5455	0.	2.8366e-002
18145	12.004	2.4545	0.	3.5485e-002
18146	12.004	2.5455	5.e-002	7.9319
18147	12.281	2.5455	0.	2.1288e-002
18148	12.189	2.4545	0.	2.6785e-002
18149	12.189	2.5455	5.e-002	7.3618
18150	12.465	2.5455	0.	1.6157e-002
18151	12.373	2.4545	0.	2.0399e-002
18152	12.373	2.5455	5.e-002	6.9016
18153	12.65	2.5455	0.	1.246e-002
18154	12.558	2.4545	0.	1.5735e-002
18155	12.558	2.5455	5.e-002	6.529
18156	12.835	2.5455	0.	9.82e-003
18157	12.742	2.4545	0.	1.2344e-002
18158	12.742	2.5455	5.e-002	6.2262
18159	13.019	2.5455	0.	7.9729e-003
18160	12.927	2.4545	0.	9.9059e-003
18161	12.927	2.5455	5.e-002	5.9789
18162	13.204	2.5455	0.	6.7308e-003
18163	13.111	2.4545	0.	8.1927e-003
18164	13.111	2.5455	5.e-002	5.7757
18165	13.388	2.5455	0.	5.925e-003
18166	13.296	2.4545	0.	7.0437e-003
18167	13.296	2.5455	5.e-002	5.6079
18168	13.573	2.5455	0.	5.424e-003
18169	13.48	2.4545	0.	6.2672e-003
18170	13.48	2.5455	5.e-002	5.4681
18171	13.757	2.5455	0.	5.1614e-003
18172	13.665	2.4545	0.	5.7811e-003
18173	13.665	2.5455	5.e-002	5.3507
18174	13.942	2.5455	0.	5.0773e-003
18175	13.85	2.4545	0.	5.5265e-003
18176	13.85	2.5455	5.e-002	5.2512
18177	14.126	2.5455	0.	5.1143e-003
18178	14.034	2.4545	0.	5.4338e-003
18179	14.034	2.5455	5.e-002	5.1661
18180	14.311	2.5455	0.	5.24e-003
18181	14.219	2.4545	0.	5.4508e-003
18182	14.219	2.5455	5.e-002	5.0924
18183	14.496	2.5455	0.	5.4453e-003
18184	14.403	2.4545	0.	5.5606e-003
18185	14.403	2.5455	5.e-002	5.028
18186	14.68	2.5455	0.	5.6976e-003
18187	14.588	2.4545	0.	5.7588e-003
18188	14.588	2.5455	5.e-002	4.971
18189	14.865	2.5455	0.	5.9691e-003
18190	14.772	2.4545	0.	5.9795e-003
18191	14.772	2.5455	5.e-002	4.9202
18192	15.049	2.5455	0.	6.2674e-003
18193	14.957	2.4545	0.	6.231e-003
18194	14.957	2.5455	5.e-002	4.8743
18195	15.234	2.5455	0.	6.5889e-003
18196	15.141	2.4545	0.	6.5192e-003
18197	15.141	2.5455	5.e-002	4.8324
18198	15.418	2.5455	0.	6.9208e-003
18199	15.326	2.4545	0.	6.8292e-003
18200	15.326	2.5455	5.e-002	4.7939
18201	15.603	2.5455	0.	7.2634e-003
18202	15.511	2.4545	0.	7.1477e-003
18203	15.511	2.5455	5.e-002	4.7581
18204	15.787	2.5455	0.	7.6319e-003
18205	15.695	2.4545	0.	7.4909e-003
18206	15.695	2.5455	5.e-002	4.7247
18207	15.972	2.5455	0.	8.0162e-003
18208	15.88	2.4545	0.	7.8739e-003
18209	15.88	2.5455	5.e-002	4.6932
18210	16.157	2.5455	0.	8.4117e-003
18211	16.064	2.4545	0.	8.2656e-003
18212	16.064	2.5455	5.e-002	4.6634
18213	16.341	2.5455	0.	8.8484e-003
18214	16.249	2.4545	0.	8.6953e-003
18215	16.249	2.5455	5.e-002	4.6351
18216	16.526	2.5455	0.	9.3662e-003
18217	16.433	2.4545	0.	9.2151e-003
18218	16.433	2.5455	5.e-002	4.608
18219	16.71	2.5455	0.	1.0113e-002
18220	16.618	2.4545	0.	9.9262e-003
18221	16.618	2.5455	5.e-002	4.582
18222	16.895	2.5455	0.	1.2453e-002
18223	16.802	2.4545	0.	1.147e-002
18224	16.802	2.5455	5.e-002	4.5569
18225	17.079	2.5455	0.	1.316
18226	16.987	2.4545	0.	0.28455
18227	16.987	2.5455	5.e-002	4.5328
18228	17.264	2.5455	0.	3.7505
18229	17.172	2.4545	0.	2.7074
18230	17.172	2.5455	5.e-002	4.5095
18231	17.448	2.5455	0.	6.1232
18232	17.356	2.4545	0.	5.076
18233	17.356	2.5455	5.e-002	4.4869
18234	17.633	2.5455	0.	8.4489
18235	17.541	2.4545	0.	7.3911
18236	17.541	2.5455	5.e-002	4.4651
18237	17.817	2.5455	0.	10.743
18238	17.725	2.4545	0.	9.6677
18239	17.725	2.5455	5.e-002	4.4439
18240	18.002	2.5455	0.	13.021
18241	17.91	2.4545	0.	11.921
18242	17.91	2.5455	5.e-002	4.4234
18243	18.187	2.5455	0.	15.297
18244	18.094	2.4545	0.	14.165
18245	18.094	2.5455	5.e-002	4.4035
18246	18.371	2.5455	0.	17.586
18247	18.279	2.4545	0.	16.415
18248	18.279	2.5455	5.e-002	4.3842
18249	18.556	2.5455	0.	19.903
18250	18.463	2.4545	0.	18.685
18251	18.463	2.5455	5.e-002	4.3656
18252	18.74	2.5455	0.	22.264
18253	18.648	2.4545	0.	20.99
18254	18.648	2.5455	5.e-002	4.3476
18255	18.925	2.5455	0.	24.683
18256	18.833	2.4545	0.	23.346
18257	18.833	2.5455	5.e-002	4.3303
18258	19.109	2.5455	0.	27.176
18259	19.017	2.4545	0.	25.766
18260	19.017	2.5455	5.e-002	4.3137
18261	19.294	2.5455	0.	29.758
18262	19.202	2.4545	0.	28.266
18263	19.202	2.5455	5.e-002	4.2977
18264	19.478	2.5455	0.	32.446
18265	19.386	2.4545	0.	30.862
18266	19.386	2.5455	5.e-002	4.2826
18267	19.663	2.5455	0.	35.258
18268	19.571	2.4545	0.	33.57
18269	19.571	2.5455	5.e-002	4.2682
18270	19.848	2.5455	0.	38.209
18271	19.755	2.4545	0.	36.408
18272	19.755	2.5455	5.e-002	4.2547
18273	20.032	2.5455	0.	41.319
18274	19.94	2.4545	0.	39.393
18275	19.94	2.5455	5.e-002	4.2421
18276	20.217	2.5455	0.	44.605
18277	20.124	2.4545	0.	42.542
18278	20.124	2.5455	5.e-002	4.2305
18279	20.401	2.5455	0.	48.089
18280	20.309	2.4545	0.	45.876
18281	20.309	2.5455	5.e-002	4.22
18282	20.586	2.5455	0.	51.789
18283	20.493	2.4545	0.	49.413
18284	20.493	2.5455	5.e-002	4.2108
18285	20.77	2.5455	0.	55.728
18286	20.678	2.4545	0.	53.175
18287	20.678	2.5455	5.e-002	4.2029
18288	20.955	2.5455	0.	59.927
18289	20.863	2.4545	0.	57.182
18290	20.863	2.5455	5.e-002	4.1965
18291	21.139	2.5455	0.	64.408
18292	21.047	2.4545	0.	61.458
18293	21.047	2.5455	5.e-002	4.1918
18294	21.324	2.5455	0.	69.194
18295	21.232	2.4545	0.	66.024
18296	21.232	2.5455	5.e-002	4.1889
18297	21.509	2.5455	0.	74.31
18298	21.416	2.4545	0.	70.905
18299	21.416	2.5455	5.e-002	4.1882
18300	21.693	2.5455	0.	79.777
18301	21.601	2.4545	0.	76.125
18302	21.601	2.5455	5.e-002	4.1898
18303	21.878	2.5455	0.	85.618
18304	21.785	2.4545	0.	81.706
18305	21.785	2.5455	5.e-002	4.1941
18306	22.062	2.5455	0.	91.857
18307	21.97	2.4545	0.	87.672
18308	21.97	2.5455	5.e-002	4.2013
18309	22.247	2.5455	0.	98.512
18310	22.154	2.4545	0.	94.046
18311	22.154	2.5455	5.e-002	4.2118
18312	22.431	2.5455	0.	105.6
18313	22.339	2.4545	0.	100.85
18314	22.339	2.5455	5.e-002	4.2259
18315	22.616	2.5455	0.	113.15
18316	22.524	2.4545	0.	108.1
18317	22.524	2.5455	5.e-002	4.244
18318	22.8	2.5455	0.	121.15
18319	22.708	2.4545	0.	115.81
18320	22.708	2.5455	5.e-002	4.2664
18321	22.985	2.5455	0.	129.63
18322	22.893	2.4545	0.	124.
18323	22.893	2.5455	5.e-002	4.2932
18324	23.17	2.5455	0.	138.58
18325	23.077	2.4545	0.	132.67
18326	23.077	2.5455	5.e-002	4.3247
18327	23.354	2.5455	0.	148.01
18328	23.262	2.4545	0.	141.83
18329	23.262	2.5455	5.e-002	4.361
18330	23.539	2.5455	0.	157.92
18331	23.446	2.4545	0.	151.46
18332	23.446	2.5455	5.e-002	4.4016
18333	23.723	2.5455	0.	168.22
18334	23.631	2.4545	0.	161.61
18335	23.631	2.5455	5.e-002	4.4469
18336	23.815	2.4545	0.	172.04
18337	23.815	2.5455	5.e-002	4.5053
18338	23.908	2.5455	0.	178.39
18339	9.1435	2.3636	0.	597.56
18340	9.0512	2.2727	0.	799.06
18341	9.0512	2.3636	5.e-002	148.95
18342	9.328	2.3636	0.	228.52
18343	9.2358	2.2727	0.	355.69
18344	9.2358	2.3636	5.e-002	117.2
18345	9.5126	2.3636	0.	8.6933
18346	9.4203	2.2727	0.	85.676
18347	9.4203	2.3636	5.e-002	84.022
18348	9.6972	2.3636	0.	1.1371
18349	9.6049	2.2727	0.	3.0691
18350	9.6049	2.3636	5.e-002	58.91
18351	9.8817	2.3636	0.	0.99989
18352	9.7894	2.2727	0.	0.98586
18353	9.7894	2.3636	5.e-002	44.855
18354	10.066	2.3636	0.	0.73036
18355	9.974	2.2727	0.	0.99651
18356	9.974	2.3636	5.e-002	35.695
18357	10.251	2.3636	0.	0.55056
18358	10.159	2.2727	0.	0.65438
18359	10.159	2.3636	5.e-002	29.169
18360	10.435	2.3636	0.	0.42117
18361	10.343	2.2727	0.	0.51341
18362	10.343	2.3636	5.e-002	24.253
18363	10.62	2.3636	0.	0.32036
18364	10.528	2.2727	0.	0.38481
18365	10.528	2.3636	5.e-002	20.428
18366	10.804	2.3636	0.	0.24367
18367	10.712	2.2727	0.	0.29425
18368	10.712	2.3636	5.e-002	17.398
18369	10.989	2.3636	0.	0.1847
18370	10.897	2.2727	0.	0.22361
18371	10.897	2.3636	5.e-002	14.976
18372	11.174	2.3636	0.	0.13975
18373	11.081	2.2727	0.	0.17012
18374	11.081	2.3636	5.e-002	13.033
18375	11.358	2.3636	0.	0.10557
18376	11.266	2.2727	0.	0.12923
18377	11.266	2.3636	5.e-002	11.469
18378	11.543	2.3636	0.	7.9706e-002
18379	11.45	2.2727	0.	9.8142e-002
18380	11.45	2.3636	5.e-002	10.211
18381	11.727	2.3636	0.	6.0212e-002
18382	11.635	2.2727	0.	7.456e-002
18383	11.635	2.3636	5.e-002	9.1977
18384	11.912	2.3636	0.	4.5575e-002
18385	11.82	2.2727	0.	5.6745e-002
18386	11.82	2.3636	5.e-002	8.3818
18387	12.096	2.3636	0.	3.4606e-002
18388	12.004	2.2727	0.	4.3311e-002
18389	12.004	2.3636	5.e-002	7.7246
18390	12.281	2.3636	0.	2.6431e-002
18391	12.189	2.2727	0.	3.319e-002
18392	12.189	2.3636	5.e-002	7.1946
18393	12.465	2.3636	0.	2.0385e-002
18394	12.373	2.2727	0.	2.5639e-002
18395	12.373	2.3636	5.e-002	6.7664
18396	12.65	2.3636	0.	1.5931e-002
18397	12.558	2.2727	0.	2.0021e-002
18398	12.558	2.3636	5.e-002	6.4195
18399	12.835	2.3636	0.	1.2669e-002
18400	12.742	2.2727	0.	1.5852e-002
18401	12.742	2.3636	5.e-002	6.1375
18402	13.019	2.3636	0.	1.0309e-002
18403	12.927	2.2727	0.	1.2778e-002
18404	12.927	2.3636	5.e-002	5.9071
18405	13.204	2.3636	0.	8.6459e-003
18406	13.111	2.2727	0.	1.0544e-002
18407	13.111	2.3636	5.e-002	5.7178
18408	13.388	2.3636	0.	7.4933e-003
18409	13.296	2.2727	0.	8.9691e-003
18410	13.296	2.3636	5.e-002	5.5611
18411	13.573	2.3636	0.	6.7061e-003
18412	13.48	2.2727	0.	7.8422e-003
18413	13.48	2.3636	5.e-002	5.4304
18414	13.757	2.3636	0.	6.2081e-003
18415	13.665	2.2727	0.	7.0682e-003
18416	13.665	2.3636	5.e-002	5.3203
18417	13.942	2.3636	0.	5.9292e-003
18418	13.85	2.2727	0.	6.5749e-003
18419	13.85	2.3636	5.e-002	5.2267
18420	14.126	2.3636	0.	5.8042e-003
18421	14.034	2.2727	0.	6.2854e-003
18422	14.034	2.3636	5.e-002	5.1463
18423	14.311	2.3636	0.	5.7957e-003
18424	14.219	2.2727	0.	6.1379e-003
18425	14.219	2.3636	5.e-002	5.0764
18426	14.496	2.3636	0.	5.8906e-003
18427	14.403	2.2727	0.	6.1134e-003
18428	14.403	2.3636	5.e-002	5.0151
18429	14.68	2.3636	0.	6.0511e-003
18430	14.588	2.2727	0.	6.1983e-003
18431	14.588	2.3636	5.e-002	4.9606
18432	14.865	2.3636	0.	6.247e-003
18433	14.772	2.2727	0.	6.3272e-003
18434	14.772	2.3636	5.e-002	4.9117
18435	15.049	2.3636	0.	6.4845e-003
18436	14.957	2.2727	0.	6.5029e-003
18437	14.957	2.3636	5.e-002	4.8674
18438	15.234	2.3636	0.	6.758e-003
18439	15.141	2.2727	0.	6.7311e-003
18440	15.141	2.3636	5.e-002	4.8268
18441	15.418	2.3636	0.	7.0523e-003
18442	15.326	2.2727	0.	6.994e-003
18443	15.326	2.3636	5.e-002	4.7893
18444	15.603	2.3636	0.	7.3698e-003
18445	15.511	2.2727	0.	7.2793e-003
18446	15.511	2.3636	5.e-002	4.7543
18447	15.787	2.3636	0.	7.7261e-003
18448	15.695	2.2727	0.	7.6032e-003
18449	15.695	2.3636	5.e-002	4.7215
18450	15.972	2.3636	0.	8.1155e-003
18451	15.88	2.2727	0.	7.9854e-003
18452	15.88	2.3636	5.e-002	4.6905
18453	16.157	2.3636	0.	8.5398e-003
18454	16.064	2.2727	0.	8.4001e-003
18455	16.064	2.3636	5.e-002	4.6611
18456	16.341	2.3636	0.	9.047e-003
18457	16.249	2.2727	0.	8.8922e-003
18458	16.249	2.3636	5.e-002	4.6331
18459	16.526	2.3636	0.	9.7312e-003
18460	16.433	2.2727	0.	9.5575e-003
18461	16.433	2.3636	5.e-002	4.6063
18462	16.71	2.3636	0.	1.0968e-002
18463	16.618	2.2727	0.	1.0648e-002
18464	16.618	2.3636	5.e-002	4.5804
18465	16.895	2.3636	0.	1.7862e-002
18466	16.802	2.2727	0.	1.3966e-002
18467	16.802	2.3636	5.e-002	4.5556
18468	17.079	2.3636	0.	1.6888
18469	16.987	2.2727	0.	0.7468
18470	16.987	2.3636	5.e-002	4.5316
18471	17.264	2.3636	0.	4.0597
18472	17.172	2.2727	0.	3.1028
18473	17.172	2.3636	5.e-002	4.5084
18474	17.448	2.3636	0.	6.3716
18475	17.356	2.2727	0.	5.4
18476	17.356	2.3636	5.e-002	4.4859
18477	17.633	2.3636	0.	8.6384
18478	17.541	2.2727	0.	7.6461
18479	17.541	2.3636	5.e-002	4.4641
18480	17.817	2.3636	0.	10.875
18481	17.725	2.2727	0.	9.8555
18482	17.725	2.3636	5.e-002	4.443
18483	18.002	2.3636	0.	13.095
18484	17.91	2.2727	0.	12.042
18485	17.91	2.3636	5.e-002	4.4225
18486	18.187	2.3636	0.	15.314
18487	18.094	2.2727	0.	14.22
18488	18.094	2.3636	5.e-002	4.4026
18489	18.371	2.3636	0.	17.545
18490	18.279	2.2727	0.	16.404
18491	18.279	2.3636	5.e-002	4.3834
18492	18.556	2.3636	0.	19.804
18493	18.463	2.2727	0.	18.607
18494	18.463	2.3636	5.e-002	4.3648
18495	18.74	2.3636	0.	22.104
18496	18.648	2.2727	0.	20.843
18497	18.648	2.3636	5.e-002	4.3468
18498	18.925	2.3636	0.	24.46
18499	18.833	2.2727	0.	23.128
18500	18.833	2.3636	5.e-002	4.3295
18501	19.109	2.3636	0.	26.888
18502	19.017	2.2727	0.	25.474
18503	19.017	2.3636	5.e-002	4.3128
18504	19.294	2.3636	0.	29.402
18505	19.202	2.2727	0.	27.897
18506	19.202	2.3636	5.e-002	4.2969
18507	19.478	2.3636	0.	32.019
18508	19.386	2.2727	0.	30.412
18509	19.386	2.3636	5.e-002	4.2817
18510	19.663	2.3636	0.	34.754
18511	19.571	2.2727	0.	33.036
18512	19.571	2.3636	5.e-002	4.2673
18513	19.848	2.3636	0.	37.625
18514	19.755	2.2727	0.	35.783
18515	19.755	2.3636	5.e-002	4.2537
18516	20.032	2.3636	0.	40.65
18517	19.94	2.2727	0.	38.672
18518	19.94	2.3636	5.e-002	4.241
18519	20.217	2.3636	0.	43.846
18520	20.124	2.2727	0.	41.719
18521	20.124	2.3636	5.e-002	4.2293
18522	20.401	2.3636	0.	47.233
18523	20.309	2.2727	0.	44.944
18524	20.309	2.3636	5.e-002	4.2188
18525	20.586	2.3636	0.	50.831
18526	20.493	2.2727	0.	48.366
18527	20.493	2.3636	5.e-002	4.2094
18528	20.77	2.3636	0.	54.66
18529	20.678	2.2727	0.	52.005
18530	20.678	2.3636	5.e-002	4.2013
18531	20.955	2.3636	0.	58.744
18532	20.863	2.2727	0.	55.883
18533	20.863	2.3636	5.e-002	4.1947
18534	21.139	2.3636	0.	63.104
18535	21.047	2.2727	0.	60.021
18536	21.047	2.3636	5.e-002	4.1897
18537	21.324	2.3636	0.	67.764
18538	21.232	2.2727	0.	64.443
18539	21.232	2.3636	5.e-002	4.1866
18540	21.509	2.3636	0.	72.748
18541	21.416	2.2727	0.	69.172
18542	21.416	2.3636	5.e-002	4.1856
18543	21.693	2.3636	0.	78.08
18544	21.601	2.2727	0.	74.235
18545	21.601	2.3636	5.e-002	4.1868
18546	21.878	2.3636	0.	83.784
18547	21.785	2.2727	0.	79.655
18548	21.785	2.3636	5.e-002	4.1907
18549	22.062	2.3636	0.	89.885
18550	21.97	2.2727	0.	85.459
18551	21.97	2.3636	5.e-002	4.1975
18552	22.247	2.3636	0.	96.405
18553	22.154	2.2727	0.	91.671
18554	22.154	2.3636	5.e-002	4.2076
18555	22.431	2.3636	0.	103.37
18556	22.339	2.2727	0.	98.315
18557	22.339	2.3636	5.e-002	4.2213
18558	22.616	2.3636	0.	110.79
18559	22.524	2.2727	0.	105.41
18560	22.524	2.3636	5.e-002	4.2391
18561	22.8	2.3636	0.	118.68
18562	22.708	2.2727	0.	112.99
18563	22.708	2.3636	5.e-002	4.2612
18564	22.985	2.3636	0.	127.06
18565	22.893	2.2727	0.	121.05
18566	22.893	2.3636	5.e-002	4.288
18567	23.17	2.3636	0.	135.93
18568	23.077	2.2727	0.	129.61
18569	23.077	2.3636	5.e-002	4.3198
18570	23.354	2.3636	0.	145.3
18571	23.262	2.2727	0.	138.68
18572	23.262	2.3636	5.e-002	4.3566
18573	23.539	2.3636	0.	155.16
18574	23.446	2.2727	0.	148.25
18575	23.446	2.3636	5.e-002	4.3982
18576	23.723	2.3636	0.	165.44
18577	23.631	2.2727	0.	158.36
18578	23.631	2.3636	5.e-002	4.4451
18579	23.815	2.2727	0.	168.78
18580	23.815	2.3636	5.e-002	4.5102
18581	23.908	2.3636	0.	175.58
18582	9.1435	2.1818	0.	601.17
18583	9.0512	2.0909	0.	1180.2
18584	9.0512	2.1818	5.e-002	345.44
18585	9.328	2.1818	0.	230.31
18586	9.2358	2.0909	0.	479.87
18587	9.2358	2.1818	5.e-002	158.32
18588	9.5126	2.1818	0.	19.599
18589	9.4203	2.0909	0.	157.91
18590	9.4203	2.1818	5.e-002	79.846
18591	9.6972	2.1818	0.	3.297
18592	9.6049	2.0909	0.	13.267
18593	9.6049	2.1818	5.e-002	54.869
18594	9.8817	2.1818	0.	1.1076
18595	9.7894	2.0909	0.	1.8866
18596	9.7894	2.1818	5.e-002	40.922
18597	10.066	2.1818	0.	0.97544
18598	9.974	2.0909	0.	1.5301
18599	9.974	2.1818	5.e-002	32.377
18600	10.251	2.1818	0.	0.64635
18601	10.159	2.0909	0.	0.86711
18602	10.159	2.1818	5.e-002	26.484
18603	10.435	2.1818	0.	0.49433
18604	10.343	2.0909	0.	0.64955
18605	10.343	2.1818	5.e-002	22.12
18606	10.62	2.1818	0.	0.36969
18607	10.528	2.0909	0.	0.4684
18608	10.528	2.1818	5.e-002	18.747
18609	10.804	2.1818	0.	0.28152
18610	10.712	2.0909	0.	0.35287
18611	10.712	2.1818	5.e-002	16.077
18612	10.989	2.1818	0.	0.21408
18613	10.897	2.0909	0.	0.26605
18614	10.897	2.1818	5.e-002	13.937
18615	11.174	2.1818	0.	0.16315
18616	11.081	2.0909	0.	0.20214
18617	11.081	2.1818	5.e-002	12.211
18618	11.358	2.1818	0.	0.12434
18619	11.266	2.0909	0.	0.1539
18620	11.266	2.1818	5.e-002	10.817
18621	11.543	2.1818	0.	9.4841e-002
18622	11.45	2.0909	0.	0.11744
18623	11.45	2.1818	5.e-002	9.6895
18624	11.727	2.1818	0.	7.2443e-002
18625	11.635	2.0909	0.	8.9797e-002
18626	11.635	2.1818	5.e-002	8.779
18627	11.912	2.1818	0.	5.5477e-002
18628	11.82	2.0909	0.	6.8866e-002
18629	11.82	2.1818	5.e-002	8.0443
18630	12.096	2.1818	0.	4.2636e-002
18631	12.004	2.0909	0.	5.301e-002
18632	12.004	2.1818	5.e-002	7.4517
18633	12.281	2.1818	0.	3.2952e-002
18634	12.189	2.0909	0.	4.0987e-002
18635	12.189	2.1818	5.e-002	6.9736
18636	12.465	2.1818	0.	2.5691e-002
18637	12.373	2.0909	0.	3.1934e-002
18638	12.373	2.1818	5.e-002	6.5874
18639	12.65	2.1818	0.	2.0256e-002
18640	12.558	2.0909	0.	2.5122e-002
18641	12.558	2.1818	5.e-002	6.2746
18642	12.835	2.1818	0.	1.6199e-002
18643	12.742	2.0909	0.	1.9998e-002
18644	12.742	2.1818	5.e-002	6.0203
18645	13.019	2.1818	0.	1.3194e-002
18646	12.927	2.0909	0.	1.6156e-002
18647	12.927	2.1818	5.e-002	5.8124
18648	13.204	2.1818	0.	1.1004e-002
18649	13.111	2.0909	0.	1.3301e-002
18650	13.111	2.1818	5.e-002	5.6414
18651	13.388	2.1818	0.	9.4218e-003
18652	13.296	2.0909	0.	1.1222e-002
18653	13.296	2.1818	5.e-002	5.4995
18654	13.573	2.1818	0.	8.2827e-003
18655	13.48	2.0909	0.	9.6819e-003
18656	13.48	2.1818	5.e-002	5.3808
18657	13.757	2.1818	0.	7.4937e-003
18658	13.665	2.0909	0.	8.5694e-003
18659	13.665	2.1818	5.e-002	5.2804
18660	13.942	2.1818	0.	6.9744e-003
18661	13.85	2.0909	0.	7.7976e-003
18662	13.85	2.1818	5.e-002	5.1946
18663	14.126	2.1818	0.	6.6504e-003
18664	14.034	2.0909	0.	7.277e-003
18665	14.034	2.1818	5.e-002	5.1205
18666	14.311	2.1818	0.	6.4773e-003
18667	14.219	2.0909	0.	6.9379e-003
18668	14.219	2.1818	5.e-002	5.0557
18669	14.496	2.1818	0.	6.4352e-003
18670	14.403	2.0909	0.	6.7549e-003
18671	14.403	2.1818	5.e-002	4.9983
18672	14.68	2.1818	0.	6.4825e-003
18673	14.588	2.0909	0.	6.708e-003
18674	14.588	2.1818	5.e-002	4.947
18675	14.865	2.1818	0.	6.5863e-003
18676	14.772	2.0909	0.	6.7288e-003
18677	14.772	2.1818	5.e-002	4.9007
18678	15.049	2.1818	0.	6.7487e-003
18679	14.957	2.0909	0.	6.8164e-003
18680	14.957	2.1818	5.e-002	4.8584
18681	15.234	2.1818	0.	6.963e-003
18682	15.141	2.0909	0.	6.9745e-003
18683	15.141	2.1818	5.e-002	4.8194
18684	15.418	2.1818	0.	7.2143e-003
18685	15.326	2.0909	0.	7.1838e-003
18686	15.326	2.1818	5.e-002	4.7832
18687	15.603	2.1818	0.	7.5039e-003
18688	15.511	2.0909	0.	7.4346e-003
18689	15.511	2.1818	5.e-002	4.7493
18690	15.787	2.1818	0.	7.8514e-003
18691	15.695	2.0909	0.	7.7417e-003
18692	15.695	2.1818	5.e-002	4.7173
18693	15.972	2.1818	0.	8.2564e-003
18694	15.88	2.0909	0.	8.1336e-003
18695	15.88	2.1818	5.e-002	4.687
18696	16.157	2.1818	0.	8.7335e-003
18697	16.064	2.0909	0.	8.5943e-003
18698	16.064	2.1818	5.e-002	4.6581
18699	16.341	2.1818	0.	9.3666e-003
18700	16.249	2.0909	0.	9.1992e-003
18701	16.249	2.1818	5.e-002	4.6305
18702	16.526	2.1818	0.	1.0356e-002
18703	16.433	2.0909	0.	1.0127e-002
18704	16.433	2.1818	5.e-002	4.604
18705	16.71	2.1818	0.	1.2648e-002
18706	16.618	2.0909	0.	1.1989e-002
18707	16.618	2.1818	5.e-002	4.5784
18708	16.895	2.1818	0.	5.3614e-002
18709	16.802	2.0909	0.	2.1083e-002
18710	16.802	2.1818	5.e-002	4.5538
18711	17.079	2.1818	0.	2.1817
18712	16.987	2.0909	0.	1.3423
18713	16.987	2.1818	5.e-002	4.53
18714	17.264	2.1818	0.	4.47
18715	17.172	2.0909	0.	3.6077
18716	17.172	2.1818	5.e-002	4.5069
18717	17.448	2.1818	0.	6.7024
18718	17.356	2.0909	0.	5.8151
18719	17.356	2.1818	5.e-002	4.4845
18720	17.633	2.1818	0.	8.8919
18721	17.541	2.0909	0.	7.9745
18722	17.541	2.1818	5.e-002	4.4628
18723	17.817	2.1818	0.	11.052
18724	17.725	2.0909	0.	10.099
18725	17.725	2.1818	5.e-002	4.4418
18726	18.002	2.1818	0.	13.198
18727	17.91	2.0909	0.	12.202
18728	17.91	2.1818	5.e-002	4.4213
18729	18.187	2.1818	0.	15.341
18730	18.094	2.0909	0.	14.297
18731	18.094	2.1818	5.e-002	4.4015
18732	18.371	2.1818	0.	17.497
18733	18.279	2.0909	0.	16.397
18734	18.279	2.1818	5.e-002	4.3823
18735	18.556	2.1818	0.	19.678
18736	18.463	2.0909	0.	18.515
18737	18.463	2.1818	5.e-002	4.3637
18738	18.74	2.1818	0.	21.899
18739	18.648	2.0909	0.	20.664
18740	18.648	2.1818	5.e-002	4.3457
18741	18.925	2.1818	0.	24.174
18742	18.833	2.0909	0.	22.859
18743	18.833	2.1818	5.e-002	4.3284
18744	19.109	2.1818	0.	26.516
18745	19.017	2.0909	0.	25.112
18746	19.017	2.1818	5.e-002	4.3117
18747	19.294	2.1818	0.	28.94
18748	19.202	2.0909	0.	27.438
18749	19.202	2.1818	5.e-002	4.2958
18750	19.478	2.1818	0.	31.463
18751	19.386	2.0909	0.	29.851
18752	19.386	2.1818	5.e-002	4.2805
18753	19.663	2.1818	0.	34.098
18754	19.571	2.0909	0.	32.367
18755	19.571	2.1818	5.e-002	4.266
18756	19.848	2.1818	0.	36.864
18757	19.755	2.0909	0.	35.
18758	19.755	2.1818	5.e-002	4.2524
18759	20.032	2.1818	0.	39.776
18760	19.94	2.0909	0.	37.767
18761	19.94	2.1818	5.e-002	4.2396
18762	20.217	2.1818	0.	42.852
18763	20.124	2.0909	0.	40.685
18764	20.124	2.1818	5.e-002	4.2278
18765	20.401	2.1818	0.	46.112
18766	20.309	2.0909	0.	43.773
18767	20.309	2.1818	5.e-002	4.2171
18768	20.586	2.1818	0.	49.574
18769	20.493	2.0909	0.	47.048
18770	20.493	2.1818	5.e-002	4.2075
18771	20.77	2.1818	0.	53.26
18772	20.678	2.0909	0.	50.531
18773	20.678	2.1818	5.e-002	4.1992
18774	20.955	2.1818	0.	57.191
18775	20.863	2.0909	0.	54.242
18776	20.863	2.1818	5.e-002	4.1924
18777	21.139	2.1818	0.	61.39
18778	21.047	2.0909	0.	58.204
18779	21.047	2.1818	5.e-002	4.1871
18780	21.324	2.1818	0.	65.881
18781	21.232	2.0909	0.	62.44
18782	21.232	2.1818	5.e-002	4.1836
18783	21.509	2.1818	0.	70.689
18784	21.416	2.0909	0.	66.975
18785	21.416	2.1818	5.e-002	4.1821
18786	21.693	2.1818	0.	75.839
18787	21.601	2.0909	0.	71.835
18788	21.601	2.1818	5.e-002	4.1829
18789	21.878	2.1818	0.	81.357
18790	21.785	2.0909	0.	77.046
18791	21.785	2.1818	5.e-002	4.1863
18792	22.062	2.1818	0.	87.27
18793	21.97	2.0909	0.	82.636
18794	21.97	2.1818	5.e-002	4.1925
18795	22.247	2.1818	0.	93.605
18796	22.154	2.0909	0.	88.634
18797	22.154	2.1818	5.e-002	4.202
18798	22.431	2.1818	0.	100.39
18799	22.339	2.0909	0.	95.067
18800	22.339	2.1818	5.e-002	4.2151
18801	22.616	2.1818	0.	107.64
18802	22.524	2.0909	0.	101.96
18803	22.524	2.1818	5.e-002	4.2324
18804	22.8	2.1818	0.	115.37
18805	22.708	2.0909	0.	109.34
18806	22.708	2.1818	5.e-002	4.2542
18807	22.985	2.1818	0.	123.62
18808	22.893	2.0909	0.	117.23
18809	22.893	2.1818	5.e-002	4.281
18810	23.17	2.1818	0.	132.38
18811	23.077	2.0909	0.	125.65
18812	23.077	2.1818	5.e-002	4.313
18813	23.354	2.1818	0.	141.65
18814	23.262	2.0909	0.	134.6
18815	23.262	2.1818	5.e-002	4.3505
18816	23.539	2.1818	0.	151.45
18817	23.446	2.0909	0.	144.07
18818	23.446	2.1818	5.e-002	4.3934
18819	23.723	2.1818	0.	161.7
18820	23.631	2.0909	0.	154.12
18821	23.631	2.1818	5.e-002	4.4426
18822	23.815	2.0909	0.	164.53
18823	23.815	2.1818	5.e-002	4.5165
18824	23.908	2.1818	0.	171.79
18825	9.1435	2.	0.	1167.9
18826	9.0512	1.9091	0.	2166.4
18827	9.0512	2.	5.e-002	630.47
18828	8.9589	2.	0.	1769.2
18829	9.328	2.	0.	414.85
18830	9.2358	1.9091	0.	829.61
18831	9.2358	2.	5.e-002	109.79
18832	9.5126	2.	0.	128.17
18833	9.4203	1.9091	0.	329.18
18834	9.4203	2.	5.e-002	70.884
18835	9.6972	2.	0.	12.056
18836	9.6049	1.9091	0.	99.779
18837	9.6049	2.	5.e-002	47.419
18838	9.8817	2.	0.	2.5745
18839	9.7894	1.9091	0.	9.174
18840	9.7894	2.	5.e-002	35.943
18841	10.066	2.	0.	1.5213
18842	9.974	1.9091	0.	2.8279
18843	9.974	2.	5.e-002	28.6
18844	10.251	2.	0.	0.9171
18845	10.159	1.9091	0.	1.408
18846	10.159	2.	5.e-002	23.552
18847	10.435	2.	0.	0.64926
18848	10.343	1.9091	0.	0.91517
18849	10.343	2.	5.e-002	19.802
18850	10.62	2.	0.	0.46698
18851	10.528	1.9091	0.	0.62417
18852	10.528	2.	5.e-002	16.903
18853	10.804	2.	0.	0.3472
18854	10.712	1.9091	0.	0.45093
18855	10.712	2.	5.e-002	14.603
18856	10.989	2.	0.	0.26059
18857	10.897	1.9091	0.	0.33198
18858	10.897	2.	5.e-002	12.754
18859	11.174	2.	0.	0.19729
18860	11.081	1.9091	0.	0.24836
18861	11.081	2.	5.e-002	11.258
18862	11.358	2.	0.	0.15003
18863	11.266	1.9091	0.	0.18737
18864	11.266	2.	5.e-002	10.046
18865	11.543	2.	0.	0.11453
18866	11.45	1.9091	0.	0.14227
18867	11.45	2.	5.e-002	9.0642
18868	11.727	2.	0.	8.7741e-002
18869	11.635	1.9091	0.	0.10858
18870	11.635	2.	5.e-002	8.271
18871	11.912	2.	0.	6.7492e-002
18872	11.82	1.9091	0.	8.3299e-002
18873	11.82	2.	5.e-002	7.6312
18874	12.096	2.	0.	5.2154e-002
18875	12.004	1.9091	0.	6.4241e-002
18876	12.004	2.	5.e-002	7.1159
18877	12.281	2.	0.	4.0549e-002
18878	12.189	1.9091	0.	4.9824e-002
18879	12.189	2.	5.e-002	6.701
18880	12.465	2.	0.	3.1792e-002
18881	12.373	1.9091	0.	3.8951e-002
18882	12.373	2.	5.e-002	6.3663
18883	12.65	2.	0.	2.5181e-002
18884	12.558	1.9091	0.	3.0739e-002
18885	12.558	2.	5.e-002	6.0957
18886	12.835	2.	0.	2.0191e-002
18887	12.742	1.9091	0.	2.4523e-002
18888	12.742	2.	5.e-002	5.8759
18889	13.019	2.	0.	1.644e-002
18890	12.927	1.9091	0.	1.982e-002
18891	12.927	2.	5.e-002	5.696
18892	13.204	2.	0.	1.3651e-002
18893	13.111	1.9091	0.	1.628e-002
18894	13.111	2.	5.e-002	5.5477
18895	13.388	2.	0.	1.1581e-002
18896	13.296	1.9091	0.	1.3649e-002
18897	13.296	2.	5.e-002	5.4242
18898	13.573	2.	0.	1.0043e-002
18899	13.48	1.9091	0.	1.1661e-002
18900	13.48	2.	5.e-002	5.3203
18901	13.757	2.	0.	8.9282e-003
18902	13.665	1.9091	0.	1.0181e-002
18903	13.665	2.	5.e-002	5.2319
18904	13.942	2.	0.	8.14e-003
18905	13.85	1.9091	0.	9.1092e-003
18906	13.85	2.	5.e-002	5.1557
18907	14.126	2.	0.	7.5926e-003
18908	14.034	1.9091	0.	8.339e-003
18909	14.034	2.	5.e-002	5.0892
18910	14.311	2.	0.	7.2342e-003
18911	14.219	1.9091	0.	7.7941e-003
18912	14.219	2.	5.e-002	5.0305
18913	14.496	2.	0.	7.0389e-003
18914	14.403	1.9091	0.	7.4387e-003
18915	14.403	2.	5.e-002	4.978
18916	14.68	2.	0.	6.9594e-003
18917	14.588	1.9091	0.	7.25e-003
18918	14.588	2.	5.e-002	4.9307
18919	14.865	2.	0.	6.959e-003
18920	14.772	1.9091	0.	7.1537e-003
18921	14.772	2.	5.e-002	4.8874
18922	15.049	2.	0.	7.0382e-003
18923	14.957	1.9091	0.	7.1464e-003
18924	14.957	2.	5.e-002	4.8476
18925	15.234	2.	0.	7.1878e-003
18926	15.141	1.9091	0.	7.2301e-003
18927	15.141	2.	5.e-002	4.8106
18928	15.418	2.	0.	7.3936e-003
18929	15.326	1.9091	0.	7.3858e-003
18930	15.326	2.	5.e-002	4.7759
18931	15.603	2.	0.	7.659e-003
18932	15.511	1.9091	0.	7.6046e-003
18933	15.511	2.	5.e-002	4.7432
18934	15.787	2.	0.	8.0071e-003
18935	15.695	1.9091	0.	7.9059e-003
18936	15.695	2.	5.e-002	4.7122
18937	15.972	2.	0.	8.4495e-003
18938	15.88	1.9091	0.	8.328e-003
18939	15.88	2.	5.e-002	4.6827
18940	16.157	2.	0.	9.0261e-003
18941	16.064	1.9091	0.	8.8782e-003
18942	16.064	2.	5.e-002	4.6545
18943	16.341	2.	0.	9.8866e-003
18944	16.249	1.9091	0.	9.6894e-003
18945	16.249	2.	5.e-002	4.6273
18946	16.526	2.	0.	1.148e-002
18947	16.433	1.9091	0.	1.1129e-002
18948	16.433	2.	5.e-002	4.6012
18949	16.71	2.	0.	1.6537e-002
18950	16.618	1.9091	0.	1.4836e-002
18951	16.618	2.	5.e-002	4.576
18952	16.895	2.	0.	0.55663
18953	16.802	1.9091	0.	7.7946e-002
18954	16.802	2.	5.e-002	4.5516
18955	17.079	2.	0.	2.7921
18956	16.987	1.9091	0.	2.0639
18957	16.987	2.	5.e-002	4.528
18958	17.264	2.	0.	4.9799
18959	17.172	1.9091	0.	4.2199
18960	17.172	2.	5.e-002	4.5051
18961	17.448	2.	0.	7.1153
18962	17.356	1.9091	0.	6.3206
18963	17.356	2.	5.e-002	4.4829
18964	17.633	2.	0.	9.2105
18965	17.541	1.9091	0.	8.3766
18966	17.541	2.	5.e-002	4.4613
18967	17.817	2.	0.	11.278
18968	17.725	1.9091	0.	10.4
18969	17.725	2.	5.e-002	4.4403
18970	18.002	2.	0.	13.332
18971	17.91	1.9091	0.	12.403
18972	17.91	2.	5.e-002	4.4199
18973	18.187	2.	0.	15.383
18974	18.094	1.9091	0.	14.399
18975	18.094	2.	5.e-002	4.4001
18976	18.371	2.	0.	17.446
18977	18.279	1.9091	0.	16.398
18978	18.279	2.	5.e-002	4.381
18979	18.556	2.	0.	19.533
18980	18.463	1.9091	0.	18.415
18981	18.463	2.	5.e-002	4.3624
18982	18.74	2.	0.	21.657
18983	18.648	1.9091	0.	20.46
18984	18.648	2.	5.e-002	4.3444
18985	18.925	2.	0.	23.83
18986	18.833	1.9091	0.	22.548
18987	18.833	2.	5.e-002	4.3271
18988	19.109	2.	0.	26.068
18989	19.017	1.9091	0.	24.69
18990	19.017	2.	5.e-002	4.3104
18991	19.294	2.	0.	28.383
18992	19.202	1.9091	0.	26.899
18993	19.202	2.	5.e-002	4.2944
18994	19.478	2.	0.	30.789
18995	19.386	1.9091	0.	29.19
18996	19.386	2.	5.e-002	4.279
18997	19.663	2.	0.	33.303
18998	19.571	1.9091	0.	31.577
18999	19.571	2.	5.e-002	4.2645
19000	19.848	2.	0.	35.938
19001	19.755	1.9091	0.	34.073
19002	19.755	2.	5.e-002	4.2508
19003	20.032	2.	0.	38.712
19004	19.94	1.9091	0.	36.695
19005	19.94	2.	5.e-002	4.2379
19006	20.217	2.	0.	41.641
19007	20.124	1.9091	0.	39.459
19008	20.124	2.	5.e-002	4.2259
19009	20.401	2.	0.	44.744
19010	20.309	1.9091	0.	42.381
19011	20.309	2.	5.e-002	4.215
19012	20.586	2.	0.	48.039
19013	20.493	1.9091	0.	45.479
19014	20.493	2.	5.e-002	4.2052
19015	20.77	2.	0.	51.547
19016	20.678	1.9091	0.	48.774
19017	20.678	2.	5.e-002	4.1967
19018	20.955	2.	0.	55.289
19019	20.863	1.9091	0.	52.284
19020	20.863	2.	5.e-002	4.1895
19021	21.139	2.	0.	59.287
19022	21.047	1.9091	0.	56.033
19023	21.047	2.	5.e-002	4.1839
19024	21.324	2.	0.	63.567
19025	21.232	1.9091	0.	60.042
19026	21.232	2.	5.e-002	4.1799
19027	21.509	2.	0.	68.153
19028	21.416	1.9091	0.	64.339
19029	21.416	2.	5.e-002	4.1779
19030	21.693	2.	0.	73.072
19031	21.601	1.9091	0.	68.948
19032	21.601	2.	5.e-002	4.1781
19033	21.878	2.	0.	78.354
19034	21.785	1.9091	0.	73.899
19035	21.785	2.	5.e-002	4.1808
19036	22.062	2.	0.	84.027
19037	21.97	1.9091	0.	79.223
19038	21.97	2.	5.e-002	4.1863
19039	22.247	2.	0.	90.121
19040	22.154	1.9091	0.	84.95
19041	22.154	2.	5.e-002	4.195
19042	22.431	2.	0.	96.666
19043	22.339	1.9091	0.	91.113
19044	22.339	2.	5.e-002	4.2074
19045	22.616	2.	0.	103.69
19046	22.524	1.9091	0.	97.746
19047	22.524	2.	5.e-002	4.224
19048	22.8	2.	0.	111.22
19049	22.708	1.9091	0.	104.88
19050	22.708	2.	5.e-002	4.2453
19051	22.985	2.	0.	119.28
19052	22.893	1.9091	0.	112.54
19053	22.893	2.	5.e-002	4.2719
19054	23.17	2.	0.	127.89
19055	23.077	1.9091	0.	120.76
19056	23.077	2.	5.e-002	4.3041
19057	23.354	2.	0.	137.03
19058	23.262	1.9091	0.	129.55
19059	23.262	2.	5.e-002	4.3425
19060	23.539	2.	0.	146.75
19061	23.446	1.9091	0.	138.9
19062	23.446	2.	5.e-002	4.3871
19063	23.723	2.	0.	156.96
19064	23.631	1.9091	0.	148.87
19065	23.631	2.	5.e-002	4.439
19066	23.815	1.9091	0.	159.25
19067	23.815	2.	5.e-002	4.5243
19068	23.908	2.	0.	166.98
19069	9.1435	1.8182	0.	1844.9
19070	9.0512	1.7273	0.	2547.7
19071	9.0512	1.8182	5.e-002	352.36
19072	8.9589	1.8182	0.	3039.
19073	9.328	1.8182	0.	741.92
19074	9.2358	1.7273	0.	1119.1
19075	9.2358	1.8182	5.e-002	117.92
19076	9.5126	1.8182	0.	294.24
19077	9.4203	1.7273	0.	510.68
19078	9.4203	1.8182	5.e-002	54.511
19079	9.6972	1.8182	0.	89.002
19080	9.6049	1.7273	0.	222.5
19081	9.6049	1.8182	5.e-002	39.213
19082	9.8817	1.8182	0.	9.9428
19083	9.7894	1.7273	0.	64.305
19084	9.7894	1.8182	5.e-002	30.668
19085	10.066	1.8182	0.	2.9011
19086	9.974	1.7273	0.	8.2618
19087	9.974	1.8182	5.e-002	24.77
19088	10.251	1.8182	0.	1.4829
19089	10.159	1.7273	0.	2.6684
19090	10.159	1.8182	5.e-002	20.592
19091	10.435	1.8182	0.	0.92927
19092	10.343	1.7273	0.	1.4248
19093	10.343	1.8182	5.e-002	17.442
19094	10.62	1.8182	0.	0.63048
19095	10.528	1.7273	0.	0.89052
19096	10.528	1.8182	5.e-002	14.989
19097	10.804	1.8182	0.	0.44935
19098	10.712	1.7273	0.	0.60567
19099	10.712	1.8182	5.e-002	13.038
19100	10.989	1.8182	0.	0.32842
19101	10.897	1.7273	0.	0.42926
19102	10.897	1.8182	5.e-002	11.468
19103	11.174	1.8182	0.	0.24411
19104	11.081	1.7273	0.	0.31245
19105	11.081	1.8182	5.e-002	10.199
19106	11.358	1.8182	0.	0.18339
19107	11.266	1.7273	0.	0.2312
19108	11.266	1.8182	5.e-002	9.1731
19109	11.543	1.8182	0.	0.13889
19110	11.45	1.7273	0.	0.17313
19111	11.45	1.8182	5.e-002	8.3458
19112	11.727	1.8182	0.	0.1059
19113	11.635	1.7273	0.	0.13085
19114	11.635	1.8182	5.e-002	7.6807
19115	11.912	1.8182	0.	8.127e-002
19116	11.82	1.7273	0.	9.9724e-002
19117	11.82	1.8182	5.e-002	7.1476
19118	12.096	1.8182	0.	6.277e-002
19119	12.004	1.7273	0.	7.6594e-002
19120	12.004	1.8182	5.e-002	6.7211
19121	12.281	1.8182	0.	4.8838e-002
19122	12.189	1.7273	0.	5.9277e-002
19123	12.189	1.8182	5.e-002	6.3798
19124	12.465	1.8182	0.	3.8338e-002
19125	12.373	1.7273	0.	4.6298e-002
19126	12.373	1.8182	5.e-002	6.106
19127	12.65	1.8182	0.	3.0401e-002
19128	12.558	1.7273	0.	3.6524e-002
19129	12.558	1.8182	5.e-002	5.8855
19130	12.835	1.8182	0.	2.4387e-002
19131	12.742	1.7273	0.	2.9131e-002
19132	12.742	1.8182	5.e-002	5.7065
19133	13.019	1.8182	0.	1.9833e-002
19134	12.927	1.7273	0.	2.3522e-002
19135	12.927	1.8182	5.e-002	5.5599
19136	13.204	1.8182	0.	1.6405e-002
19137	13.111	1.7273	0.	1.9274e-002
19138	13.111	1.8182	5.e-002	5.4385
19139	13.388	1.8182	0.	1.3823e-002
19140	13.296	1.7273	0.	1.608e-002
19141	13.296	1.8182	5.e-002	5.3367
19142	13.573	1.8182	0.	1.1869e-002
19143	13.48	1.7273	0.	1.3641e-002
19144	13.48	1.8182	5.e-002	5.2503
19145	13.757	1.8182	0.	1.0413e-002
19146	13.665	1.7273	0.	1.1794e-002
19147	13.665	1.8182	5.e-002	5.1758
19148	13.942	1.8182	0.	9.3443e-003
19149	13.85	1.7273	0.	1.0419e-002
19150	13.85	1.8182	5.e-002	5.1108
19151	14.126	1.8182	0.	8.565e-003
19152	14.034	1.7273	0.	9.3973e-003
19153	14.034	1.8182	5.e-002	5.0532
19154	14.311	1.8182	0.	8.0138e-003
19155	14.219	1.7273	0.	8.6454e-003
19156	14.219	1.8182	5.e-002	5.0016
19157	14.496	1.8182	0.	7.6574e-003
19158	14.403	1.7273	0.	8.1164e-003
19159	14.403	1.8182	5.e-002	4.9548
19160	14.68	1.8182	0.	7.4458e-003
19161	14.588	1.7273	0.	7.7837e-003
19162	14.588	1.8182	5.e-002	4.9119
19163	14.865	1.8182	0.	7.3375e-003
19164	14.772	1.7273	0.	7.5691e-003
19165	14.772	1.8182	5.e-002	4.8722
19166	15.049	1.8182	0.	7.3302e-003
19167	14.957	1.7273	0.	7.4673e-003
19168	14.957	1.8182	5.e-002	4.8352
19169	15.234	1.8182	0.	7.4161e-003
19170	15.141	1.7273	0.	7.4788e-003
19171	15.141	1.8182	5.e-002	4.8004
19172	15.418	1.8182	0.	7.5813e-003
19173	15.326	1.7273	0.	7.5871e-003
19174	15.326	1.8182	5.e-002	4.7675
19175	15.603	1.8182	0.	7.8321e-003
19176	15.511	1.7273	0.	7.785e-003
19177	15.511	1.8182	5.e-002	4.7362
19178	15.787	1.8182	0.	8.2022e-003
19179	15.695	1.7273	0.	8.1023e-003
19180	15.695	1.8182	5.e-002	4.7063
19181	15.972	1.8182	0.	8.723e-003
19182	15.88	1.7273	0.	8.5964e-003
19183	15.88	1.8182	5.e-002	4.6777
19184	16.157	1.8182	0.	9.4845e-003
19185	16.064	1.7273	0.	9.32e-003
19186	16.064	1.8182	5.e-002	4.6502
19187	16.341	1.8182	0.	1.0788e-002
19188	16.249	1.7273	0.	1.0536e-002
19189	16.249	1.8182	5.e-002	4.6237
19190	16.526	1.8182	0.	1.3755e-002
19191	16.433	1.7273	0.	1.3122e-002
19192	16.433	1.8182	5.e-002	4.598
19193	16.71	1.8182	0.	3.0903e-002
19194	16.618	1.7273	0.	2.3283e-002
19195	16.618	1.8182	5.e-002	4.5732
19196	16.895	1.8182	0.	1.3907
19197	16.802	1.7273	0.	0.82833
19198	16.802	1.8182	5.e-002	4.5491
19199	17.079	1.8182	0.	3.5172
19200	16.987	1.7273	0.	2.9072
19201	16.987	1.8182	5.e-002	4.5257
19202	17.264	1.8182	0.	5.5881
19203	17.172	1.7273	0.	4.9372
19204	17.172	1.8182	5.e-002	4.503
19205	17.448	1.8182	0.	7.6103
19206	17.356	1.7273	0.	6.9158
19207	17.356	1.8182	5.e-002	4.4809
19208	17.633	1.8182	0.	9.5953
19209	17.541	1.7273	0.	8.8531
19210	17.541	1.8182	5.e-002	4.4594
19211	17.817	1.8182	0.	11.555
19212	17.725	1.7273	0.	10.76
19213	17.725	1.8182	5.e-002	4.4385
19214	18.002	1.8182	0.	13.501
19215	17.91	1.7273	0.	12.649
19216	17.91	1.8182	5.e-002	4.4182
19217	18.187	1.8182	0.	15.445
19218	18.094	1.7273	0.	14.53
19219	18.094	1.8182	5.e-002	4.3985
19220	18.371	1.8182	0.	17.399
19221	18.279	1.7273	0.	16.415
19222	18.279	1.8182	5.e-002	4.3794
19223	18.556	1.8182	0.	19.375
19224	18.463	1.7273	0.	18.314
19225	18.463	1.8182	5.e-002	4.3608
19226	18.74	1.8182	0.	21.385
19227	18.648	1.7273	0.	20.241
19228	18.648	1.8182	5.e-002	4.3428
19229	18.925	1.8182	0.	23.441
19230	18.833	1.7273	0.	22.205
19231	18.833	1.8182	5.e-002	4.3255
19232	19.109	1.8182	0.	25.556
19233	19.017	1.7273	0.	24.219
19234	19.017	1.8182	5.e-002	4.3088
19235	19.294	1.8182	0.	27.742
19236	19.202	1.7273	0.	26.295
19237	19.202	1.8182	5.e-002	4.2927
19238	19.478	1.8182	0.	30.013
19239	19.386	1.7273	0.	28.445
19240	19.386	1.8182	5.e-002	4.2773
19241	19.663	1.8182	0.	32.383
19242	19.571	1.7273	0.	30.684
19243	19.571	1.8182	5.e-002	4.2627
19244	19.848	1.8182	0.	34.867
19245	19.755	1.7273	0.	33.023
19246	19.755	1.8182	5.e-002	4.2488
19247	20.032	1.8182	0.	37.479
19248	19.94	1.7273	0.	35.477
19249	19.94	1.8182	5.e-002	4.2358
19250	20.217	1.8182	0.	40.235
19251	20.124	1.7273	0.	38.062
19252	20.124	1.8182	5.e-002	4.2237
19253	20.401	1.8182	0.	43.153
19254	20.309	1.7273	0.	40.793
19255	20.309	1.8182	5.e-002	4.2126
19256	20.586	1.8182	0.	46.251
19257	20.493	1.7273	0.	43.687
19258	20.493	1.8182	5.e-002	4.2025
19259	20.77	1.8182	0.	49.547
19260	20.678	1.7273	0.	46.763
19261	20.678	1.8182	5.e-002	4.1937
19262	20.955	1.8182	0.	53.064
19263	20.863	1.7273	0.	50.039
19264	20.863	1.8182	5.e-002	4.1861
19265	21.139	1.8182	0.	56.824
19266	21.047	1.7273	0.	53.538
19267	21.047	1.8182	5.e-002	4.1801
19268	21.324	1.8182	0.	60.85
19269	21.232	1.7273	0.	57.282
19270	21.232	1.8182	5.e-002	4.1756
19271	21.509	1.8182	0.	65.168
19272	21.416	1.7273	0.	61.296
19273	21.416	1.8182	5.e-002	4.173
19274	21.693	1.8182	0.	69.808
19275	21.601	1.7273	0.	65.608
19276	21.601	1.8182	5.e-002	4.1725
19277	21.878	1.8182	0.	74.8
19278	21.785	1.7273	0.	70.248
19279	21.785	1.8182	5.e-002	4.1744
19280	22.062	1.8182	0.	80.176
19281	21.97	1.7273	0.	75.248
19282	21.97	1.8182	5.e-002	4.179
19283	22.247	1.8182	0.	85.971
19284	22.154	1.7273	0.	80.644
19285	22.154	1.8182	5.e-002	4.1868
19286	22.431	1.8182	0.	92.219
19287	22.339	1.7273	0.	86.474
19288	22.339	1.8182	5.e-002	4.1982
19289	22.616	1.8182	0.	98.958
19290	22.524	1.7273	0.	92.778
19291	22.524	1.8182	5.e-002	4.2139
19292	22.8	1.8182	0.	106.22
19293	22.708	1.7273	0.	99.595
19294	22.708	1.8182	5.e-002	4.2344
19295	22.985	1.8182	0.	114.04
19296	22.893	1.7273	0.	106.97
19297	22.893	1.8182	5.e-002	4.2606
19298	23.17	1.8182	0.	122.44
19299	23.077	1.7273	0.	114.92
19300	23.077	1.8182	5.e-002	4.293
19301	23.354	1.8182	0.	131.42
19302	23.262	1.7273	0.	123.49
19303	23.262	1.8182	5.e-002	4.3323
19304	23.539	1.8182	0.	141.02
19305	23.446	1.7273	0.	132.68
19306	23.446	1.8182	5.e-002	4.3788
19307	23.723	1.8182	0.	151.17
19308	23.631	1.7273	0.	142.54
19309	23.631	1.8182	5.e-002	4.4343
19310	23.815	1.7273	0.	152.89
19311	23.815	1.8182	5.e-002	4.5334
19312	23.908	1.8182	0.	161.11
19313	9.1435	1.6364	0.	1758.
19314	9.0512	1.5455	0.	2148.
19315	9.0512	1.6364	5.e-002	197.24
19316	8.9589	1.6364	0.	1957.4
19317	9.328	1.6364	0.	869.23
19318	9.2358	1.5455	0.	1124.
19319	9.2358	1.6364	5.e-002	77.142
19320	9.5126	1.6364	0.	428.85
19321	9.4203	1.5455	0.	606.64
19322	9.4203	1.6364	5.e-002	47.182
19323	9.6972	1.6364	0.	190.33
19324	9.6049	1.5455	0.	311.88
19325	9.6049	1.6364	5.e-002	33.967
19326	9.8817	1.6364	0.	58.063
19327	9.7894	1.5455	0.	139.62
19328	9.7894	1.6364	5.e-002	26.186
19329	10.066	1.6364	0.	8.5977
19330	9.974	1.5455	0.	42.738
19331	9.974	1.6364	5.e-002	21.409
19332	10.251	1.6364	0.	2.7824
19333	10.159	1.5455	0.	7.3919
19334	10.159	1.6364	5.e-002	17.885
19335	10.435	1.6364	0.	1.4597
19336	10.343	1.5455	0.	2.6259
19337	10.343	1.6364	5.e-002	15.206
19338	10.62	1.6364	0.	0.90364
19339	10.528	1.5455	0.	1.3954
19340	10.528	1.6364	5.e-002	13.112
19341	10.804	1.6364	0.	0.60706
19342	10.712	1.5455	0.	0.86583
19343	10.712	1.6364	5.e-002	11.449
19344	10.989	1.6364	0.	0.42611
19345	10.897	1.5455	0.	0.57853
19346	10.897	1.6364	5.e-002	10.122
19347	11.174	1.6364	0.	0.30746
19348	11.081	1.5455	0.	0.40358
19349	11.081	1.6364	5.e-002	9.0608
19350	11.358	1.6364	0.	0.22595
19351	11.266	1.5455	0.	0.28933
19352	11.266	1.6364	5.e-002	8.2155
19353	11.543	1.6364	0.	0.16833
19354	11.45	1.5455	0.	0.21148
19355	11.45	1.6364	5.e-002	7.5451
19356	11.727	1.6364	0.	0.12679
19357	11.635	1.5455	0.	0.15692
19358	11.635	1.6364	5.e-002	7.0159
19359	11.912	1.6364	0.	9.6456e-002
19360	11.82	1.5455	0.	0.11794
19361	11.82	1.6364	5.e-002	6.5997
19362	12.096	1.6364	0.	7.4053e-002
19363	12.004	1.5455	0.	8.9666e-002
19364	12.004	1.6364	5.e-002	6.2726
19365	12.281	1.6364	0.	5.7392e-002
19366	12.189	1.5455	0.	6.892e-002
19367	12.189	1.6364	5.e-002	6.015
19368	12.465	1.6364	0.	4.4942e-002
19369	12.373	1.5455	0.	5.355e-002
19370	12.373	1.6364	5.e-002	5.8109
19371	12.65	1.6364	0.	3.5579e-002
19372	12.558	1.5455	0.	4.2107e-002
19373	12.558	1.6364	5.e-002	5.6477
19374	12.835	1.6364	0.	2.85e-002
19375	12.742	1.5455	0.	3.3507e-002
19376	12.742	1.6364	5.e-002	5.5156
19377	13.019	1.6364	0.	2.3133e-002
19378	12.927	1.5455	0.	2.7002e-002
19379	12.927	1.6364	5.e-002	5.4071
19380	13.204	1.6364	0.	1.9073e-002
19381	13.111	1.5455	0.	2.2072e-002
19382	13.111	1.6364	5.e-002	5.3164
19383	13.388	1.6364	0.	1.5989e-002
19384	13.296	1.5455	0.	1.8347e-002
19385	13.296	1.6364	5.e-002	5.2392
19386	13.573	1.6364	0.	1.3631e-002
19387	13.48	1.5455	0.	1.5484e-002
19388	13.48	1.6364	5.e-002	5.1725
19389	13.757	1.6364	0.	1.1846e-002
19390	13.665	1.5455	0.	1.3295e-002
19391	13.665	1.6364	5.e-002	5.1137
19392	13.942	1.6364	0.	1.0504e-002
19393	13.85	1.5455	0.	1.1637e-002
19394	13.85	1.6364	5.e-002	5.0611
19395	14.126	1.6364	0.	9.4985e-003
19396	14.034	1.5455	0.	1.0381e-002
19397	14.034	1.6364	5.e-002	5.0135
19398	14.311	1.6364	0.	8.7595e-003
19399	14.219	1.5455	0.	9.4334e-003
19400	14.219	1.6364	5.e-002	4.9697
19401	14.496	1.6364	0.	8.2465e-003
19402	14.403	1.5455	0.	8.7402e-003
19403	14.403	1.6364	5.e-002	4.9291
19404	14.68	1.6364	0.	7.9044e-003
19405	14.588	1.5455	0.	8.2706e-003
19406	14.588	1.6364	5.e-002	4.8912
19407	14.865	1.6364	0.	7.6907e-003
19408	14.772	1.5455	0.	7.9439e-003
19409	14.772	1.6364	5.e-002	4.8554
19410	15.049	1.6364	0.	7.6028e-003
19411	14.957	1.5455	0.	7.7549e-003
19412	14.957	1.6364	5.e-002	4.8215
19413	15.234	1.6364	0.	7.6322e-003
19414	15.141	1.5455	0.	7.7032e-003
19415	15.141	1.6364	5.e-002	4.7892
19416	15.418	1.6364	0.	7.7687e-003
19417	15.326	1.5455	0.	7.7786e-003
19418	15.326	1.6364	5.e-002	4.7582
19419	15.603	1.6364	0.	8.0279e-003
19420	15.511	1.5455	0.	7.979e-003
19421	15.511	1.6364	5.e-002	4.7285
19422	15.787	1.6364	0.	8.4616e-003
19423	15.695	1.5455	0.	8.356e-003
19424	15.695	1.6364	5.e-002	4.6998
19425	15.972	1.6364	0.	9.1434e-003
19426	15.88	1.5455	0.	9.0042e-003
19427	15.88	1.6364	5.e-002	4.6722
19428	16.157	1.6364	0.	1.0277e-002
19429	16.064	1.5455	0.	1.0086e-002
19430	16.064	1.6364	5.e-002	4.6454
19431	16.341	1.6364	0.	1.2569e-002
19432	16.249	1.5455	0.	1.2215e-002
19433	16.249	1.6364	5.e-002	4.6195
19434	16.526	1.6364	0.	1.9866e-002
19435	16.433	1.5455	0.	1.8281e-002
19436	16.433	1.6364	5.e-002	4.5944
19437	16.71	1.6364	0.	0.35658
19438	16.618	1.5455	0.	0.12241
19439	16.618	1.6364	5.e-002	4.5699
19440	16.895	1.6364	0.	2.3612
19441	16.802	1.5455	0.	1.9243
19442	16.802	1.6364	5.e-002	4.5462
19443	17.079	1.6364	0.	4.3538
19444	16.987	1.5455	0.	3.8678
19445	16.987	1.6364	5.e-002	4.523
19446	17.264	1.6364	0.	6.2929
19447	17.172	1.5455	0.	5.7574
19448	17.172	1.6364	5.e-002	4.5005
19449	17.448	1.6364	0.	8.1875
19450	17.356	1.5455	0.	7.6001
19451	17.356	1.6364	5.e-002	4.4786
19452	17.633	1.6364	0.	10.048
19453	17.541	1.5455	0.	9.4053
19454	17.541	1.6364	5.e-002	4.4573
19455	17.817	1.6364	0.	11.885
19456	17.725	1.5455	0.	11.183
19457	17.725	1.6364	5.e-002	4.4365
19458	18.002	1.6364	0.	13.709
19459	17.91	1.5455	0.	12.944
19460	17.91	1.6364	5.e-002	4.4163
19461	18.187	1.6364	0.	15.532
19462	18.094	1.5455	0.	14.697
19463	18.094	1.6364	5.e-002	4.3966
19464	18.371	1.6364	0.	17.363
19465	18.279	1.5455	0.	16.453
19466	18.279	1.6364	5.e-002	4.3775
19467	18.556	1.6364	0.	19.213
19468	18.463	1.5455	0.	18.223
19469	18.463	1.6364	5.e-002	4.359
19470	18.74	1.6364	0.	21.095
19471	18.648	1.5455	0.	20.015
19472	18.648	1.6364	5.e-002	4.341
19473	18.925	1.6364	0.	23.017
19474	18.833	1.5455	0.	21.842
19475	18.833	1.6364	5.e-002	4.3236
19476	19.109	1.6364	0.	24.993
19477	19.017	1.5455	0.	23.713
19478	19.017	1.6364	5.e-002	4.3069
19479	19.294	1.6364	0.	27.034
19480	19.202	1.5455	0.	25.64
19481	19.202	1.6364	5.e-002	4.2908
19482	19.478	1.6364	0.	29.152
19483	19.386	1.5455	0.	27.634
19484	19.386	1.6364	5.e-002	4.2753
19485	19.663	1.6364	0.	31.36
19486	19.571	1.5455	0.	29.706
19487	19.571	1.6364	5.e-002	4.2606
19488	19.848	1.6364	0.	33.67
19489	19.755	1.5455	0.	31.869
19490	19.755	1.6364	5.e-002	4.2466
19491	20.032	1.6364	0.	36.098
19492	19.94	1.5455	0.	34.136
19493	19.94	1.6364	5.e-002	4.2334
19494	20.217	1.6364	0.	38.658
19495	20.124	1.5455	0.	36.521
19496	20.124	1.6364	5.e-002	4.2212
19497	20.401	1.6364	0.	41.366
19498	20.309	1.5455	0.	39.038
19499	20.309	1.6364	5.e-002	4.2098
19500	20.586	1.6364	0.	44.238
19501	20.493	1.5455	0.	41.702
19502	20.493	1.6364	5.e-002	4.1995
19503	20.77	1.6364	0.	47.293
19504	20.678	1.5455	0.	44.531
19505	20.678	1.6364	5.e-002	4.1903
19506	20.955	1.6364	0.	50.552
19507	20.863	1.5455	0.	47.543
19508	20.863	1.6364	5.e-002	4.1823
19509	21.139	1.6364	0.	54.035
19510	21.047	1.5455	0.	50.759
19511	21.047	1.6364	5.e-002	4.1758
19512	21.324	1.6364	0.	57.767
19513	21.232	1.5455	0.	54.199
19514	21.232	1.6364	5.e-002	4.1707
19515	21.509	1.6364	0.	61.773
19516	21.416	1.5455	0.	57.889
19517	21.416	1.6364	5.e-002	4.1675
19518	21.693	1.6364	0.	66.084
19519	21.601	1.5455	0.	61.857
19520	21.601	1.6364	5.e-002	4.1661
19521	21.878	1.6364	0.	70.731
19522	21.785	1.5455	0.	66.133
19523	21.785	1.6364	5.e-002	4.1671
19524	22.062	1.6364	0.	75.75
19525	21.97	1.5455	0.	70.752
19526	21.97	1.6364	5.e-002	4.1707
19527	22.247	1.6364	0.	81.18
19528	22.154	1.5455	0.	75.753
19529	22.154	1.6364	5.e-002	4.1773
19530	22.431	1.6364	0.	87.063
19531	22.339	1.5455	0.	81.178
19532	22.339	1.6364	5.e-002	4.1875
19533	22.616	1.6364	0.	93.442
19534	22.524	1.5455	0.	87.076
19535	22.524	1.6364	5.e-002	4.202
19536	22.8	1.6364	0.	100.36
19537	22.708	1.5455	0.	93.496
19538	22.708	1.6364	5.e-002	4.2215
19539	22.985	1.6364	0.	107.87
19540	22.893	1.5455	0.	100.49
19541	22.893	1.6364	5.e-002	4.2469
19542	23.17	1.6364	0.	115.99
19543	23.077	1.5455	0.	108.11
19544	23.077	1.6364	5.e-002	4.2793
19545	23.354	1.6364	0.	124.76
19546	23.262	1.5455	0.	116.39
19547	23.262	1.6364	5.e-002	4.3194
19548	23.539	1.6364	0.	134.21
19549	23.446	1.5455	0.	125.36
19550	23.446	1.6364	5.e-002	4.3681
19551	23.723	1.6364	0.	144.27
19552	23.631	1.5455	0.	135.07
19553	23.631	1.6364	5.e-002	4.428
19554	23.815	1.5455	0.	145.37
19555	23.815	1.6364	5.e-002	4.5435
19556	23.908	1.6364	0.	154.11
19557	9.1435	1.4545	0.	1437.1
19558	9.0512	1.3636	0.	1652.4
19559	9.0512	1.4545	5.e-002	129.82
19560	8.9589	1.4545	0.	1534.
19561	9.328	1.4545	0.	833.91
19562	9.2358	1.3636	0.	987.92
19563	9.2358	1.4545	5.e-002	75.941
19564	9.5126	1.4545	0.	474.38
19565	9.4203	1.3636	0.	595.16
19566	9.4203	1.4545	5.e-002	45.369
19567	9.6972	1.4545	0.	252.02
19568	9.6049	1.3636	0.	343.77
19569	9.6049	1.4545	5.e-002	31.992
19570	9.8817	1.4545	0.	118.19
19571	9.7894	1.3636	0.	186.89
19572	9.7894	1.4545	5.e-002	24.077
19573	10.066	1.4545	0.	40.403
19574	9.974	1.3636	0.	90.668
19575	9.974	1.4545	5.e-002	19.254
19576	10.251	1.4545	0.	8.224
19577	10.159	1.3636	0.	33.426
19578	10.159	1.4545	5.e-002	15.858
19579	10.435	1.4545	0.	2.811
19580	10.343	1.3636	0.	8.0421
19581	10.343	1.4545	5.e-002	13.346
19582	10.62	1.4545	0.	1.4527
19583	10.528	1.3636	0.	2.8011
19584	10.528	1.4545	5.e-002	11.42
19585	10.804	1.4545	0.	0.88207
19586	10.712	1.3636	0.	1.426
19587	10.712	1.4545	5.e-002	9.9271
19588	10.989	1.4545	0.	0.5794
19589	10.897	1.3636	0.	0.85101
19590	10.897	1.4545	5.e-002	8.7687
19591	11.174	1.4545	0.	0.39844
19592	11.081	1.3636	0.	0.55043
19593	11.081	1.4545	5.e-002	7.875
19594	11.358	1.4545	0.	0.28236
19595	11.266	1.3636	0.	0.37357
19596	11.266	1.4545	5.e-002	7.1919
19597	11.543	1.4545	0.	0.20454
19598	11.45	1.3636	0.	0.262
19599	11.45	1.4545	5.e-002	6.6747
19600	11.727	1.4545	0.	0.15079
19601	11.635	1.3636	0.	0.18837
19602	11.635	1.4545	5.e-002	6.2863
19603	11.912	1.4545	0.	0.11285
19604	11.82	1.3636	0.	0.13822
19605	11.82	1.4545	5.e-002	5.9958
19606	12.096	1.4545	0.	8.5604e-002
19607	12.004	1.3636	0.	0.10321
19608	12.004	1.4545	5.e-002	5.7781
19609	12.281	1.4545	0.	6.5776e-002
19610	12.189	1.3636	0.	7.8281e-002
19611	12.189	1.4545	5.e-002	5.6136
19612	12.465	1.4545	0.	5.12e-002
19613	12.373	1.3636	0.	6.0286e-002
19614	12.373	1.4545	5.e-002	5.4873
19615	12.65	1.4545	0.	4.0368e-002
19616	12.558	1.3636	0.	4.7109e-002
19617	12.558	1.4545	5.e-002	5.3882
19618	12.835	1.4545	0.	3.2244e-002
19619	12.742	1.3636	0.	3.7332e-002
19620	12.742	1.4545	5.e-002	5.3083
19621	13.019	1.4545	0.	2.6109e-002
19622	12.927	1.3636	0.	3.0001e-002
19623	12.927	1.4545	5.e-002	5.2418
19624	13.204	1.4545	0.	2.1468e-002
19625	13.111	1.3636	0.	2.4466e-002
19626	13.111	1.4545	5.e-002	5.1848
19627	13.388	1.4545	0.	1.7931e-002
19628	13.296	1.3636	0.	2.0282e-002
19629	13.296	1.4545	5.e-002	5.1345
19630	13.573	1.4545	0.	1.5211e-002
19631	13.48	1.3636	0.	1.7058e-002
19632	13.48	1.4545	5.e-002	5.0892
19633	13.757	1.4545	0.	1.313e-002
19634	13.665	1.3636	0.	1.4576e-002
19635	13.665	1.4545	5.e-002	5.0473
19636	13.942	1.4545	0.	1.1544e-002
19637	13.85	1.3636	0.	1.2677e-002
19638	13.85	1.4545	5.e-002	5.0082
19639	14.126	1.4545	0.	1.0334e-002
19640	14.034	1.3636	0.	1.122e-002
19641	14.034	1.4545	5.e-002	4.9712
19642	14.311	1.4545	0.	9.4221e-003
19643	14.219	1.3636	0.	1.0099e-002
19644	14.219	1.4545	5.e-002	4.9358
19645	14.496	1.4545	0.	8.764e-003
19646	14.403	1.3636	0.	9.2602e-003
19647	14.403	1.4545	5.e-002	4.9019
19648	14.68	1.4545	0.	8.3027e-003
19649	14.588	1.3636	0.	8.6697e-003
19650	14.588	1.4545	5.e-002	4.8691
19651	14.865	1.4545	0.	7.9945e-003
19652	14.772	1.3636	0.	8.2456e-003
19653	14.772	1.4545	5.e-002	4.8375
19654	15.049	1.4545	0.	7.8359e-003
19655	14.957	1.3636	0.	7.9834e-003
19656	14.957	1.4545	5.e-002	4.8069
19657	15.234	1.4545	0.	7.8246e-003
19658	15.141	1.3636	0.	7.8867e-003
19659	15.141	1.4545	5.e-002	4.7771
19660	15.418	1.4545	0.	7.9583e-003
19661	15.326	1.3636	0.	7.9556e-003
19662	15.326	1.4545	5.e-002	4.7482
19663	15.603	1.4545	0.	8.2699e-003
19664	15.511	1.3636	0.	8.206e-003
19665	15.511	1.4545	5.e-002	4.7202
19666	15.787	1.4545	0.	8.8511e-003
19667	15.695	1.3636	0.	8.73e-003
19668	15.695	1.4545	5.e-002	4.6928
19669	15.972	1.4545	0.	9.8757e-003
19670	15.88	1.3636	0.	9.7243e-003
19671	15.88	1.4545	5.e-002	4.6662
19672	16.157	1.4545	0.	1.1868e-002
19673	16.064	1.3636	0.	1.166e-002
19674	16.064	1.4545	5.e-002	4.6403
19675	16.341	1.4545	0.	1.7136e-002
19676	16.249	1.3636	0.	1.6614e-002
19677	16.249	1.4545	5.e-002	4.615
19678	16.526	1.4545	0.	6.3185e-002
19679	16.433	1.3636	0.	4.9599e-002
19680	16.433	1.4545	5.e-002	4.5904
19681	16.71	1.4545	0.	1.5598
19682	16.618	1.3636	0.	1.3176
19683	16.618	1.4545	5.e-002	4.5664
19684	16.895	1.4545	0.	3.4557
19685	16.802	1.3636	0.	3.1551
19686	16.802	1.4545	5.e-002	4.5429
19687	17.079	1.4545	0.	5.2988
19688	16.987	1.3636	0.	4.9417
19689	16.987	1.4545	5.e-002	4.5201
19690	17.264	1.4545	0.	7.093
19691	17.172	1.3636	0.	6.6785
19692	17.172	1.4545	5.e-002	4.4978
19693	17.448	1.4545	0.	8.8472
19694	17.356	1.3636	0.	8.3732
19695	17.356	1.4545	5.e-002	4.4761
19696	17.633	1.4545	0.	10.571
19697	17.541	1.3636	0.	10.035
19698	17.541	1.4545	5.e-002	4.4549
19699	17.817	1.4545	0.	12.273
19700	17.725	1.3636	0.	11.671
19701	17.725	1.4545	5.e-002	4.4342
19702	18.002	1.4545	0.	13.963
19703	17.91	1.3636	0.	13.292
19704	17.91	1.4545	5.e-002	4.4141
19705	18.187	1.4545	0.	15.651
19706	18.094	1.3636	0.	14.906
19707	18.094	1.4545	5.e-002	4.3945
19708	18.371	1.4545	0.	17.346
19709	18.279	1.3636	0.	16.522
19710	18.279	1.4545	5.e-002	4.3754
19711	18.556	1.4545	0.	19.059
19712	18.463	1.3636	0.	18.15
19713	18.463	1.4545	5.e-002	4.3569
19714	18.74	1.4545	0.	20.798
19715	18.648	1.3636	0.	19.797
19716	18.648	1.4545	5.e-002	4.3389
19717	18.925	1.4545	0.	22.574
19718	18.833	1.3636	0.	21.473
19719	18.833	1.4545	5.e-002	4.3215
19720	19.109	1.4545	0.	24.396
19721	19.017	1.3636	0.	23.189
19722	19.017	1.4545	5.e-002	4.3048
19723	19.294	1.4545	0.	26.277
19724	19.202	1.3636	0.	24.953
19725	19.202	1.4545	5.e-002	4.2886
19726	19.478	1.4545	0.	28.225
19727	19.386	1.3636	0.	26.775
19728	19.386	1.4545	5.e-002	4.2731
19729	19.663	1.4545	0.	30.254
19730	19.571	1.3636	0.	28.667
19731	19.571	1.4545	5.e-002	4.2582
19732	19.848	1.4545	0.	32.374
19733	19.755	1.3636	0.	30.638
19734	19.755	1.4545	5.e-002	4.2441
19735	20.032	1.4545	0.	34.599
19736	19.94	1.3636	0.	32.701
19737	19.94	1.4545	5.e-002	4.2308
19738	20.217	1.4545	0.	36.941
19739	20.124	1.3636	0.	34.867
19740	20.124	1.4545	5.e-002	4.2183
19741	20.401	1.4545	0.	39.415
19742	20.309	1.3636	0.	37.149
19743	20.309	1.4545	5.e-002	4.2067
19744	20.586	1.4545	0.	42.037
19745	20.493	1.3636	0.	39.562
19746	20.493	1.4545	5.e-002	4.1961
19747	20.77	1.4545	0.	44.823
19748	20.678	1.3636	0.	42.12
19749	20.678	1.4545	5.e-002	4.1865
19750	20.955	1.4545	0.	47.792
19751	20.863	1.3636	0.	44.84
19752	20.863	1.4545	5.e-002	4.1781
19753	21.139	1.4545	0.	50.965
19754	21.047	1.3636	0.	47.741
19755	21.047	1.4545	5.e-002	4.171
19756	21.324	1.4545	0.	54.364
19757	21.232	1.3636	0.	50.844
19758	21.232	1.4545	5.e-002	4.1653
19759	21.509	1.4545	0.	58.015
19760	21.416	1.3636	0.	54.171
19761	21.416	1.4545	5.e-002	4.1613
19762	21.693	1.4545	0.	61.948
19763	21.601	1.3636	0.	57.75
19764	21.601	1.4545	5.e-002	4.1591
19765	21.878	1.4545	0.	66.195
19766	21.785	1.3636	0.	61.611
19767	21.785	1.4545	5.e-002	4.159
19768	22.062	1.4545	0.	70.794
19769	21.97	1.3636	0.	65.79
19770	21.97	1.4545	5.e-002	4.1614
19771	22.247	1.4545	0.	75.789
19772	22.154	1.3636	0.	70.327
19773	22.154	1.4545	5.e-002	4.1667
19774	22.431	1.4545	0.	81.227
19775	22.339	1.3636	0.	75.272
19776	22.339	1.4545	5.e-002	4.1755
19777	22.616	1.4545	0.	87.163
19778	22.524	1.3636	0.	80.677
19779	22.524	1.4545	5.e-002	4.1884
19780	22.8	1.4545	0.	93.654
19781	22.708	1.3636	0.	86.605
19782	22.708	1.4545	5.e-002	4.2065
19783	22.985	1.4545	0.	100.76
19784	22.893	1.3636	0.	93.123
19785	22.893	1.4545	5.e-002	4.2308
19786	23.17	1.4545	0.	108.53
19787	23.077	1.3636	0.	100.3
19788	23.077	1.4545	5.e-002	4.2626
19789	23.354	1.4545	0.	117.
19790	23.262	1.3636	0.	108.2
19791	23.262	1.4545	5.e-002	4.3034
19792	23.539	1.4545	0.	126.24
19793	23.446	1.3636	0.	116.86
19794	23.446	1.4545	5.e-002	4.3544
19795	23.723	1.4545	0.	136.18
19796	23.631	1.3636	0.	126.37
19797	23.631	1.4545	5.e-002	4.4195
19798	23.815	1.3636	0.	136.59
19799	23.815	1.4545	5.e-002	4.5543
19800	23.908	1.4545	0.	145.9
19801	9.1435	1.2727	0.	1150.5
19802	9.0512	1.1818	0.	1278.1
19803	9.0512	1.2727	5.e-002	102.56
19804	8.9589	1.2727	0.	1161.7
19805	9.328	1.2727	0.	717.9
19806	9.2358	1.1818	0.	802.35
19807	9.2358	1.2727	5.e-002	61.153
19808	9.5126	1.2727	0.	446.4
19809	9.4203	1.1818	0.	517.64
19810	9.4203	1.2727	5.e-002	44.679
19811	9.6972	1.2727	0.	267.83
19812	9.6049	1.1818	0.	326.99
19813	9.6049	1.2727	5.e-002	32.088
19814	9.8817	1.2727	0.	152.93
19815	9.7894	1.1818	0.	201.65
19816	9.7894	1.2727	5.e-002	24.016
19817	10.066	1.2727	0.	80.149
19818	9.974	1.1818	0.	120.54
19819	9.974	1.2727	5.e-002	18.606
19820	10.251	1.2727	0.	34.745
19821	10.159	1.1818	0.	67.757
19822	10.159	1.2727	5.e-002	14.85
19823	10.435	1.2727	0.	10.397
19824	10.343	1.1818	0.	33.206
19825	10.343	1.2727	5.e-002	12.123
19826	10.62	1.2727	0.	3.3221
19827	10.528	1.1818	0.	12.113
19828	10.528	1.2727	5.e-002	10.097
19829	10.804	1.2727	0.	1.5597
19830	10.712	1.1818	0.	3.7831
19831	10.712	1.2727	5.e-002	8.5889
19832	10.989	1.2727	0.	0.88614
19833	10.897	1.1818	0.	1.6215
19834	10.897	1.2727	5.e-002	7.4789
19835	11.174	1.2727	0.	0.55424
19836	11.081	1.1818	0.	0.87056
19837	11.081	1.2727	5.e-002	6.681
19838	11.358	1.2727	0.	0.36719
19839	11.266	1.1818	0.	0.52511
19840	11.266	1.2727	5.e-002	6.1246
19841	11.543	1.2727	0.	0.25307
19842	11.45	1.1818	0.	0.33961
19843	11.45	1.2727	5.e-002	5.7493
19844	11.727	1.2727	0.	0.17973
19845	11.635	1.1818	0.	0.2304
19846	11.635	1.2727	5.e-002	5.5038
19847	11.912	1.2727	0.	0.13081
19848	11.82	1.1818	0.	0.16208
19849	11.82	1.2727	5.e-002	5.3471
19850	12.096	1.2727	0.	9.7216e-002
19851	12.004	1.1818	0.	0.11741
19852	12.004	1.2727	5.e-002	5.2485
19853	12.281	1.2727	0.	7.3613e-002
19854	12.189	1.1818	0.	8.7159e-002
19855	12.189	1.2727	5.e-002	5.1858
19856	12.465	1.2727	0.	5.6724e-002
19857	12.373	1.1818	0.	6.6143e-002
19858	12.373	1.2727	5.e-002	5.1445
19859	12.65	1.2727	0.	4.4426e-002
19860	12.558	1.1818	0.	5.1194e-002
19861	12.558	1.2727	5.e-002	5.1149
19862	12.835	1.2727	0.	3.5333e-002
19863	12.742	1.1818	0.	4.0334e-002
19864	12.742	1.2727	5.e-002	5.091
19865	13.019	1.2727	0.	2.8531e-002
19866	12.927	1.1818	0.	3.2306e-002
19867	12.927	1.2727	5.e-002	5.0695
19868	13.204	1.2727	0.	2.3405e-002
19869	13.111	1.1818	0.	2.6297e-002
19870	13.111	1.2727	5.e-002	5.0482
19871	13.388	1.2727	0.	1.9499e-002
19872	13.296	1.1818	0.	2.1768e-002
19873	13.296	1.2727	5.e-002	5.0262
19874	13.573	1.2727	0.	1.6488e-002
19875	13.48	1.1818	0.	1.8277e-002
19876	13.48	1.2727	5.e-002	5.0032
19877	13.757	1.2727	0.	1.4168e-002
19878	13.665	1.1818	0.	1.5577e-002
19879	13.665	1.2727	5.e-002	4.9791
19880	13.942	1.2727	0.	1.2382e-002
19881	13.85	1.1818	0.	1.3494e-002
19882	13.85	1.2727	5.e-002	4.9538
19883	14.126	1.2727	0.	1.1001e-002
19884	14.034	1.1818	0.	1.1877e-002
19885	14.034	1.2727	5.e-002	4.9277
19886	14.311	1.2727	0.	9.9425e-003
19887	14.219	1.1818	0.	1.0617e-002
19888	14.219	1.2727	5.e-002	4.901
19889	14.496	1.2727	0.	9.1615e-003
19890	14.403	1.1818	0.	9.6567e-003
19891	14.403	1.2727	5.e-002	4.8738
19892	14.68	1.2727	0.	8.5997e-003
19893	14.588	1.1818	0.	8.9645e-003
19894	14.588	1.2727	5.e-002	4.8465
19895	14.865	1.2727	0.	8.214e-003
19896	14.772	1.1818	0.	8.4599e-003
19897	14.772	1.2727	5.e-002	4.8191
19898	15.049	1.2727	0.	8.0065e-003
19899	14.957	1.1818	0.	8.1443e-003
19900	14.957	1.2727	5.e-002	4.7918
19901	15.234	1.2727	0.	7.9833e-003
19902	15.141	1.1818	0.	8.0334e-003
19903	15.141	1.2727	5.e-002	4.7647
19904	15.418	1.2727	0.	8.1624e-003
19905	15.326	1.1818	0.	8.1451e-003
19906	15.326	1.2727	5.e-002	4.7379
19907	15.603	1.2727	0.	8.6185e-003
19908	15.511	1.1818	0.	8.5448e-003
19909	15.511	1.2727	5.e-002	4.7114
19910	15.787	1.2727	0.	9.5472e-003
19911	15.695	1.1818	0.	9.4316e-003
19912	15.695	1.2727	5.e-002	4.6854
19913	15.972	1.2727	0.	1.1433e-002
19914	15.88	1.1818	0.	1.1344e-002
19915	15.88	1.2727	5.e-002	4.6598
19916	16.157	1.2727	0.	1.62e-002
19917	16.064	1.1818	0.	1.6271e-002
19918	16.064	1.2727	5.e-002	4.6348
19919	16.341	1.2727	0.	4.4011e-002
19920	16.249	1.1818	0.	4.5468e-002
19921	16.249	1.2727	5.e-002	4.6102
19922	16.526	1.2727	0.	1.1562
19923	16.433	1.1818	0.	1.1259
19924	16.433	1.2727	5.e-002	4.5861
19925	16.71	1.2727	0.	2.9361
19926	16.618	1.1818	0.	2.8401
19927	16.618	1.2727	5.e-002	4.5625
19928	16.895	1.2727	0.	4.6678
19929	16.802	1.1818	0.	4.5075
19930	16.802	1.2727	5.e-002	4.5395
19931	17.079	1.2727	0.	6.3493
19932	16.987	1.1818	0.	6.1249
19933	16.987	1.2727	5.e-002	4.5169
19934	17.264	1.2727	0.	7.9876
19935	17.172	1.1818	0.	7.6985
19936	17.172	1.2727	5.e-002	4.4948
19937	17.448	1.2727	0.	9.5904
19938	17.356	1.1818	0.	9.2354
19939	17.356	1.2727	5.e-002	4.4733
19940	17.633	1.2727	0.	11.166
19941	17.541	1.1818	0.	10.743
19942	17.541	1.2727	5.e-002	4.4522
19943	17.817	1.2727	0.	12.722
19944	17.725	1.1818	0.	12.229
19945	17.725	1.2727	5.e-002	4.4317
19946	18.002	1.2727	0.	14.268
19947	17.91	1.1818	0.	13.7
19948	17.91	1.2727	5.e-002	4.4116
19949	18.187	1.2727	0.	15.811
19950	18.094	1.1818	0.	15.165
19951	18.094	1.2727	5.e-002	4.3921
19952	18.371	1.2727	0.	17.359
19953	18.279	1.1818	0.	16.631
19954	18.279	1.2727	5.e-002	4.3731
19955	18.556	1.2727	0.	18.922
19956	18.463	1.1818	0.	18.106
19957	18.463	1.2727	5.e-002	4.3546
19958	18.74	1.2727	0.	20.508
19959	18.648	1.1818	0.	19.598
19960	18.648	1.2727	5.e-002	4.3366
19961	18.925	1.2727	0.	22.125
19962	18.833	1.1818	0.	21.114
19963	18.833	1.2727	5.e-002	4.3192
19964	19.109	1.2727	0.	23.783
19965	19.017	1.1818	0.	22.663
19966	19.017	1.2727	5.e-002	4.3024
19967	19.294	1.2727	0.	25.49
19968	19.202	1.1818	0.	24.253
19969	19.202	1.2727	5.e-002	4.2861
19970	19.478	1.2727	0.	27.256
19971	19.386	1.1818	0.	25.893
19972	19.386	1.2727	5.e-002	4.2705
19973	19.663	1.2727	0.	29.091
19974	19.571	1.1818	0.	27.591
19975	19.571	1.2727	5.e-002	4.2556
19976	19.848	1.2727	0.	31.005
19977	19.755	1.1818	0.	29.357
19978	19.755	1.2727	5.e-002	4.2414
19979	20.032	1.2727	0.	33.01
19980	19.94	1.1818	0.	31.201
19981	19.94	1.2727	5.e-002	4.2278
19982	20.217	1.2727	0.	35.117
19983	20.124	1.1818	0.	33.134
19984	20.124	1.2727	5.e-002	4.2151
19985	20.401	1.2727	0.	37.339
19986	20.309	1.1818	0.	35.165
19987	20.309	1.2727	5.e-002	4.2033
19988	20.586	1.2727	0.	39.689
19989	20.493	1.1818	0.	37.307
19990	20.493	1.2727	5.e-002	4.1923
19991	20.77	1.2727	0.	42.182
19992	20.678	1.1818	0.	39.574
19993	20.678	1.2727	5.e-002	4.1824
19994	20.955	1.2727	0.	44.835
19995	20.863	1.1818	0.	41.98
19996	20.863	1.2727	5.e-002	4.1735
19997	21.139	1.2727	0.	47.666
19998	21.047	1.1818	0.	44.541
19999	21.047	1.2727	5.e-002	4.1658
20000	21.324	1.2727	0.	50.698
20001	21.232	1.1818	0.	47.276
20002	21.232	1.2727	5.e-002	4.1595
20003	21.509	1.2727	0.	53.953
20004	21.416	1.1818	0.	50.206
20005	21.416	1.2727	5.e-002	4.1547
20006	21.693	1.2727	0.	57.461
20007	21.601	1.1818	0.	53.355
20008	21.601	1.2727	5.e-002	4.1515
20009	21.878	1.2727	0.	61.253
20010	21.785	1.1818	0.	56.753
20011	21.785	1.2727	5.e-002	4.1503
20012	22.062	1.2727	0.	65.37
20013	21.97	1.1818	0.	60.435
20014	21.97	1.2727	5.e-002	4.1514
20015	22.247	1.2727	0.	69.856
20016	22.154	1.1818	0.	64.442
20017	22.154	1.2727	5.e-002	4.1551
20018	22.431	1.2727	0.	74.765
20019	22.339	1.1818	0.	68.824
20020	22.339	1.2727	5.e-002	4.1621
20021	22.616	1.2727	0.	80.16
20022	22.524	1.1818	0.	73.642
20023	22.524	1.2727	5.e-002	4.1732
20024	22.8	1.2727	0.	86.112
20025	22.708	1.1818	0.	78.967
20026	22.708	1.2727	5.e-002	4.1893
20027	22.985	1.2727	0.	92.699
20028	22.893	1.1818	0.	84.885
20029	22.893	1.2727	5.e-002	4.2118
20030	23.17	1.2727	0.	100.
20031	23.077	1.1818	0.	91.486
20032	23.077	1.2727	5.e-002	4.2426
20033	23.354	1.2727	0.	108.08
20034	23.262	1.1818	0.	98.872
20035	23.262	1.2727	5.e-002	4.2835
20036	23.539	1.2727	0.	117.02
20037	23.446	1.1818	0.	107.11
20038	23.446	1.2727	5.e-002	4.3368
20039	23.723	1.2727	0.	126.8
20040	23.631	1.1818	0.	116.33
20041	23.631	1.2727	5.e-002	4.408
20042	23.815	1.1818	0.	126.43
20043	23.815	1.2727	5.e-002	4.5652
20044	23.908	1.2727	0.	136.36
20045	9.1435	1.0909	0.	888.13
20046	9.0512	1.	0.	968.98
20047	9.0512	1.0909	5.e-002	81.363
20048	8.9589	1.0909	0.	880.35
20049	9.328	1.0909	0.	573.14
20050	9.2358	1.	0.	613.65
20051	9.2358	1.0909	5.e-002	53.357
20052	9.5126	1.0909	0.	379.72
20053	9.4203	1.	0.	413.42
20054	9.4203	1.0909	5.e-002	42.114
20055	9.6972	1.0909	0.	249.59
20056	9.6049	1.	0.	280.54
20057	9.6049	1.0909	5.e-002	32.303
20058	9.8817	1.0909	0.	162.67
20059	9.7894	1.	0.	191.7
20060	9.7894	1.0909	5.e-002	24.672
20061	10.066	1.0909	0.	104.42
20062	9.974	1.	0.	131.74
20063	9.974	1.0909	5.e-002	18.991
20064	10.251	1.0909	0.	64.578
20065	10.159	1.	0.	90.003
20066	10.159	1.0909	5.e-002	14.775
20067	10.435	1.0909	0.	36.663
20068	10.343	1.	0.	59.841
20069	10.343	1.0909	5.e-002	11.628
20070	10.62	1.0909	0.	17.162
20071	10.528	1.	0.	37.287
20072	10.528	1.0909	5.e-002	9.279
20073	10.804	1.0909	0.	5.7725
20074	10.712	1.	0.	20.176
20075	10.712	1.0909	5.e-002	7.5541
20076	10.989	1.0909	0.	2.0222
20077	10.897	1.	0.	8.0298
20078	10.897	1.0909	5.e-002	6.3343
20079	11.174	1.0909	0.	0.95524
20080	11.081	1.	0.	2.4326
20081	11.081	1.0909	5.e-002	5.5258
20082	11.358	1.0909	0.	0.53668
20083	11.266	1.	0.	0.97763
20084	11.266	1.0909	5.e-002	5.0391
20085	11.543	1.0909	0.	0.33259
20086	11.45	1.	0.	0.50737
20087	11.45	1.0909	5.e-002	4.7852
20088	11.727	1.0909	0.	0.21972
20089	11.635	1.	0.	0.30182
20090	11.635	1.0909	5.e-002	4.683
20091	11.912	1.0909	0.	0.15207
20092	11.82	1.	0.	0.19517
20093	11.82	1.0909	5.e-002	4.6686
20094	12.096	1.0909	0.	0.10914
20095	12.004	1.	0.	0.13373
20096	12.004	1.0909	5.e-002	4.6984
20097	12.281	1.0909	0.	8.0702e-002
20098	12.189	1.	0.	9.5692e-002
20099	12.189	1.0909	5.e-002	4.7454
20100	12.465	1.0909	0.	6.1229e-002
20101	12.373	1.	0.	7.0914e-002
20102	12.373	1.0909	5.e-002	4.7944
20103	12.65	1.0909	0.	4.75e-002
20104	12.558	1.	0.	5.4088e-002
20105	12.558	1.0909	5.e-002	4.8378
20106	12.835	1.0909	0.	3.7578e-002
20107	12.742	1.	0.	4.2262e-002
20108	12.742	1.0909	5.e-002	4.8722
20109	13.019	1.0909	0.	3.0264e-002
20110	12.927	1.	0.	3.371e-002
20111	12.927	1.0909	5.e-002	4.8968
20112	13.204	1.0909	0.	2.4799e-002
20113	13.111	1.	0.	2.7394e-002
20114	13.111	1.0909	5.e-002	4.9119
20115	13.388	1.0909	0.	2.0647e-002
20116	13.296	1.	0.	2.2664e-002
20117	13.296	1.0909	5.e-002	4.9185
20118	13.573	1.0909	0.	1.7439e-002
20119	13.48	1.	0.	1.9021e-002
20120	13.48	1.0909	5.e-002	4.918
20121	13.757	1.0909	0.	1.4954e-002
20122	13.665	1.	0.	1.6192e-002
20123	13.665	1.0909	5.e-002	4.9114
20124	13.942	1.0909	0.	1.3022e-002
20125	13.85	1.	0.	1.3992e-002
20126	13.85	1.0909	5.e-002	4.9
20127	14.126	1.0909	0.	1.151e-002
20128	14.034	1.	0.	1.2266e-002
20129	14.034	1.0909	5.e-002	4.8847
20130	14.311	1.0909	0.	1.0335e-002
20131	14.219	1.	0.	1.0903e-002
20132	14.219	1.0909	5.e-002	4.8665
20133	14.496	1.0909	0.	9.4518e-003
20134	14.403	1.	0.	9.8518e-003
20135	14.403	1.0909	5.e-002	4.846
20136	14.68	1.0909	0.	8.8056e-003
20137	14.588	1.	0.	9.0807e-003
20138	14.588	1.0909	5.e-002	4.8239
20139	14.865	1.0909	0.	8.3607e-003
20140	14.772	1.	0.	8.5203e-003
20141	14.772	1.0909	5.e-002	4.8006
20142	15.049	1.0909	0.	8.1321e-003
20143	14.957	1.	0.	8.1849e-003
20144	14.957	1.0909	5.e-002	4.7766
20145	15.234	1.0909	0.	8.1486e-003
20146	15.141	1.	0.	8.1177e-003
20147	15.141	1.0909	5.e-002	4.7521
20148	15.418	1.0909	0.	8.4775e-003
20149	15.326	1.	0.	8.3927e-003
20150	15.326	1.0909	5.e-002	4.7273
20151	15.603	1.0909	0.	9.3165e-003
20152	15.511	1.	0.	9.2241e-003
20153	15.511	1.0909	5.e-002	4.7025
20154	15.787	1.0909	0.	1.124e-002
20155	15.695	1.	0.	1.1281e-002
20156	15.695	1.0909	5.e-002	4.6778
20157	15.972	1.0909	0.	1.6495e-002
20158	15.88	1.	0.	1.7498e-002
20159	15.88	1.0909	5.e-002	4.6532
20160	16.157	1.0909	0.	5.1778e-002
20161	16.064	1.	0.	8.0214e-002
20162	16.064	1.0909	5.e-002	4.629
20163	16.341	1.0909	0.	1.1852
20164	16.249	1.	0.	1.3846
20165	16.249	1.0909	5.e-002	4.6051
20166	16.526	1.0909	0.	2.835
20167	16.433	1.	0.	2.962
20168	16.433	1.0909	5.e-002	4.5816
20169	16.71	1.0909	0.	4.4381
20170	16.618	1.	0.	4.4921
20171	16.618	1.0909	5.e-002	4.5584
20172	16.895	1.0909	0.	5.9922
20173	16.802	1.	0.	5.9745
20174	16.802	1.0909	5.e-002	4.5357
20175	17.079	1.0909	0.	7.5027
20176	16.987	1.	0.	7.414
20177	16.987	1.0909	5.e-002	4.5135
20178	17.264	1.0909	0.	8.9757
20179	17.172	1.	0.	8.8162
20180	17.172	1.0909	5.e-002	4.4916
20181	17.448	1.0909	0.	10.418
20182	17.356	1.	0.	10.187
20183	17.356	1.0909	5.e-002	4.4702
20184	17.633	1.0909	0.	11.837
20185	17.541	1.	0.	11.533
20186	17.541	1.0909	5.e-002	4.4493
20187	17.817	1.0909	0.	13.239
20188	17.725	1.	0.	12.86
20189	17.725	1.0909	5.e-002	4.4289
20190	18.002	1.0909	0.	14.63
20191	17.91	1.	0.	14.174
20192	17.91	1.0909	5.e-002	4.409
20193	18.187	1.0909	0.	16.019
20194	18.094	1.	0.	15.482
20195	18.094	1.0909	5.e-002	4.3895
20196	18.371	1.0909	0.	17.412
20197	18.279	1.	0.	16.79
20198	18.279	1.0909	5.e-002	4.3705
20199	18.556	1.0909	0.	18.817
20200	18.463	1.	0.	18.104
20201	18.463	1.0909	5.e-002	4.352
20202	18.74	1.0909	0.	20.24
20203	18.648	1.	0.	19.432
20204	18.648	1.0909	5.e-002	4.3341
20205	18.925	1.0909	0.	21.689
20206	18.833	1.	0.	20.78
20207	18.833	1.0909	5.e-002	4.3166
20208	19.109	1.0909	0.	23.171
20209	19.017	1.	0.	22.154
20210	19.017	1.0909	5.e-002	4.2998
20211	19.294	1.0909	0.	24.695
20212	19.202	1.	0.	23.562
20213	19.202	1.0909	5.e-002	4.2835
20214	19.478	1.0909	0.	26.268
20215	19.386	1.	0.	25.01
20216	19.386	1.0909	5.e-002	4.2678
20217	19.663	1.0909	0.	27.899
20218	19.571	1.	0.	26.506
20219	19.571	1.0909	5.e-002	4.2527
20220	19.848	1.0909	0.	29.596
20221	19.755	1.	0.	28.057
20222	19.755	1.0909	5.e-002	4.2383
20223	20.032	1.0909	0.	31.368
20224	19.94	1.	0.	29.672
20225	19.94	1.0909	5.e-002	4.2246
20226	20.217	1.0909	0.	33.226
20227	20.124	1.	0.	31.359
20228	20.124	1.0909	5.e-002	4.2117
20229	20.401	1.0909	0.	35.179
20230	20.309	1.	0.	33.127
20231	20.309	1.0909	5.e-002	4.1995
20232	20.586	1.0909	0.	37.24
20233	20.493	1.	0.	34.986
20234	20.493	1.0909	5.e-002	4.1882
20235	20.77	1.0909	0.	39.421
20236	20.678	1.	0.	36.946
20237	20.678	1.0909	5.e-002	4.1779
20238	20.955	1.0909	0.	41.736
20239	20.863	1.	0.	39.02
20240	20.863	1.0909	5.e-002	4.1685
20241	21.139	1.0909	0.	44.201
20242	21.047	1.	0.	41.221
20243	21.047	1.0909	5.e-002	4.1603
20244	21.324	1.0909	0.	46.836
20245	21.232	1.	0.	43.565
20246	21.232	1.0909	5.e-002	4.1533
20247	21.509	1.0909	0.	49.66
20248	21.416	1.	0.	46.069
20249	21.416	1.0909	5.e-002	4.1476
20250	21.693	1.0909	0.	52.702
20251	21.601	1.	0.	48.755
20252	21.601	1.0909	5.e-002	4.1434
20253	21.878	1.0909	0.	55.99
20254	21.785	1.	0.	51.649
20255	21.785	1.0909	5.e-002	4.141
20256	22.062	1.0909	0.	59.562
20257	21.97	1.	0.	54.783
20258	21.97	1.0909	5.e-002	4.1406
20259	22.247	1.0909	0.	63.465
20260	22.154	1.	0.	58.195
20261	22.154	1.0909	5.e-002	4.1427
20262	22.431	1.0909	0.	67.755
20263	22.339	1.	0.	61.936
20264	22.339	1.0909	5.e-002	4.1477
20265	22.616	1.0909	0.	72.501
20266	22.524	1.	0.	66.067
20267	22.524	1.0909	5.e-002	4.1565
20268	22.8	1.0909	0.	77.788
20269	22.708	1.	0.	70.667
20270	22.708	1.0909	5.e-002	4.1701
20271	22.985	1.0909	0.	83.715
20272	22.893	1.	0.	75.835
20273	22.893	1.0909	5.e-002	4.1901
20274	23.17	1.0909	0.	90.394
20275	23.077	1.	0.	81.69
20276	23.077	1.0909	5.e-002	4.2188
20277	23.354	1.0909	0.	97.933
20278	23.262	1.	0.	88.375
20279	23.262	1.0909	5.e-002	4.259
20280	23.539	1.0909	0.	106.45
20281	23.446	1.	0.	96.019
20282	23.446	1.0909	5.e-002	4.3142
20283	23.723	1.0909	0.	115.98
20284	23.631	1.	0.	104.8
20285	23.631	1.0909	5.e-002	4.3924
20286	23.815	1.	0.	114.7
20287	23.815	1.0909	5.e-002	4.5756
20288	23.908	1.0909	0.	125.33
20289	9.1435	0.90909	0.	659.19
20290	9.0512	0.81818	0.	709.81
20291	9.0512	0.90909	5.e-002	67.526
20292	8.9589	0.90909	0.	651.4
20293	9.328	0.90909	0.	427.95
20294	9.2358	0.81818	0.	440.06
20295	9.2358	0.90909	5.e-002	47.133
20296	9.5126	0.90909	0.	297.21
20297	9.4203	0.81818	0.	304.67
20298	9.4203	0.90909	5.e-002	39.58
20299	9.6972	0.90909	0.	212.3
20300	9.6049	0.81818	0.	221.93
20301	9.6049	0.90909	5.e-002	32.021
20302	9.8817	0.90909	0.	154.72
20303	9.7894	0.81818	0.	167.48
20304	9.7894	0.90909	5.e-002	25.296
20305	10.066	0.90909	0.	113.87
20306	9.974	0.81818	0.	129.06
20307	9.974	0.90909	5.e-002	19.708
20308	10.251	0.90909	0.	83.388
20309	10.159	0.81818	0.	99.865
20310	10.159	0.90909	5.e-002	15.229
20311	10.435	0.90909	0.	59.64
20312	10.343	0.81818	0.	76.404
20313	10.343	0.90909	5.e-002	11.7
20314	10.62	0.90909	0.	40.577
20315	10.528	0.81818	0.	56.881
20316	10.528	0.90909	5.e-002	8.9635
20317	10.804	0.90909	0.	25.079
20318	10.712	0.81818	0.	40.382
20319	10.712	0.90909	5.e-002	6.8971
20320	10.989	0.90909	0.	12.689
20321	10.897	0.81818	0.	26.432
20322	10.897	0.90909	5.e-002	5.4177
20323	11.174	0.90909	0.	4.1978
20324	11.081	0.81818	0.	14.822
20325	11.081	0.90909	5.e-002	4.4638
20326	11.358	0.90909	0.	1.2315
20327	11.266	0.81818	0.	5.8137
20328	11.266	0.90909	5.e-002	3.962
20329	11.543	0.90909	0.	0.53778
20330	11.45	0.81818	0.	1.4121
20331	11.45	0.90909	5.e-002	3.7988
20332	11.727	0.90909	0.	0.29543
20333	11.635	0.81818	0.	0.50883
20334	11.635	0.90909	5.e-002	3.8411
20335	11.912	0.90909	0.	0.18351
20336	11.82	0.81818	0.	0.26059
20337	11.82	0.90909	5.e-002	3.9799
20338	12.096	0.90909	0.	0.12318
20339	12.004	0.81818	0.	0.15772
20340	12.004	0.90909	5.e-002	4.1478
20341	12.281	0.90909	0.	8.7351e-002
20342	12.189	0.81818	0.	0.10519
20343	12.189	0.90909	5.e-002	4.3103
20344	12.465	0.90909	0.	6.4592e-002
20345	12.373	0.81818	0.	7.49e-002
20346	12.373	0.90909	5.e-002	4.4524
20347	12.65	0.90909	0.	4.9363e-002
20348	12.558	0.81818	0.	5.5933e-002
20349	12.558	0.90909	5.e-002	4.5695
20350	12.835	0.90909	0.	3.8743e-002
20351	12.742	0.81818	0.	4.3297e-002
20352	12.742	0.90909	5.e-002	4.6617
20353	13.019	0.90909	0.	3.1091e-002
20354	12.927	0.81818	0.	3.4468e-002
20355	12.927	0.90909	5.e-002	4.7315
20356	13.204	0.90909	0.	2.5445e-002
20357	13.111	0.81818	0.	2.8069e-002
20358	13.111	0.90909	5.e-002	4.7818
20359	13.388	0.90909	0.	2.1177e-002
20360	13.296	0.81818	0.	2.3313e-002
20361	13.296	0.90909	5.e-002	4.8159
20362	13.573	0.90909	0.	1.7878e-002
20363	13.48	0.81818	0.	1.9647e-002
20364	13.48	0.90909	5.e-002	4.8368
20365	13.757	0.90909	0.	1.5306e-002
20366	13.665	0.81818	0.	1.6777e-002
20367	13.665	0.90909	5.e-002	4.847
20368	13.942	0.90909	0.	1.3287e-002
20369	13.85	0.81818	0.	1.4513e-002
20370	13.85	0.90909	5.e-002	4.8486
20371	14.126	0.90909	0.	1.1688e-002
20372	14.034	0.81818	0.	1.2704e-002
20373	14.034	0.90909	5.e-002	4.8436
20374	14.311	0.90909	0.	1.0429e-002
20375	14.219	0.81818	0.	1.1248e-002
20376	14.219	0.90909	5.e-002	4.8334
20377	14.496	0.90909	0.	9.4713e-003
20378	14.403	0.81818	0.	1.0099e-002
20379	14.403	0.90909	5.e-002	4.8192
20380	14.68	0.90909	0.	8.7683e-003
20381	14.588	0.81818	0.	9.2427e-003
20382	14.588	0.90909	5.e-002	4.8021
20383	14.865	0.90909	0.	8.3011e-003
20384	14.772	0.81818	0.	8.6259e-003
20385	14.772	0.90909	5.e-002	4.7827
20386	15.049	0.90909	0.	8.1148e-003
20387	14.957	0.81818	0.	8.3013e-003
20388	14.957	0.90909	5.e-002	4.7617
20389	15.234	0.90909	0.	8.3054e-003
20390	15.141	0.81818	0.	8.398e-003
20391	15.141	0.90909	5.e-002	4.7397
20392	15.418	0.90909	0.	9.1228e-003
20393	15.326	0.81818	0.	9.24e-003
20394	15.326	0.90909	5.e-002	4.7169
20395	15.603	0.90909	0.	1.1397e-002
20396	15.511	0.81818	0.	1.2047e-002
20397	15.511	0.90909	5.e-002	4.6936
20398	15.787	0.90909	0.	1.9496e-002
20399	15.695	0.81818	0.	2.6438e-002
20400	15.695	0.90909	5.e-002	4.6701
20401	15.972	0.90909	0.	0.22266
20402	15.88	0.81818	0.	0.68974
20403	15.88	0.90909	5.e-002	4.6465
20404	16.157	0.90909	0.	1.6884
20405	16.064	0.81818	0.	2.1408
20406	16.064	0.90909	5.e-002	4.6231
20407	16.341	0.90909	0.	3.1906
20408	16.249	0.81818	0.	3.5584
20409	16.249	0.90909	5.e-002	4.5998
20410	16.526	0.90909	0.	4.6461
20411	16.433	0.81818	0.	4.931
20412	16.433	0.90909	5.e-002	4.5768
20413	16.71	0.90909	0.	6.0561
20414	16.618	0.81818	0.	6.2607
20415	16.618	0.90909	5.e-002	4.5541
20416	16.895	0.90909	0.	7.4246
20417	16.802	0.81818	0.	7.551
20418	16.802	0.90909	5.e-002	4.5317
20419	17.079	0.90909	0.	8.7567
20420	16.987	0.81818	0.	8.8063
20421	16.987	0.90909	5.e-002	4.5097
20422	17.264	0.90909	0.	10.057
20423	17.172	0.81818	0.	10.031
20424	17.172	0.90909	5.e-002	4.4881
20425	17.448	0.90909	0.	11.332
20426	17.356	0.81818	0.	11.23
20427	17.356	0.90909	5.e-002	4.4669
20428	17.633	0.90909	0.	12.587
20429	17.541	0.81818	0.	12.407
20430	17.541	0.90909	5.e-002	4.4462
20431	17.817	0.90909	0.	13.827
20432	17.725	0.81818	0.	13.569
20433	17.725	0.90909	5.e-002	4.4259
20434	18.002	0.90909	0.	15.058
20435	17.91	0.81818	0.	14.72
20436	17.91	0.90909	5.e-002	4.406
20437	18.187	0.90909	0.	16.286
20438	18.094	0.81818	0.	15.865
20439	18.094	0.90909	5.e-002	4.3866
20440	18.371	0.90909	0.	17.517
20441	18.279	0.81818	0.	17.009
20442	18.279	0.90909	5.e-002	4.3677
20443	18.556	0.90909	0.	18.756
20444	18.463	0.81818	0.	18.158
20445	18.463	0.90909	5.e-002	4.3492
20446	18.74	0.90909	0.	20.01
20447	18.648	0.81818	0.	19.317
20448	18.648	0.90909	5.e-002	4.3312
20449	18.925	0.90909	0.	21.284
20450	18.833	0.81818	0.	20.49
20451	18.833	0.90909	5.e-002	4.3138
20452	19.109	0.90909	0.	22.584
20453	19.017	0.81818	0.	21.684
20454	19.017	0.90909	5.e-002	4.2969
20455	19.294	0.90909	0.	23.917
20456	19.202	0.81818	0.	22.903
20457	19.202	0.90909	5.e-002	4.2805
20458	19.478	0.90909	0.	25.289
20459	19.386	0.81818	0.	24.154
20460	19.386	0.90909	5.e-002	4.2647
20461	19.663	0.90909	0.	26.707
20462	19.571	0.81818	0.	25.441
20463	19.571	0.90909	5.e-002	4.2495
20464	19.848	0.90909	0.	28.178
20465	19.755	0.81818	0.	26.772
20466	19.755	0.90909	5.e-002	4.2349
20467	20.032	0.90909	0.	29.709
20468	19.94	0.81818	0.	28.151
20469	19.94	0.90909	5.e-002	4.221
20470	20.217	0.90909	0.	31.308
20471	20.124	0.81818	0.	29.586
20472	20.124	0.90909	5.e-002	4.2079
20473	20.401	0.90909	0.	32.983
20474	20.309	0.81818	0.	31.083
20475	20.309	0.90909	5.e-002	4.1954
20476	20.586	0.90909	0.	34.743
20477	20.493	0.81818	0.	32.649
20478	20.493	0.90909	5.e-002	4.1838
20479	20.77	0.90909	0.	36.598
20480	20.678	0.81818	0.	34.294
20481	20.678	0.90909	5.e-002	4.173
20482	20.955	0.90909	0.	38.559
20483	20.863	0.81818	0.	36.025
20484	20.863	0.90909	5.e-002	4.1632
20485	21.139	0.90909	0.	40.64
20486	21.047	0.81818	0.	37.853
20487	21.047	0.90909	5.e-002	4.1544
20488	21.324	0.90909	0.	42.856
20489	21.232	0.81818	0.	39.79
20490	21.232	0.90909	5.e-002	4.1467
20491	21.509	0.90909	0.	45.223
20492	21.416	0.81818	0.	41.85
20493	21.416	0.90909	5.e-002	4.1401
20494	21.693	0.90909	0.	47.765
20495	21.601	0.81818	0.	44.049
20496	21.601	0.90909	5.e-002	4.1349
20497	21.878	0.90909	0.	50.506
20498	21.785	0.81818	0.	46.408
20499	21.785	0.90909	5.e-002	4.1313
20500	22.062	0.90909	0.	53.482
20501	21.97	0.81818	0.	48.954
20502	21.97	0.90909	5.e-002	4.1294
20503	22.247	0.90909	0.	56.733
20504	22.154	0.81818	0.	51.719
20505	22.154	0.90909	5.e-002	4.1296
20506	22.431	0.90909	0.	60.315
20507	22.339	0.81818	0.	54.748
20508	22.339	0.90909	5.e-002	4.1324
20509	22.616	0.90909	0.	64.3
20510	22.524	0.81818	0.	58.098
20511	22.524	0.90909	5.e-002	4.1384
20512	22.8	0.90909	0.	68.778
20513	22.708	0.81818	0.	61.846
20514	22.708	0.90909	5.e-002	4.149
20515	22.985	0.90909	0.	73.869
20516	22.893	0.81818	0.	66.099
20517	22.893	0.90909	5.e-002	4.1655
20518	23.17	0.90909	0.	79.722
20519	23.077	0.81818	0.	70.995
20520	23.077	0.90909	5.e-002	4.1908
20521	23.354	0.90909	0.	86.502
20522	23.262	0.81818	0.	76.724
20523	23.262	0.90909	5.e-002	4.2287
20524	23.539	0.90909	0.	94.404
20525	23.446	0.81818	0.	83.495
20526	23.446	0.90909	5.e-002	4.2846
20527	23.723	0.90909	0.	103.55
20528	23.631	0.81818	0.	91.604
20529	23.631	0.90909	5.e-002	4.3704
20530	23.815	0.81818	0.	101.16
20531	23.815	0.90909	5.e-002	4.5839
20532	23.908	0.90909	0.	112.6
20533	9.1435	0.72727	0.	458.47
20534	9.0512	0.63636	0.	487.55
20535	9.0512	0.72727	5.e-002	57.752
20536	8.9589	0.72727	0.	458.8
20537	9.328	0.72727	0.	293.86
20538	9.2358	0.63636	0.	287.3
20539	9.2358	0.72727	5.e-002	42.98
20540	9.5126	0.72727	0.	215.09
20541	9.4203	0.63636	0.	205.97
20542	9.4203	0.72727	5.e-002	37.588
20543	9.6972	0.72727	0.	168.67
20544	9.6049	0.63636	0.	164.41
20545	9.6049	0.72727	5.e-002	31.571
20546	9.8817	0.72727	0.	136.93
20547	9.7894	0.63636	0.	138.05
20548	9.7894	0.72727	5.e-002	25.678
20549	10.066	0.72727	0.	112.24
20550	9.974	0.63636	0.	117.58
20551	9.974	0.72727	5.e-002	20.371
20552	10.251	0.72727	0.	91.271
20553	10.159	0.63636	0.	99.39
20554	10.159	0.72727	5.e-002	15.83
20555	10.435	0.72727	0.	72.758
20556	10.343	0.63636	0.	82.442
20557	10.343	0.72727	5.e-002	12.066
20558	10.62	0.72727	0.	56.252
20559	10.528	0.63636	0.	66.616
20560	10.528	0.72727	5.e-002	9.0164
20561	10.804	0.72727	0.	41.632
20562	10.712	0.63636	0.	52.077
20563	10.712	0.72727	5.e-002	6.61
20564	10.989	0.72727	0.	28.869
20565	10.897	0.63636	0.	39.007
20566	10.897	0.72727	5.e-002	4.7958
20567	11.174	0.72727	0.	17.954
20568	11.081	0.63636	0.	27.528
20569	11.081	0.72727	5.e-002	3.5629
20570	11.358	0.72727	0.	8.9344
20571	11.266	0.63636	0.	17.685
20572	11.266	0.72727	5.e-002	2.923
20573	11.543	0.72727	0.	2.5295
20574	11.45	0.63636	0.	9.4931
20575	11.45	0.72727	5.e-002	2.8045
20576	11.727	0.72727	0.	0.59836
20577	11.635	0.63636	0.	3.1921
20578	11.635	0.72727	5.e-002	2.9996
20579	11.912	0.72727	0.	0.25807
20580	11.82	0.63636	0.	0.59647
20581	11.82	0.72727	5.e-002	3.3081
20582	12.096	0.72727	0.	0.14661
20583	12.004	0.63636	0.	0.22394
20584	12.004	0.72727	5.e-002	3.623
20585	12.281	0.72727	0.	9.551e-002
20586	12.189	0.63636	0.	0.12327
20587	12.189	0.72727	5.e-002	3.9029
20588	12.465	0.72727	0.	6.7653e-002
20589	12.373	0.63636	0.	8.0124e-002
20590	12.373	0.72727	5.e-002	4.1361
20591	12.65	0.72727	0.	5.072e-002
20592	12.558	0.63636	0.	5.7167e-002
20593	12.558	0.72727	5.e-002	4.3233
20594	12.835	0.72727	0.	3.9603e-002
20595	12.742	0.63636	0.	4.3275e-002
20596	12.742	0.72727	5.e-002	4.4695
20597	13.019	0.72727	0.	3.1872e-002
20598	12.927	0.63636	0.	3.4102e-002
20599	12.927	0.72727	5.e-002	4.5809
20600	13.204	0.72727	0.	2.6264e-002
20601	13.111	0.63636	0.	2.7658e-002
20602	13.111	0.72727	5.e-002	4.6633
20603	13.388	0.72727	0.	2.2038e-002
20604	13.296	0.63636	0.	2.2933e-002
20605	13.296	0.72727	5.e-002	4.7224
20606	13.573	0.72727	0.	1.8745e-002
20607	13.48	0.63636	0.	1.9292e-002
20608	13.48	0.72727	5.e-002	4.7626
20609	13.757	0.72727	0.	1.6137e-002
20610	13.665	0.63636	0.	1.6418e-002
20611	13.665	0.72727	5.e-002	4.7878
20612	13.942	0.72727	0.	1.4042e-002
20613	13.85	0.63636	0.	1.4117e-002
20614	13.85	0.72727	5.e-002	4.8011
20615	14.126	0.72727	0.	1.2336e-002
20616	14.034	0.63636	0.	1.2242e-002
20617	14.034	0.72727	5.e-002	4.8053
20618	14.311	0.72727	0.	1.0953e-002
20619	14.219	0.63636	0.	1.0699e-002
20620	14.219	0.72727	5.e-002	4.8022
20621	14.496	0.72727	0.	9.8687e-003
20622	14.403	0.63636	0.	9.4556e-003
20623	14.403	0.72727	5.e-002	4.7936
20624	14.68	0.72727	0.	9.0621e-003
20625	14.588	0.63636	0.	8.5207e-003
20626	14.588	0.72727	5.e-002	4.7809
20627	14.865	0.72727	0.	8.5566e-003
20628	14.772	0.63636	0.	7.889e-003
20629	14.772	0.72727	5.e-002	4.765
20630	15.049	0.72727	0.	8.5119e-003
20631	14.957	0.63636	0.	7.7756e-003
20632	14.957	0.72727	5.e-002	4.7468
20633	15.234	0.72727	0.	9.4033e-003
20634	15.141	0.63636	0.	9.0404e-003
20635	15.141	0.72727	5.e-002	4.7268
20636	15.418	0.72727	0.	1.3522e-002
20637	15.326	0.63636	0.	2.159e-002
20638	15.326	0.72727	5.e-002	4.7058
20639	15.603	0.72727	0.	9.0463e-002
20640	15.511	0.63636	0.	0.86859
20641	15.511	0.72727	5.e-002	4.6839
20642	15.787	0.72727	0.	1.3442
20643	15.695	0.63636	0.	2.1688
20644	15.695	0.72727	5.e-002	4.6615
20645	15.972	0.72727	0.	2.7119
20646	15.88	0.63636	0.	3.436
20647	15.88	0.72727	5.e-002	4.6388
20648	16.157	0.72727	0.	4.0396
20649	16.064	0.63636	0.	4.6659
20650	16.064	0.72727	5.e-002	4.6161
20651	16.341	0.72727	0.	5.326
20652	16.249	0.63636	0.	5.8589
20653	16.249	0.72727	5.e-002	4.5934
20654	16.526	0.72727	0.	6.5731
20655	16.433	0.63636	0.	7.0167
20656	16.433	0.72727	5.e-002	4.5709
20657	16.71	0.72727	0.	7.7838
20658	16.618	0.63636	0.	8.1413
20659	16.618	0.72727	5.e-002	4.5486
20660	16.895	0.72727	0.	8.9616
20661	16.802	0.63636	0.	9.2355
20662	16.802	0.72727	5.e-002	4.5265
20663	17.079	0.72727	0.	10.11
20664	16.987	0.63636	0.	10.302
20665	16.987	0.72727	5.e-002	4.5048
20666	17.264	0.72727	0.	11.233
20667	17.172	0.63636	0.	11.345
20668	17.172	0.72727	5.e-002	4.4834
20669	17.448	0.72727	0.	12.336
20670	17.356	0.63636	0.	12.368
20671	17.356	0.72727	5.e-002	4.4624
20672	17.633	0.72727	0.	13.422
20673	17.541	0.63636	0.	13.374
20674	17.541	0.72727	5.e-002	4.4418
20675	17.817	0.72727	0.	14.495
20676	17.725	0.63636	0.	14.366
20677	17.725	0.72727	5.e-002	4.4216
20678	18.002	0.72727	0.	15.561
20679	17.91	0.63636	0.	15.35
20680	17.91	0.72727	5.e-002	4.4018
20681	18.187	0.72727	0.	16.623
20682	18.094	0.63636	0.	16.328
20683	18.094	0.72727	5.e-002	4.3825
20684	18.371	0.72727	0.	17.686
20685	18.279	0.63636	0.	17.305
20686	18.279	0.72727	5.e-002	4.3636
20687	18.556	0.72727	0.	18.755
20688	18.463	0.63636	0.	18.284
20689	18.463	0.72727	5.e-002	4.3452
20690	18.74	0.72727	0.	19.835
20691	18.648	0.63636	0.	19.27
20692	18.648	0.72727	5.e-002	4.3272
20693	18.925	0.72727	0.	20.929
20694	18.833	0.63636	0.	20.266
20695	18.833	0.72727	5.e-002	4.3097
20696	19.109	0.72727	0.	22.043
20697	19.017	0.63636	0.	21.276
20698	19.017	0.72727	5.e-002	4.2927
20699	19.294	0.72727	0.	23.181
20700	19.202	0.63636	0.	22.305
20701	19.202	0.72727	5.e-002	4.2763
20702	19.478	0.72727	0.	24.348
20703	19.386	0.63636	0.	23.355
20704	19.386	0.72727	5.e-002	4.2604
20705	19.663	0.72727	0.	25.549
20706	19.571	0.63636	0.	24.432
20707	19.571	0.72727	5.e-002	4.2451
20708	19.848	0.72727	0.	26.79
20709	19.755	0.63636	0.	25.539
20710	19.755	0.72727	5.e-002	4.2304
20711	20.032	0.72727	0.	28.075
20712	19.94	0.63636	0.	26.68
20713	19.94	0.72727	5.e-002	4.2163
20714	20.217	0.72727	0.	29.41
20715	20.124	0.63636	0.	27.861
20716	20.124	0.72727	5.e-002	4.2029
20717	20.401	0.72727	0.	30.8
20718	20.309	0.63636	0.	29.084
20719	20.309	0.72727	5.e-002	4.1902
20720	20.586	0.72727	0.	32.254
20721	20.493	0.63636	0.	30.357
20722	20.493	0.72727	5.e-002	4.1783
20723	20.77	0.72727	0.	33.776
20724	20.678	0.63636	0.	31.683
20725	20.678	0.72727	5.e-002	4.1671
20726	20.955	0.72727	0.	35.377
20727	20.863	0.63636	0.	33.068
20728	20.863	0.72727	5.e-002	4.1568
20729	21.139	0.72727	0.	37.063
20730	21.047	0.63636	0.	34.52
20731	21.047	0.72727	5.e-002	4.1474
20732	21.324	0.72727	0.	38.848
20733	21.232	0.63636	0.	36.045
20734	21.232	0.72727	5.e-002	4.139
20735	21.509	0.72727	0.	40.742
20736	21.416	0.63636	0.	37.653
20737	21.416	0.72727	5.e-002	4.1316
20738	21.693	0.72727	0.	42.763
20739	21.601	0.63636	0.	39.355
20740	21.601	0.72727	5.e-002	4.1254
20741	21.878	0.72727	0.	44.93
20742	21.785	0.63636	0.	41.165
20743	21.785	0.72727	5.e-002	4.1205
20744	22.062	0.72727	0.	47.27
20745	21.97	0.63636	0.	43.1
20746	21.97	0.72727	5.e-002	4.117
20747	22.247	0.72727	0.	49.816
20748	22.154	0.63636	0.	45.185
20749	22.154	0.72727	5.e-002	4.1153
20750	22.431	0.72727	0.	52.616
20751	22.339	0.63636	0.	47.453
20752	22.339	0.72727	5.e-002	4.1158
20753	22.616	0.72727	0.	55.732
20754	22.524	0.63636	0.	49.948
20755	22.524	0.72727	5.e-002	4.1189
20756	22.8	0.72727	0.	59.255
20757	22.708	0.63636	0.	52.735
20758	22.708	0.72727	5.e-002	4.1258
20759	22.985	0.72727	0.	63.311
20760	22.893	0.63636	0.	55.91
20761	22.893	0.72727	5.e-002	4.138
20762	23.17	0.72727	0.	68.076
20763	23.077	0.63636	0.	59.611
20764	23.077	0.72727	5.e-002	4.1582
20765	23.354	0.72727	0.	73.783
20766	23.262	0.63636	0.	64.055
20767	23.262	0.72727	5.e-002	4.1914
20768	23.539	0.72727	0.	80.745
20769	23.446	0.63636	0.	69.535
20770	23.446	0.72727	5.e-002	4.2454
20771	23.723	0.72727	0.	89.25
20772	23.631	0.63636	0.	76.531
20773	23.631	0.72727	5.e-002	4.3389
20774	23.815	0.63636	0.	85.435
20775	23.815	0.72727	5.e-002	4.5876
20776	23.908	0.72727	0.	97.86
20777	9.1435	0.54545	0.	285.4
20778	9.0512	0.45455	0.	297.93
20779	9.0512	0.54545	5.e-002	51.206
20780	8.9589	0.54545	0.	293.18
20781	9.328	0.54545	0.	180.46
20782	9.2358	0.45455	0.	164.45
20783	9.2358	0.54545	5.e-002	40.619
20784	9.5126	0.54545	0.	144.86
20785	9.4203	0.45455	0.	129.12
20786	9.4203	0.54545	5.e-002	36.344
20787	9.6972	0.54545	0.	127.96
20788	9.6049	0.45455	0.	117.3
20789	9.6049	0.54545	5.e-002	31.217
20790	9.8817	0.54545	0.	115.33
20791	9.7894	0.45455	0.	109.47
20792	9.7894	0.54545	5.e-002	25.913
20793	10.066	0.54545	0.	102.74
20794	9.974	0.45455	0.	100.64
20795	9.974	0.54545	5.e-002	20.887
20796	10.251	0.54545	0.	89.373
20797	10.159	0.45455	0.	89.984
20798	10.159	0.54545	5.e-002	16.396
20799	10.435	0.54545	0.	75.598
20800	10.343	0.45455	0.	78.07
20801	10.343	0.54545	5.e-002	12.528
20802	10.62	0.54545	0.	62.04
20803	10.528	0.45455	0.	65.737
20804	10.528	0.54545	5.e-002	9.2856
20805	10.804	0.54545	0.	49.242
20806	10.712	0.45455	0.	53.714
20807	10.712	0.54545	5.e-002	6.628
20808	10.989	0.54545	0.	37.583
20809	10.897	0.45455	0.	42.512
20810	10.897	0.54545	5.e-002	4.512
20811	11.174	0.54545	0.	27.278
20812	11.081	0.45455	0.	32.441
20813	11.081	0.54545	5.e-002	2.9291
20814	11.358	0.54545	0.	18.413
20815	11.266	0.45455	0.	23.651
20816	11.266	0.54545	5.e-002	1.9759
20817	11.543	0.54545	0.	10.992
20818	11.45	0.45455	0.	16.176
20819	11.45	0.54545	5.e-002	1.8097
20820	11.727	0.54545	0.	5.009
20821	11.635	0.45455	0.	9.9805
20822	11.635	0.54545	5.e-002	2.1832
20823	11.912	0.54545	0.	1.0503
20824	11.82	0.45455	0.	5.0034
20825	11.82	0.54545	5.e-002	2.6848
20826	12.096	0.54545	0.	0.24469
20827	12.004	0.45455	0.	1.3676
20828	12.004	0.54545	5.e-002	3.1497
20829	12.281	0.54545	0.	0.11815
20830	12.189	0.45455	0.	0.23661
20831	12.189	0.54545	5.e-002	3.5399
20832	12.465	0.54545	0.	7.3765e-002
20833	12.373	0.45455	0.	0.10559
20834	12.373	0.54545	5.e-002	3.8547
20835	12.65	0.54545	0.	5.1995e-002
20836	12.558	0.45455	0.	6.7801e-002
20837	12.558	0.54545	5.e-002	4.1029
20838	12.835	0.54545	0.	3.9284e-002
20839	12.742	0.45455	0.	5.0753e-002
20840	12.742	0.54545	5.e-002	4.295
20841	13.019	0.54545	0.	3.1008e-002
20842	12.927	0.45455	0.	4.112e-002
20843	12.927	0.54545	5.e-002	4.4413
20844	13.204	0.54545	0.	2.5212e-002
20845	13.111	0.45455	0.	3.4822e-002
20846	13.111	0.54545	5.e-002	4.5505
20847	13.388	0.54545	0.	2.0912e-002
20848	13.296	0.45455	0.	3.0264e-002
20849	13.296	0.54545	5.e-002	4.63
20850	13.573	0.54545	0.	1.7569e-002
20851	13.48	0.45455	0.	2.6648e-002
20852	13.48	0.54545	5.e-002	4.6861
20853	13.757	0.54545	0.	1.4901e-002
20854	13.665	0.45455	0.	2.3621e-002
20855	13.665	0.54545	5.e-002	4.7235
20856	13.942	0.54545	0.	1.2727e-002
20857	13.85	0.45455	0.	2.1001e-002
20858	13.85	0.54545	5.e-002	4.7464
20859	14.126	0.54545	0.	1.0923e-002
20860	14.034	0.45455	0.	1.866e-002
20861	14.034	0.54545	5.e-002	4.7578
20862	14.311	0.54545	0.	9.4214e-003
20863	14.219	0.45455	0.	1.6523e-002
20864	14.219	0.54545	5.e-002	4.7606
20865	14.496	0.54545	0.	8.2103e-003
20866	14.403	0.45455	0.	1.4564e-002
20867	14.403	0.54545	5.e-002	4.7564
20868	14.68	0.54545	0.	7.31e-003
20869	14.588	0.45455	0.	1.278e-002
20870	14.588	0.54545	5.e-002	4.7472
20871	14.865	0.54545	0.	6.9714e-003
20872	14.772	0.45455	0.	1.1412e-002
20873	14.772	0.54545	5.e-002	4.734
20874	15.049	0.54545	0.	1.0314e-002
20875	14.957	0.45455	0.	1.0384
20876	14.957	0.54545	5.e-002	4.7179
20877	15.234	0.54545	0.	0.73444
20878	15.141	0.45455	0.	2.1398
20879	15.141	0.54545	5.e-002	4.6997
20880	15.418	0.54545	0.	1.9466
20881	15.326	0.45455	0.	3.2262
20882	15.326	0.54545	5.e-002	4.68
20883	15.603	0.54545	0.	3.1335
20884	15.511	0.45455	0.	4.2928
20885	15.511	0.54545	5.e-002	4.6592
20886	15.787	0.54545	0.	4.2908
20887	15.695	0.45455	0.	5.3362
20888	15.695	0.54545	5.e-002	4.6376
20889	15.972	0.54545	0.	5.4172
20890	15.88	0.45455	0.	6.3548
20891	15.88	0.54545	5.e-002	4.6157
20892	16.157	0.54545	0.	6.5124
20893	16.064	0.45455	0.	7.3476
20894	16.064	0.54545	5.e-002	4.5936
20895	16.341	0.54545	0.	7.5772
20896	16.249	0.45455	0.	8.3148
20897	16.249	0.54545	5.e-002	4.5714
20898	16.526	0.54545	0.	8.613
20899	16.433	0.45455	0.	9.2573
20900	16.433	0.54545	5.e-002	4.5492
20901	16.71	0.54545	0.	9.6218
20902	16.618	0.45455	0.	10.176
20903	16.618	0.54545	5.e-002	4.5272
20904	16.895	0.54545	0.	10.606
20905	16.802	0.45455	0.	11.073
20906	16.802	0.54545	5.e-002	4.5055
20907	17.079	0.54545	0.	11.568
20908	16.987	0.45455	0.	11.951
20909	16.987	0.54545	5.e-002	4.484
20910	17.264	0.54545	0.	12.511
20911	17.172	0.45455	0.	12.811
20912	17.172	0.54545	5.e-002	4.4629
20913	17.448	0.54545	0.	13.438
20914	17.356	0.45455	0.	13.656
20915	17.356	0.54545	5.e-002	4.4421
20916	17.633	0.54545	0.	14.351
20917	17.541	0.45455	0.	14.488
20918	17.541	0.54545	5.e-002	4.4217
20919	17.817	0.54545	0.	15.255
20920	17.725	0.45455	0.	15.311
20921	17.725	0.54545	5.e-002	4.4016
20922	18.002	0.54545	0.	16.152
20923	17.91	0.45455	0.	16.126
20924	17.91	0.54545	5.e-002	4.382
20925	18.187	0.54545	0.	17.046
20926	18.094	0.45455	0.	16.937
20927	18.094	0.54545	5.e-002	4.3628
20928	18.371	0.54545	0.	17.94
20929	18.279	0.45455	0.	17.746
20930	18.279	0.54545	5.e-002	4.3441
20931	18.556	0.54545	0.	18.837
20932	18.463	0.45455	0.	18.556
20933	18.463	0.54545	5.e-002	4.3257
20934	18.74	0.54545	0.	19.741
20935	18.648	0.45455	0.	19.368
20936	18.648	0.54545	5.e-002	4.3079
20937	18.925	0.54545	0.	20.654
20938	18.833	0.45455	0.	20.187
20939	18.833	0.54545	5.e-002	4.2905
20940	19.109	0.54545	0.	21.58
20941	19.017	0.45455	0.	21.015
20942	19.017	0.54545	5.e-002	4.2736
20943	19.294	0.54545	0.	22.522
20944	19.202	0.45455	0.	21.853
20945	19.202	0.54545	5.e-002	4.2573
20946	19.478	0.54545	0.	23.483
20947	19.386	0.45455	0.	22.704
20948	19.386	0.54545	5.e-002	4.2414
20949	19.663	0.54545	0.	24.467
20950	19.571	0.45455	0.	23.572
20951	19.571	0.54545	5.e-002	4.2262
20952	19.848	0.54545	0.	25.477
20953	19.755	0.45455	0.	24.458
20954	19.755	0.54545	5.e-002	4.2115
20955	20.032	0.54545	0.	26.516
20956	19.94	0.45455	0.	25.364
20957	19.94	0.54545	5.e-002	4.1974
20958	20.217	0.54545	0.	27.587
20959	20.124	0.45455	0.	26.294
20960	20.124	0.54545	5.e-002	4.184
20961	20.401	0.54545	0.	28.695
20962	20.309	0.45455	0.	27.248
20963	20.309	0.54545	5.e-002	4.1713
20964	20.586	0.54545	0.	29.843
20965	20.493	0.45455	0.	28.23
20966	20.493	0.54545	5.e-002	4.1593
20967	20.77	0.54545	0.	31.034
20968	20.678	0.45455	0.	29.243
20969	20.678	0.54545	5.e-002	4.148
20970	20.955	0.54545	0.	32.274
20971	20.863	0.45455	0.	30.288
20972	20.863	0.54545	5.e-002	4.1375
20973	21.139	0.54545	0.	33.568
20974	21.047	0.45455	0.	31.369
20975	21.047	0.54545	5.e-002	4.1279
20976	21.324	0.54545	0.	34.921
20977	21.232	0.45455	0.	32.488
20978	21.232	0.54545	5.e-002	4.1191
20979	21.509	0.54545	0.	36.341
20980	21.416	0.45455	0.	33.651
20981	21.416	0.54545	5.e-002	4.1113
20982	21.693	0.54545	0.	37.837
20983	21.601	0.45455	0.	34.861
20984	21.601	0.54545	5.e-002	4.1045
20985	21.878	0.54545	0.	39.421
20986	21.785	0.45455	0.	36.125
20987	21.785	0.54545	5.e-002	4.0988
20988	22.062	0.54545	0.	41.109
20989	21.97	0.45455	0.	37.45
20990	21.97	0.54545	5.e-002	4.0943
20991	22.247	0.54545	0.	42.922
20992	22.154	0.45455	0.	38.85
20993	22.154	0.54545	5.e-002	4.0912
20994	22.431	0.54545	0.	44.893
20995	22.339	0.45455	0.	40.34
20996	22.339	0.54545	5.e-002	4.0898
20997	22.616	0.54545	0.	47.067
20998	22.524	0.45455	0.	41.946
20999	22.524	0.54545	5.e-002	4.0904
21000	22.8	0.54545	0.	49.513
21001	22.708	0.45455	0.	43.706
21002	22.708	0.54545	5.e-002	4.0938
21003	22.985	0.54545	0.	52.338
21004	22.893	0.45455	0.	45.682
21005	22.893	0.54545	5.e-002	4.1013
21006	23.17	0.54545	0.	55.716
21007	23.077	0.45455	0.	47.977
21008	23.077	0.54545	5.e-002	4.1154
21009	23.354	0.54545	0.	59.921
21010	23.262	0.45455	0.	50.772
21011	23.262	0.54545	5.e-002	4.1411
21012	23.539	0.54545	0.	65.41
21013	23.446	0.45455	0.	54.378
21014	23.446	0.54545	5.e-002	4.1892
21015	23.723	0.54545	0.	72.78
21016	23.631	0.45455	0.	59.447
21017	23.631	0.54545	5.e-002	4.2863
21018	23.815	0.45455	0.	66.953
21019	23.815	0.54545	5.e-002	4.5834
21020	23.908	0.54545	0.	80.631
21021	9.1435	0.36364	0.	148.19
21022	9.0512	0.27273	0.	155.09
21023	9.0512	0.36364	5.e-002	47.88
21024	8.9589	0.36364	0.	151.12
21025	9.328	0.36364	0.	100.67
21026	9.2358	0.27273	0.	93.676
21027	9.2358	0.36364	5.e-002	40.189
21028	9.5126	0.36364	0.	95.759
21029	9.4203	0.27273	0.	87.858
21030	9.4203	0.36364	5.e-002	36.244
21031	9.6972	0.36364	0.	95.662
21032	9.6049	0.27273	0.	88.256
21033	9.6049	0.36364	5.e-002	31.458
21034	9.8817	0.36364	0.	92.892
21035	9.7894	0.27273	0.	86.037
21036	9.7894	0.36364	5.e-002	26.474
21037	10.066	0.36364	0.	86.697
21038	9.974	0.27273	0.	80.63
21039	9.974	0.36364	5.e-002	21.651
21040	10.251	0.36364	0.	77.923
21041	10.159	0.27273	0.	72.837
21042	10.159	0.36364	5.e-002	17.225
21043	10.435	0.36364	0.	67.73
21044	10.343	0.27273	0.	63.751
21045	10.343	0.36364	5.e-002	13.315
21046	10.62	0.36364	0.	57.118
21047	10.528	0.27273	0.	54.29
21048	10.528	0.36364	5.e-002	9.957
21049	10.804	0.36364	0.	46.813
21050	10.712	0.27273	0.	45.112
21051	10.712	0.36364	5.e-002	7.134
21052	10.989	0.36364	0.	37.281
21053	10.897	0.27273	0.	36.63
21054	10.897	0.36364	5.e-002	4.8032
21055	11.174	0.36364	0.	28.78
21056	11.081	0.27273	0.	29.068
21057	11.081	0.36364	5.e-002	2.9185
21058	11.358	0.36364	0.	21.418
21059	11.266	0.27273	0.	22.517
21060	11.266	0.36364	5.e-002	1.4743
21061	11.543	0.36364	0.	15.205
21062	11.45	0.27273	0.	16.98
21063	11.45	0.36364	5.e-002	0.79608
21064	11.727	0.36364	0.	10.089
21065	11.635	0.27273	0.	12.407
21066	11.635	0.36364	5.e-002	1.3031
21067	11.912	0.36364	0.	5.9865
21068	11.82	0.27273	0.	8.7163
21069	11.82	0.36364	5.e-002	2.0004
21070	12.096	0.36364	0.	2.8153
21071	12.004	0.27273	0.	5.8171
21072	12.004	0.36364	5.e-002	2.5949
21073	12.281	0.36364	0.	0.68759
21074	12.189	0.27273	0.	3.6154
21075	12.189	0.36364	5.e-002	3.0727
21076	12.465	0.36364	0.	0.15897
21077	12.373	0.27273	0.	2.0275
21078	12.373	0.36364	5.e-002	3.4487
21079	12.65	0.36364	0.	8.7027e-002
21080	12.558	0.27273	0.	0.99475
21081	12.558	0.36364	5.e-002	3.7407
21082	12.835	0.36364	0.	6.4117e-002
21083	12.742	0.27273	0.	0.47569
21084	12.742	0.36364	5.e-002	3.9646
21085	13.019	0.36364	0.	5.3209e-002
21086	12.927	0.27273	0.	0.29827
21087	12.927	0.36364	5.e-002	4.134
21088	13.204	0.36364	0.	4.671e-002
21089	13.111	0.27273	0.	0.25648
21090	13.111	0.36364	5.e-002	4.2598
21091	13.388	0.36364	0.	4.2203e-002
21092	13.296	0.27273	0.	0.29064
21093	13.296	0.36364	5.e-002	4.3513
21094	13.573	0.36364	0.	3.8772e-002
21095	13.48	0.27273	0.	0.44442
21096	13.48	0.36364	5.e-002	4.4156
21097	13.757	0.36364	0.	3.6155e-002
21098	13.665	0.27273	0.	0.80621
21099	13.665	0.36364	5.e-002	4.4587
21100	13.942	0.36364	0.	3.4569e-002
21101	13.85	0.27273	0.	1.3546
21102	13.85	0.36364	5.e-002	4.4852
21103	14.126	0.36364	0.	3.5823e-002
21104	14.034	0.27273	0.	2.0192
21105	14.034	0.36364	5.e-002	4.499
21106	14.311	0.36364	0.	8.3301e-002
21107	14.219	0.27273	0.	2.7575
21108	14.219	0.36364	5.e-002	4.5028
21109	14.496	0.36364	0.	0.86519
21110	14.403	0.27273	0.	3.5437
21111	14.403	0.36364	5.e-002	4.4991
21112	14.68	0.36364	0.	1.8037
21113	14.588	0.27273	0.	4.3601
21114	14.588	0.36364	5.e-002	4.4898
21115	14.865	0.36364	0.	2.7574
21116	14.772	0.27273	0.	5.1933
21117	14.772	0.36364	5.e-002	4.4762
21118	15.049	0.36364	0.	3.7133
21119	14.957	0.27273	0.	6.0336
21120	14.957	0.36364	5.e-002	4.4596
21121	15.234	0.36364	0.	4.6634
21122	15.141	0.27273	0.	6.8734
21123	15.141	0.36364	5.e-002	4.4407
21124	15.418	0.36364	0.	5.602
21125	15.326	0.27273	0.	7.7072
21126	15.326	0.36364	5.e-002	4.4202
21127	15.603	0.36364	0.	6.525
21128	15.511	0.27273	0.	8.531
21129	15.511	0.36364	5.e-002	4.3987
21130	15.787	0.36364	0.	7.43
21131	15.695	0.27273	0.	9.3422
21132	15.695	0.36364	5.e-002	4.3766
21133	15.972	0.36364	0.	8.3156
21134	15.88	0.27273	0.	10.139
21135	15.88	0.36364	5.e-002	4.3541
21136	16.157	0.36364	0.	9.1811
21137	16.064	0.27273	0.	10.921
21138	16.064	0.36364	5.e-002	4.3316
21139	16.341	0.36364	0.	10.027
21140	16.249	0.27273	0.	11.687
21141	16.249	0.36364	5.e-002	4.3092
21142	16.526	0.36364	0.	10.853
21143	16.433	0.27273	0.	12.437
21144	16.433	0.36364	5.e-002	4.287
21145	16.71	0.36364	0.	11.661
21146	16.618	0.27273	0.	13.173
21147	16.618	0.36364	5.e-002	4.2651
21148	16.895	0.36364	0.	12.452
21149	16.802	0.27273	0.	13.896
21150	16.802	0.36364	5.e-002	4.2436
21151	17.079	0.36364	0.	13.229
21152	16.987	0.27273	0.	14.605
21153	16.987	0.36364	5.e-002	4.2226
21154	17.264	0.36364	0.	13.992
21155	17.172	0.27273	0.	15.304
21156	17.172	0.36364	5.e-002	4.202
21157	17.448	0.36364	0.	14.743
21158	17.356	0.27273	0.	15.993
21159	17.356	0.36364	5.e-002	4.1819
21160	17.633	0.36364	0.	15.486
21161	17.541	0.27273	0.	16.673
21162	17.541	0.36364	5.e-002	4.1624
21163	17.817	0.36364	0.	16.221
21164	17.725	0.27273	0.	17.346
21165	17.725	0.36364	5.e-002	4.1434
21166	18.002	0.36364	0.	16.951
21167	17.91	0.27273	0.	18.015
21168	17.91	0.36364	5.e-002	4.125
21169	18.187	0.36364	0.	17.678
21170	18.094	0.27273	0.	18.679
21171	18.094	0.36364	5.e-002	4.1072
21172	18.371	0.36364	0.	18.403
21173	18.279	0.27273	0.	19.341
21174	18.279	0.36364	5.e-002	4.09
21175	18.556	0.36364	0.	19.13
21176	18.463	0.27273	0.	20.002
21177	18.463	0.36364	5.e-002	4.0734
21178	18.74	0.36364	0.	19.86
21179	18.648	0.27273	0.	20.664
21180	18.648	0.36364	5.e-002	4.0575
21181	18.925	0.36364	0.	20.594
21182	18.833	0.27273	0.	21.327
21183	18.833	0.36364	5.e-002	4.0422
21184	19.109	0.36364	0.	21.335
21185	19.017	0.27273	0.	21.993
21186	19.017	0.36364	5.e-002	4.0275
21187	19.294	0.36364	0.	22.085
21188	19.202	0.27273	0.	22.663
21189	19.202	0.36364	5.e-002	4.0136
21190	19.478	0.36364	0.	22.844
21191	19.386	0.27273	0.	23.339
21192	19.386	0.36364	5.e-002	4.0004
21193	19.663	0.36364	0.	23.615
21194	19.571	0.27273	0.	24.019
21195	19.571	0.36364	5.e-002	3.988
21196	19.848	0.36364	0.	24.4
21197	19.755	0.27273	0.	24.706
21198	19.755	0.36364	5.e-002	3.9764
21199	20.032	0.36364	0.	25.199
21200	19.94	0.27273	0.	25.4
21201	19.94	0.36364	5.e-002	3.9656
21202	20.217	0.36364	0.	26.014
21203	20.124	0.27273	0.	26.101
21204	20.124	0.36364	5.e-002	3.9557
21205	20.401	0.36364	0.	26.846
21206	20.309	0.27273	0.	26.809
21207	20.309	0.36364	5.e-002	3.9466
21208	20.586	0.36364	0.	27.696
21209	20.493	0.27273	0.	27.524
21210	20.493	0.36364	5.e-002	3.9386
21211	20.77	0.36364	0.	28.566
21212	20.678	0.27273	0.	28.246
21213	20.678	0.36364	5.e-002	3.9316
21214	20.955	0.36364	0.	29.456
21215	20.863	0.27273	0.	28.974
21216	20.863	0.36364	5.e-002	3.9256
21217	21.139	0.36364	0.	30.368
21218	21.047	0.27273	0.	29.706
21219	21.047	0.36364	5.e-002	3.9208
21220	21.324	0.36364	0.	31.302
21221	21.232	0.27273	0.	30.443
21222	21.232	0.36364	5.e-002	3.9171
21223	21.509	0.36364	0.	32.261
21224	21.416	0.27273	0.	31.182
21225	21.416	0.36364	5.e-002	3.9147
21226	21.693	0.36364	0.	33.246
21227	21.601	0.27273	0.	31.921
21228	21.601	0.36364	5.e-002	3.9136
21229	21.878	0.36364	0.	34.26
21230	21.785	0.27273	0.	32.659
21231	21.785	0.36364	5.e-002	3.9139
21232	22.062	0.36364	0.	35.308
21233	21.97	0.27273	0.	33.393
21234	21.97	0.36364	5.e-002	3.9156
21235	22.247	0.36364	0.	36.396
21236	22.154	0.27273	0.	34.122
21237	22.154	0.36364	5.e-002	3.919
21238	22.431	0.36364	0.	37.535
21239	22.339	0.27273	0.	34.843
21240	22.339	0.36364	5.e-002	3.9241
21241	22.616	0.36364	0.	38.744
21242	22.524	0.27273	0.	35.557
21243	22.524	0.36364	5.e-002	3.9313
21244	22.8	0.36364	0.	40.054
21245	22.708	0.27273	0.	36.266
21246	22.708	0.36364	5.e-002	3.9411
21247	22.985	0.36364	0.	41.52
21248	22.893	0.27273	0.	36.98
21249	22.893	0.36364	5.e-002	3.9542
21250	23.17	0.36364	0.	43.25
21251	23.077	0.27273	0.	37.721
21252	23.077	0.36364	5.e-002	3.9725
21253	23.354	0.36364	0.	45.453
21254	23.262	0.27273	0.	38.552
21255	23.262	0.36364	5.e-002	3.9995
21256	23.539	0.36364	0.	48.616
21257	23.446	0.27273	0.	39.615
21258	23.446	0.36364	5.e-002	4.0456
21259	23.723	0.36364	0.	53.764
21260	23.631	0.27273	0.	41.353
21261	23.631	0.36364	5.e-002	4.1513
21262	23.815	0.27273	0.	45.179
21263	23.815	0.36364	5.e-002	4.5277
21264	23.908	0.36364	0.	60.048
21265	9.1435	0.18182	0.	82.544
21266	9.0512	0.18182	5.e-002	52.9
21267	9.0512	9.0909e-002	0.	39.967
21268	8.9589	0.18182	0.	46.827
21269	9.328	0.18182	0.	75.596
21270	9.2358	0.18182	5.e-002	46.687
21271	9.2358	9.0909e-002	0.	33.117
21272	9.5126	0.18182	0.	77.785
21273	9.4203	0.18182	5.e-002	42.91
21274	9.4203	9.0909e-002	0.	38.652
21275	9.6972	0.18182	0.	76.992
21276	9.6049	0.18182	5.e-002	38.402
21277	9.6049	9.0909e-002	0.	41.754
21278	9.8817	0.18182	0.	72.633
21279	9.7894	0.18182	5.e-002	33.446
21280	9.7894	9.0909e-002	0.	41.378
21281	10.066	0.18182	0.	65.972
21282	9.974	0.18182	5.e-002	28.42
21283	9.974	9.0909e-002	0.	38.795
21284	10.251	0.18182	0.	58.123
21285	10.159	0.18182	5.e-002	23.621
21286	10.159	9.0909e-002	0.	34.941
21287	10.435	0.18182	0.	49.959
21288	10.343	0.18182	5.e-002	19.245
21289	10.343	9.0909e-002	0.	30.543
21290	10.62	0.18182	0.	42.069
21291	10.528	0.18182	5.e-002	15.391
21292	10.528	9.0909e-002	0.	26.086
21293	10.804	0.18182	0.	34.809
21294	10.712	0.18182	5.e-002	12.085
21295	10.712	9.0909e-002	0.	21.869
21296	10.989	0.18182	0.	28.363
21297	10.897	0.18182	5.e-002	9.31
21298	10.897	9.0909e-002	0.	18.059
21299	11.174	0.18182	0.	22.795
21300	11.081	0.18182	5.e-002	7.0192
21301	11.081	9.0909e-002	0.	14.729
21302	11.358	0.18182	0.	18.098
21303	11.266	0.18182	5.e-002	5.1558
21304	11.266	9.0909e-002	0.	11.894
21305	11.543	0.18182	0.	14.219
21306	11.45	0.18182	5.e-002	3.6605
21307	11.45	9.0909e-002	0.	9.5365
21308	11.727	0.18182	0.	11.086
21309	11.635	0.18182	5.e-002	2.4774
21310	11.635	9.0909e-002	0.	7.6201
21311	11.912	0.18182	0.	8.6143
21312	11.82	0.18182	5.e-002	1.5575
21313	11.82	9.0909e-002	0.	6.0997
21314	12.096	0.18182	0.	6.7214
21315	12.004	0.18182	5.e-002	0.86612
21316	12.004	9.0909e-002	0.	4.9282
21317	12.281	0.18182	0.	5.3269
21318	12.189	0.18182	5.e-002	0.41677
21319	12.189	9.0909e-002	0.	4.0595
21320	12.465	0.18182	0.	4.3554
21321	12.373	0.18182	5.e-002	0.37229
21322	12.373	9.0909e-002	0.	3.4502
21323	12.65	0.18182	0.	3.7381
21324	12.558	0.18182	5.e-002	0.5719
21325	12.558	9.0909e-002	0.	3.06
21326	12.835	0.18182	0.	3.4131
21327	12.742	0.18182	5.e-002	0.75445
21328	12.742	9.0909e-002	0.	2.8519
21329	13.019	0.18182	0.	3.3267
21330	12.927	0.18182	5.e-002	0.88474
21331	12.927	9.0909e-002	0.	2.793
21332	13.204	0.18182	0.	3.434
21333	13.111	0.18182	5.e-002	0.96727
21334	13.111	9.0909e-002	0.	2.8549
21335	13.388	0.18182	0.	3.698
21336	13.296	0.18182	5.e-002	1.0111
21337	13.296	9.0909e-002	0.	3.0141
21338	13.573	0.18182	0.	4.0877
21339	13.48	0.18182	5.e-002	1.0247
21340	13.48	9.0909e-002	0.	3.2506
21341	13.757	0.18182	0.	4.5767
21342	13.665	0.18182	5.e-002	1.0154
21343	13.665	9.0909e-002	0.	3.5484
21344	13.942	0.18182	0.	5.1424
21345	13.85	0.18182	5.e-002	0.98917
21346	13.85	9.0909e-002	0.	3.8938
21347	14.126	0.18182	0.	5.766
21348	14.034	0.18182	5.e-002	0.95086
21349	14.034	9.0909e-002	0.	4.2754
21350	14.311	0.18182	0.	6.4316
21351	14.219	0.18182	5.e-002	0.90427
21352	14.219	9.0909e-002	0.	4.6839
21353	14.496	0.18182	0.	7.1264
21354	14.403	0.18182	5.e-002	0.85227
21355	14.403	9.0909e-002	0.	5.1115
21356	14.68	0.18182	0.	7.8398
21357	14.588	0.18182	5.e-002	0.79736
21358	14.588	9.0909e-002	0.	5.5519
21359	14.865	0.18182	0.	8.5637
21360	14.772	0.18182	5.e-002	0.74135
21361	14.772	9.0909e-002	0.	6.
21362	15.049	0.18182	0.	9.2916
21363	14.957	0.18182	5.e-002	0.6855
21364	14.957	9.0909e-002	0.	6.4518
21365	15.234	0.18182	0.	10.019
21366	15.141	0.18182	5.e-002	0.63097
21367	15.141	9.0909e-002	0.	6.9042
21368	15.418	0.18182	0.	10.741
21369	15.326	0.18182	5.e-002	0.5785
21370	15.326	9.0909e-002	0.	7.3549
21371	15.603	0.18182	0.	11.456
21372	15.511	0.18182	5.e-002	0.52871
21373	15.511	9.0909e-002	0.	7.8022
21374	15.787	0.18182	0.	12.162
21375	15.695	0.18182	5.e-002	0.48205
21376	15.695	9.0909e-002	0.	8.2449
21377	15.972	0.18182	0.	12.857
21378	15.88	0.18182	5.e-002	0.43892
21379	15.88	9.0909e-002	0.	8.6823
21380	16.157	0.18182	0.	13.542
21381	16.064	0.18182	5.e-002	0.39958
21382	16.064	9.0909e-002	0.	9.1139
21383	16.341	0.18182	0.	14.216
21384	16.249	0.18182	5.e-002	0.36426
21385	16.249	9.0909e-002	0.	9.5395
21386	16.526	0.18182	0.	14.879
21387	16.433	0.18182	5.e-002	0.33318
21388	16.433	9.0909e-002	0.	9.9593
21389	16.71	0.18182	0.	15.532
21390	16.618	0.18182	5.e-002	0.30659
21391	16.618	9.0909e-002	0.	10.374
21392	16.895	0.18182	0.	16.176
21393	16.802	0.18182	5.e-002	0.2847
21394	16.802	9.0909e-002	0.	10.783
21395	17.079	0.18182	0.	16.811
21396	16.987	0.18182	5.e-002	0.26769
21397	16.987	9.0909e-002	0.	11.187
21398	17.264	0.18182	0.	17.438
21399	17.172	0.18182	5.e-002	0.25565
21400	17.172	9.0909e-002	0.	11.587
21401	17.448	0.18182	0.	18.058
21402	17.356	0.18182	5.e-002	0.24861
21403	17.356	9.0909e-002	0.	11.983
21404	17.633	0.18182	0.	18.673
21405	17.541	0.18182	5.e-002	0.24649
21406	17.541	9.0909e-002	0.	12.377
21407	17.817	0.18182	0.	19.282
21408	17.725	0.18182	5.e-002	0.24904
21409	17.725	9.0909e-002	0.	12.768
21410	18.002	0.18182	0.	19.888
21411	17.91	0.18182	5.e-002	0.25595
21412	17.91	9.0909e-002	0.	13.157
21413	18.187	0.18182	0.	20.491
21414	18.094	0.18182	5.e-002	0.26685
21415	18.094	9.0909e-002	0.	13.545
21416	18.371	0.18182	0.	21.092
21417	18.279	0.18182	5.e-002	0.28144
21418	18.279	9.0909e-002	0.	13.933
21419	18.556	0.18182	0.	21.691
21420	18.463	0.18182	5.e-002	0.29946
21421	18.463	9.0909e-002	0.	14.32
21422	18.74	0.18182	0.	22.29
21423	18.648	0.18182	5.e-002	0.32076
21424	18.648	9.0909e-002	0.	14.708
21425	18.925	0.18182	0.	22.889
21426	18.833	0.18182	5.e-002	0.34528
21427	18.833	9.0909e-002	0.	15.096
21428	19.109	0.18182	0.	23.488
21429	19.017	0.18182	5.e-002	0.37303
21430	19.017	9.0909e-002	0.	15.486
21431	19.294	0.18182	0.	24.088
21432	19.202	0.18182	5.e-002	0.40412
21433	19.202	9.0909e-002	0.	15.877
21434	19.478	0.18182	0.	24.688
21435	19.386	0.18182	5.e-002	0.43868
21436	19.386	9.0909e-002	0.	16.269
21437	19.663	0.18182	0.	25.289
21438	19.571	0.18182	5.e-002	0.47693
21439	19.571	9.0909e-002	0.	16.662
21440	19.848	0.18182	0.	25.891
21441	19.755	0.18182	5.e-002	0.5191
21442	19.755	9.0909e-002	0.	17.057
21443	20.032	0.18182	0.	26.491
21444	19.94	0.18182	5.e-002	0.56546
21445	19.94	9.0909e-002	0.	17.453
21446	20.217	0.18182	0.	27.091
21447	20.124	0.18182	5.e-002	0.61631
21448	20.124	9.0909e-002	0.	17.85
21449	20.401	0.18182	0.	27.688
21450	20.309	0.18182	5.e-002	0.67199
21451	20.309	9.0909e-002	0.	18.247
21452	20.586	0.18182	0.	28.281
21453	20.493	0.18182	5.e-002	0.73286
21454	20.493	9.0909e-002	0.	18.643
21455	20.77	0.18182	0.	28.867
21456	20.678	0.18182	5.e-002	0.7993
21457	20.678	9.0909e-002	0.	19.038
21458	20.955	0.18182	0.	29.445
21459	20.863	0.18182	5.e-002	0.87175
21460	20.863	9.0909e-002	0.	19.429
21461	21.139	0.18182	0.	30.011
21462	21.047	0.18182	5.e-002	0.95066
21463	21.047	9.0909e-002	0.	19.816
21464	21.324	0.18182	0.	30.562
21465	21.232	0.18182	5.e-002	1.0365
21466	21.232	9.0909e-002	0.	20.196
21467	21.509	0.18182	0.	31.092
21468	21.416	0.18182	5.e-002	1.1299
21469	21.416	9.0909e-002	0.	20.568
21470	21.693	0.18182	0.	31.597
21471	21.601	0.18182	5.e-002	1.2313
21472	21.601	9.0909e-002	0.	20.927
21473	21.878	0.18182	0.	32.07
21474	21.785	0.18182	5.e-002	1.3416
21475	21.785	9.0909e-002	0.	21.27
21476	22.062	0.18182	0.	32.502
21477	21.97	0.18182	5.e-002	1.4615
21478	21.97	9.0909e-002	0.	21.594
21479	22.247	0.18182	0.	32.884
21480	22.154	0.18182	5.e-002	1.5918
21481	22.154	9.0909e-002	0.	21.892
21482	22.431	0.18182	0.	33.206
21483	22.339	0.18182	5.e-002	1.7337
21484	22.339	9.0909e-002	0.	22.157
21485	22.616	0.18182	0.	33.451
21486	22.524	0.18182	5.e-002	1.8886
21487	22.524	9.0909e-002	0.	22.382
21488	22.8	0.18182	0.	33.605
21489	22.708	0.18182	5.e-002	2.0581
21490	22.708	9.0909e-002	0.	22.555
21491	22.985	0.18182	0.	33.646
21492	22.893	0.18182	5.e-002	2.2445
21493	22.893	9.0909e-002	0.	22.66
21494	23.17	0.18182	0.	33.558
21495	23.077	0.18182	5.e-002	2.4509
21496	23.077	9.0909e-002	0.	22.678
21497	23.354	0.18182	0.	33.334
21498	23.262	0.18182	5.e-002	2.683
21499	23.262	9.0909e-002	0.	22.583
21500	23.539	0.18182	0.	33.05
21501	23.446	0.18182	5.e-002	2.9483
21502	23.446	9.0909e-002	0.	22.322
21503	23.723	0.18182	0.	33.412
21504	23.631	0.18182	5.e-002	3.281
21505	23.631	9.0909e-002	0.	21.928
21506	23.815	0.18182	5.e-002	3.9914
21507	23.815	9.0909e-002	0.	21.29
21508	23.908	0.18182	0.	34.709
21509	23.723	0.18182	0.1	55.026
21510	23.815	0.27273	0.1	37.341
21511	23.908	0.18182	0.1	20.592
21512	23.815	9.0909e-002	0.1	34.605
21513	23.539	0.18182	0.1	91.922
21514	23.631	0.27273	0.1	72.639
21515	23.631	9.0909e-002	0.1	69.339
21516	23.354	0.18182	0.1	130.18
21517	23.446	0.27273	0.1	110.03
21518	23.446	9.0909e-002	0.1	106.11
21519	23.17	0.18182	0.1	168.96
21520	23.262	0.27273	0.1	148.26
21521	23.262	9.0909e-002	0.1	143.8
21522	22.985	0.18182	0.1	208.06
21523	23.077	0.27273	0.1	187.
21524	23.077	9.0909e-002	0.1	182.09
21525	22.8	0.18182	0.1	247.4
21526	22.893	0.27273	0.1	226.06
21527	22.893	9.0909e-002	0.1	220.8
21528	22.616	0.18182	0.1	286.93
21529	22.708	0.27273	0.1	265.38
21530	22.708	9.0909e-002	0.1	259.84
21531	22.431	0.18182	0.1	326.62
21532	22.524	0.27273	0.1	304.89
21533	22.524	9.0909e-002	0.1	299.15
21534	22.247	0.18182	0.1	366.44
21535	22.339	0.27273	0.1	344.57
21536	22.339	9.0909e-002	0.1	338.68
21537	22.062	0.18182	0.1	406.39
21538	22.154	0.27273	0.1	384.4
21539	22.154	9.0909e-002	0.1	378.41
21540	21.878	0.18182	0.1	446.47
21541	21.97	0.27273	0.1	424.37
21542	21.97	9.0909e-002	0.1	418.31
21543	21.693	0.18182	0.1	486.67
21544	21.785	0.27273	0.1	464.47
21545	21.785	9.0909e-002	0.1	458.38
21546	21.509	0.18182	0.1	526.99
21547	21.601	0.27273	0.1	504.7
21548	21.601	9.0909e-002	0.1	498.61
21549	21.324	0.18182	0.1	567.43
21550	21.416	0.27273	0.1	545.05
21551	21.416	9.0909e-002	0.1	538.99
21552	21.139	0.18182	0.1	608.
21553	21.232	0.27273	0.1	585.54
21554	21.232	9.0909e-002	0.1	579.51
21555	20.955	0.18182	0.1	648.7
21556	21.047	0.27273	0.1	626.16
21557	21.047	9.0909e-002	0.1	620.19
21558	20.77	0.18182	0.1	689.53
21559	20.863	0.27273	0.1	666.92
21560	20.863	9.0909e-002	0.1	661.01
21561	20.586	0.18182	0.1	730.5
21562	20.678	0.27273	0.1	707.81
21563	20.678	9.0909e-002	0.1	701.99
21564	20.401	0.18182	0.1	771.61
21565	20.493	0.27273	0.1	748.85
21566	20.493	9.0909e-002	0.1	743.11
21567	20.217	0.18182	0.1	812.87
21568	20.309	0.27273	0.1	790.04
21569	20.309	9.0909e-002	0.1	784.4
21570	20.032	0.18182	0.1	854.28
21571	20.124	0.27273	0.1	831.38
21572	20.124	9.0909e-002	0.1	825.84
21573	19.848	0.18182	0.1	895.85
21574	19.94	0.27273	0.1	872.87
21575	19.94	9.0909e-002	0.1	867.44
21576	19.663	0.18182	0.1	937.58
21577	19.755	0.27273	0.1	914.53
21578	19.755	9.0909e-002	0.1	909.21
21579	19.478	0.18182	0.1	979.47
21580	19.571	0.27273	0.1	956.34
21581	19.571	9.0909e-002	0.1	951.15
21582	19.294	0.18182	0.1	1021.5
21583	19.386	0.27273	0.1	998.33
21584	19.386	9.0909e-002	0.1	993.26
21585	19.109	0.18182	0.1	1063.8
21586	19.202	0.27273	0.1	1040.5
21587	19.202	9.0909e-002	0.1	1035.5
21588	18.925	0.18182	0.1	1106.2
21589	19.017	0.27273	0.1	1082.8
21590	19.017	9.0909e-002	0.1	1078.
21591	18.74	0.18182	0.1	1148.8
21592	18.833	0.27273	0.1	1125.3
21593	18.833	9.0909e-002	0.1	1120.6
21594	18.556	0.18182	0.1	1191.5
21595	18.648	0.27273	0.1	1168.
21596	18.648	9.0909e-002	0.1	1163.5
21597	18.371	0.18182	0.1	1234.5
21598	18.463	0.27273	0.1	1210.9
21599	18.463	9.0909e-002	0.1	1206.5
21600	18.187	0.18182	0.1	1277.7
21601	18.279	0.27273	0.1	1254.
21602	18.279	9.0909e-002	0.1	1249.7
21603	18.002	0.18182	0.1	1321.
21604	18.094	0.27273	0.1	1297.2
21605	18.094	9.0909e-002	0.1	1293.1
21606	17.817	0.18182	0.1	1364.5
21607	17.91	0.27273	0.1	1340.7
21608	17.91	9.0909e-002	0.1	1336.7
21609	17.633	0.18182	0.1	1408.3
21610	17.725	0.27273	0.1	1384.3
21611	17.725	9.0909e-002	0.1	1380.5
21612	17.448	0.18182	0.1	1452.2
21613	17.541	0.27273	0.1	1428.2
21614	17.541	9.0909e-002	0.1	1424.5
21615	17.264	0.18182	0.1	1496.3
21616	17.356	0.27273	0.1	1472.2
21617	17.356	9.0909e-002	0.1	1468.7
21618	17.079	0.18182	0.1	1540.7
21619	17.172	0.27273	0.1	1516.5
21620	17.172	9.0909e-002	0.1	1513.1
21621	16.895	0.18182	0.1	1585.2
21622	16.987	0.27273	0.1	1560.9
21623	16.987	9.0909e-002	0.1	1557.7
21624	16.71	0.18182	0.1	1630.
21625	16.802	0.27273	0.1	1605.6
21626	16.802	9.0909e-002	0.1	1602.5
21627	16.526	0.18182	0.1	1674.9
21628	16.618	0.27273	0.1	1650.4
21629	16.618	9.0909e-002	0.1	1647.5
21630	16.341	0.18182	0.1	1720.1
21631	16.433	0.27273	0.1	1695.5
21632	16.433	9.0909e-002	0.1	1692.7
21633	16.157	0.18182	0.1	1765.5
21634	16.249	0.27273	0.1	1740.8
21635	16.249	9.0909e-002	0.1	1738.2
21636	15.972	0.18182	0.1	1811.
21637	16.064	0.27273	0.1	1786.3
21638	16.064	9.0909e-002	0.1	1783.8
21639	15.787	0.18182	0.1	1856.8
21640	15.88	0.27273	0.1	1831.9
21641	15.88	9.0909e-002	0.1	1829.7
21642	15.603	0.18182	0.1	1902.8
21643	15.695	0.27273	0.1	1877.8
21644	15.695	9.0909e-002	0.1	1875.7
21645	15.418	0.18182	0.1	1948.9
21646	15.511	0.27273	0.1	1923.9
21647	15.511	9.0909e-002	0.1	1922.
21648	15.234	0.18182	0.1	1995.2
21649	15.326	0.27273	0.1	1970.1
21650	15.326	9.0909e-002	0.1	1968.4
21651	15.049	0.18182	0.1	2041.7
21652	15.141	0.27273	0.1	2016.5
21653	15.141	9.0909e-002	0.1	2015.
21654	14.865	0.18182	0.1	2088.4
21655	14.957	0.27273	0.1	2063.1
21656	14.957	9.0909e-002	0.1	2061.8
21657	14.68	0.18182	0.1	2135.1
21658	14.772	0.27273	0.1	2109.8
21659	14.772	9.0909e-002	0.1	2108.7
21660	14.496	0.18182	0.1	2181.9
21661	14.588	0.27273	0.1	2156.6
21662	14.588	9.0909e-002	0.1	2155.6
21663	14.311	0.18182	0.1	2228.8
21664	14.403	0.27273	0.1	2203.5
21665	14.403	9.0909e-002	0.1	2202.7
21666	14.126	0.18182	0.1	2275.7
21667	14.219	0.27273	0.1	2250.4
21668	14.219	9.0909e-002	0.1	2249.7
21669	13.942	0.18182	0.1	2322.4
21670	14.034	0.27273	0.1	2297.3
21671	14.034	9.0909e-002	0.1	2296.7
21672	13.757	0.18182	0.1	2369.
21673	13.85	0.27273	0.1	2344.
21674	13.85	9.0909e-002	0.1	2343.6
21675	13.573	0.18182	0.1	2415.2
21676	13.665	0.27273	0.1	2390.6
21677	13.665	9.0909e-002	0.1	2390.1
21678	13.388	0.18182	0.1	2461.
21679	13.48	0.27273	0.1	2436.7
21680	13.48	9.0909e-002	0.1	2436.3
21681	13.204	0.18182	0.1	2506.
21682	13.296	0.27273	0.1	2482.3
21683	13.296	9.0909e-002	0.1	2481.8
21684	13.019	0.18182	0.1	2550.1
21685	13.111	0.27273	0.1	2527.2
21686	13.111	9.0909e-002	0.1	2526.5
21687	12.835	0.18182	0.1	2592.9
21688	12.927	0.27273	0.1	2570.9
21689	12.927	9.0909e-002	0.1	2570.
21690	12.65	0.18182	0.1	2634.
21691	12.742	0.27273	0.1	2613.3
21692	12.742	9.0909e-002	0.1	2612.
21693	12.465	0.18182	0.1	2672.8
21694	12.558	0.27273	0.1	2653.8
21695	12.558	9.0909e-002	0.1	2651.9
21696	12.281	0.18182	0.1	2708.6
21697	12.373	0.27273	0.1	2691.8
21698	12.373	9.0909e-002	0.1	2689.2
21699	12.096	0.18182	0.1	2740.6
21700	12.189	0.27273	0.1	2726.6
21701	12.189	9.0909e-002	0.1	2723.
21702	11.912	0.18182	0.1	2767.7
21703	12.004	0.27273	0.1	2757.3
21704	12.004	9.0909e-002	0.1	2752.3
21705	11.727	0.18182	0.1	2788.6
21706	11.82	0.27273	0.1	2782.7
21707	11.82	9.0909e-002	0.1	2776.
21708	11.543	0.18182	0.1	2801.6
21709	11.635	0.27273	0.1	2801.3
21710	11.635	9.0909e-002	0.1	2792.5
21711	11.358	0.18182	0.1	2804.7
21712	11.45	0.27273	0.1	2811.4
21713	11.45	9.0909e-002	0.1	2800.
21714	11.174	0.18182	0.1	2795.4
21715	11.266	0.27273	0.1	2810.8
21716	11.266	9.0909e-002	0.1	2796.1
21717	10.989	0.18182	0.1	2770.8
21718	11.081	0.27273	0.1	2796.9
21719	11.081	9.0909e-002	0.1	2778.2
21720	10.804	0.18182	0.1	2727.3
21721	10.897	0.27273	0.1	2766.4
21722	10.897	9.0909e-002	0.1	2742.8
21723	10.62	0.18182	0.1	2660.9
21724	10.712	0.27273	0.1	2715.7
21725	10.712	9.0909e-002	0.1	2686.2
21726	10.435	0.18182	0.1	2567.1
21727	10.528	0.27273	0.1	2640.2
21728	10.528	9.0909e-002	0.1	2603.9
21729	10.251	0.18182	0.1	2440.9
21730	10.343	0.27273	0.1	2535.4
21731	10.343	9.0909e-002	0.1	2491.
21732	10.066	0.18182	0.1	2277.3
21733	10.159	0.27273	0.1	2395.9
21734	10.159	9.0909e-002	0.1	2342.3
21735	9.8817	0.18182	0.1	2071.7
21736	9.974	0.27273	0.1	2216.8
21737	9.974	9.0909e-002	0.1	2152.8
21738	9.6972	0.18182	0.1	1820.9
21739	9.7894	0.27273	0.1	1994.
21740	9.7894	9.0909e-002	0.1	1918.4
21741	9.5126	0.18182	0.1	1523.6
21742	9.6049	0.27273	0.1	1725.5
21743	9.6049	9.0909e-002	0.1	1636.4
21744	9.328	0.18182	0.1	1182.2
21745	9.4203	0.27273	0.1	1414.1
21746	9.4203	9.0909e-002	0.1	1306.9
21747	9.1435	0.18182	0.1	814.66
21748	9.2358	0.27273	0.1	1072.4
21749	9.2358	9.0909e-002	0.1	932.31
21750	9.0512	0.27273	0.1	767.38
21751	8.9589	0.18182	0.1	460.94
21752	9.0512	9.0909e-002	0.1	528.94
21753	23.723	0.36364	0.1	55.565
21754	23.815	0.45455	0.1	38.503
21755	23.908	0.36364	0.1	21.529
21756	23.539	0.36364	0.1	91.445
21757	23.631	0.45455	0.1	73.739
21758	23.354	0.36364	0.1	128.74
21759	23.446	0.45455	0.1	110.44
21760	23.17	0.36364	0.1	166.85
21761	23.262	0.45455	0.1	148.05
21762	22.985	0.36364	0.1	205.48
21763	23.077	0.45455	0.1	186.3
21764	22.8	0.36364	0.1	244.47
21765	22.893	0.45455	0.1	224.98
21766	22.616	0.36364	0.1	283.73
21767	22.708	0.45455	0.1	264.
21768	22.431	0.36364	0.1	323.2
21769	22.524	0.45455	0.1	303.28
21770	22.247	0.36364	0.1	362.86
21771	22.339	0.45455	0.1	342.76
21772	22.062	0.36364	0.1	402.68
21773	22.154	0.45455	0.1	382.43
21774	21.878	0.36364	0.1	442.65
21775	21.97	0.45455	0.1	422.27
21776	21.693	0.36364	0.1	482.77
21777	21.785	0.45455	0.1	462.26
21778	21.509	0.36364	0.1	523.02
21779	21.601	0.45455	0.1	502.39
21780	21.324	0.36364	0.1	563.41
21781	21.416	0.45455	0.1	542.67
21782	21.139	0.36364	0.1	603.94
21783	21.232	0.45455	0.1	583.09
21784	20.955	0.36364	0.1	644.61
21785	21.047	0.45455	0.1	623.65
21786	20.77	0.36364	0.1	685.42
21787	20.863	0.45455	0.1	664.36
21788	20.586	0.36364	0.1	726.38
21789	20.678	0.45455	0.1	705.22
21790	20.401	0.36364	0.1	767.48
21791	20.493	0.45455	0.1	746.22
21792	20.217	0.36364	0.1	808.74
21793	20.309	0.45455	0.1	787.38
21794	20.032	0.36364	0.1	850.16
21795	20.124	0.45455	0.1	828.7
21796	19.848	0.36364	0.1	891.73
21797	19.94	0.45455	0.1	870.17
21798	19.663	0.36364	0.1	933.47
21799	19.755	0.45455	0.1	911.81
21800	19.478	0.36364	0.1	975.38
21801	19.571	0.45455	0.1	953.62
21802	19.294	0.36364	0.1	1017.5
21803	19.386	0.45455	0.1	995.6
21804	19.109	0.36364	0.1	1059.7
21805	19.202	0.45455	0.1	1037.7
21806	18.925	0.36364	0.1	1102.1
21807	19.017	0.45455	0.1	1080.1
21808	18.74	0.36364	0.1	1144.8
21809	18.833	0.45455	0.1	1122.6
21810	18.556	0.36364	0.1	1187.6
21811	18.648	0.45455	0.1	1165.3
21812	18.371	0.36364	0.1	1230.5
21813	18.463	0.45455	0.1	1208.2
21814	18.187	0.36364	0.1	1273.7
21815	18.279	0.45455	0.1	1251.2
21816	18.002	0.36364	0.1	1317.1
21817	18.094	0.45455	0.1	1294.5
21818	17.817	0.36364	0.1	1360.6
21819	17.91	0.45455	0.1	1337.9
21820	17.633	0.36364	0.1	1404.4
21821	17.725	0.45455	0.1	1381.6
21822	17.448	0.36364	0.1	1448.4
21823	17.541	0.45455	0.1	1425.4
21824	17.264	0.36364	0.1	1492.5
21825	17.356	0.45455	0.1	1469.5
21826	17.079	0.36364	0.1	1536.9
21827	17.172	0.45455	0.1	1513.7
21828	16.895	0.36364	0.1	1581.4
21829	16.987	0.45455	0.1	1558.1
21830	16.71	0.36364	0.1	1626.2
21831	16.802	0.45455	0.1	1602.8
21832	16.526	0.36364	0.1	1671.2
21833	16.618	0.45455	0.1	1647.6
21834	16.341	0.36364	0.1	1716.3
21835	16.433	0.45455	0.1	1692.7
21836	16.157	0.36364	0.1	1761.7
21837	16.249	0.45455	0.1	1737.9
21838	15.972	0.36364	0.1	1807.3
21839	16.064	0.45455	0.1	1783.4
21840	15.787	0.36364	0.1	1853.
21841	15.88	0.45455	0.1	1829.
21842	15.603	0.36364	0.1	1899.
21843	15.695	0.45455	0.1	1874.9
21844	15.418	0.36364	0.1	1945.2
21845	15.511	0.45455	0.1	1920.9
21846	15.234	0.36364	0.1	1991.5
21847	15.326	0.45455	0.1	1967.2
21848	15.049	0.36364	0.1	2038.
21849	15.141	0.45455	0.1	2013.6
21850	14.865	0.36364	0.1	2084.6
21851	14.957	0.45455	0.1	2060.1
21852	14.68	0.36364	0.1	2131.4
21853	14.772	0.45455	0.1	2106.8
21854	14.496	0.36364	0.1	2178.3
21855	14.588	0.45455	0.1	2153.7
21856	14.311	0.36364	0.1	2225.2
21857	14.403	0.45455	0.1	2200.6
21858	14.126	0.36364	0.1	2272.1
21859	14.219	0.45455	0.1	2247.5
21860	13.942	0.36364	0.1	2319.
21861	14.034	0.45455	0.1	2294.5
21862	13.757	0.36364	0.1	2365.7
21863	13.85	0.45455	0.1	2341.3
21864	13.573	0.36364	0.1	2412.1
21865	13.665	0.45455	0.1	2388.
21866	13.388	0.36364	0.1	2458.1
21867	13.48	0.45455	0.1	2434.4
21868	13.204	0.36364	0.1	2503.5
21869	13.296	0.45455	0.1	2480.3
21870	13.019	0.36364	0.1	2548.
21871	13.111	0.45455	0.1	2525.5
21872	12.835	0.36364	0.1	2591.4
21873	12.927	0.45455	0.1	2569.9
21874	12.65	0.36364	0.1	2633.2
21875	12.742	0.45455	0.1	2612.9
21876	12.465	0.36364	0.1	2672.9
21877	12.558	0.45455	0.1	2654.3
21878	12.281	0.36364	0.1	2709.9
21879	12.373	0.45455	0.1	2693.5
21880	12.096	0.36364	0.1	2743.4
21881	12.189	0.45455	0.1	2729.8
21882	11.912	0.36364	0.1	2772.3
21883	12.004	0.45455	0.1	2762.3
21884	11.727	0.36364	0.1	2795.4
21885	11.82	0.45455	0.1	2790.
21886	11.543	0.36364	0.1	2811.2
21887	11.635	0.45455	0.1	2811.6
21888	11.358	0.36364	0.1	2817.6
21889	11.45	0.45455	0.1	2825.3
21890	11.174	0.36364	0.1	2812.3
21891	11.266	0.45455	0.1	2829.1
21892	10.989	0.36364	0.1	2792.5
21893	11.081	0.45455	0.1	2820.4
21894	10.804	0.36364	0.1	2754.6
21895	10.897	0.45455	0.1	2796.3
21896	10.62	0.36364	0.1	2694.7
21897	10.712	0.45455	0.1	2753.1
21898	10.435	0.36364	0.1	2608.1
21899	10.528	0.45455	0.1	2686.5
21900	10.251	0.36364	0.1	2489.8
21901	10.343	0.45455	0.1	2591.8
21902	10.066	0.36364	0.1	2334.6
21903	10.159	0.45455	0.1	2463.7
21904	9.8817	0.36364	0.1	2137.9
21905	9.974	0.45455	0.1	2297.2
21906	9.6972	0.36364	0.1	1897.1
21907	9.7894	0.45455	0.1	2088.7
21908	9.5126	0.36364	0.1	1613.8
21909	9.6049	0.45455	0.1	1837.7
21910	9.328	0.36364	0.1	1299.5
21911	9.4203	0.45455	0.1	1551.6
21912	9.1435	0.36364	0.1	1004.2
21913	9.2358	0.45455	0.1	1255.8
21914	9.0512	0.45455	0.1	1042.
21915	8.9589	0.36364	0.1	711.8
21916	23.723	0.54545	0.1	56.759
21917	23.815	0.63636	0.1	39.211
21918	23.908	0.54545	0.1	22.051
21919	23.539	0.54545	0.1	92.916
21920	23.631	0.63636	0.1	75.177
21921	23.354	0.54545	0.1	129.97
21922	23.446	0.63636	0.1	111.95
21923	23.17	0.54545	0.1	167.71
21924	23.262	0.63636	0.1	149.34
21925	22.985	0.54545	0.1	206.
21926	23.077	0.63636	0.1	187.29
21927	22.8	0.54545	0.1	244.69
21928	22.893	0.63636	0.1	225.69
21929	22.616	0.54545	0.1	283.71
21930	22.708	0.63636	0.1	264.45
21931	22.431	0.54545	0.1	322.98
21932	22.524	0.63636	0.1	303.49
21933	22.247	0.54545	0.1	362.46
21934	22.339	0.63636	0.1	342.78
21935	22.062	0.54545	0.1	402.14
21936	22.154	0.63636	0.1	382.28
21937	21.878	0.54545	0.1	441.98
21938	21.97	0.63636	0.1	421.96
21939	21.693	0.54545	0.1	481.98
21940	21.785	0.63636	0.1	461.82
21941	21.509	0.54545	0.1	522.13
21942	21.601	0.63636	0.1	501.83
21943	21.324	0.54545	0.1	562.43
21944	21.416	0.63636	0.1	542.01
21945	21.139	0.54545	0.1	602.88
21946	21.232	0.63636	0.1	582.33
21947	20.955	0.54545	0.1	643.48
21948	21.047	0.63636	0.1	622.81
21949	20.77	0.54545	0.1	684.23
21950	20.863	0.63636	0.1	663.44
21951	20.586	0.54545	0.1	725.13
21952	20.678	0.63636	0.1	704.22
21953	20.401	0.54545	0.1	766.18
21954	20.493	0.63636	0.1	745.17
21955	20.217	0.54545	0.1	807.4
21956	20.309	0.63636	0.1	786.27
21957	20.032	0.54545	0.1	848.77
21958	20.124	0.63636	0.1	827.53
21959	19.848	0.54545	0.1	890.31
21960	19.94	0.63636	0.1	868.96
21961	19.663	0.54545	0.1	932.01
21962	19.755	0.63636	0.1	910.55
21963	19.478	0.54545	0.1	973.89
21964	19.571	0.63636	0.1	952.32
21965	19.294	0.54545	0.1	1015.9
21966	19.386	0.63636	0.1	994.26
21967	19.109	0.54545	0.1	1058.2
21968	19.202	0.63636	0.1	1036.4
21969	18.925	0.54545	0.1	1100.6
21970	19.017	0.63636	0.1	1078.7
21971	18.74	0.54545	0.1	1143.2
21972	18.833	0.63636	0.1	1121.2
21973	18.556	0.54545	0.1	1185.9
21974	18.648	0.63636	0.1	1163.8
21975	18.371	0.54545	0.1	1228.9
21976	18.463	0.63636	0.1	1206.7
21977	18.187	0.54545	0.1	1272.
21978	18.279	0.63636	0.1	1249.7
21979	18.002	0.54545	0.1	1315.4
21980	18.094	0.63636	0.1	1292.9
21981	17.817	0.54545	0.1	1358.9
21982	17.91	0.63636	0.1	1336.4
21983	17.633	0.54545	0.1	1402.6
21984	17.725	0.63636	0.1	1380.
21985	17.448	0.54545	0.1	1446.6
21986	17.541	0.63636	0.1	1423.8
21987	17.264	0.54545	0.1	1490.7
21988	17.356	0.63636	0.1	1467.8
21989	17.079	0.54545	0.1	1535.
21990	17.172	0.63636	0.1	1512.
21991	16.895	0.54545	0.1	1579.5
21992	16.987	0.63636	0.1	1556.4
21993	16.71	0.54545	0.1	1624.3
21994	16.802	0.63636	0.1	1601.
21995	16.526	0.54545	0.1	1669.2
21996	16.618	0.63636	0.1	1645.8
21997	16.341	0.54545	0.1	1714.3
21998	16.433	0.63636	0.1	1690.8
21999	16.157	0.54545	0.1	1759.7
22000	16.249	0.63636	0.1	1736.
22001	15.972	0.54545	0.1	1805.2
22002	16.064	0.63636	0.1	1781.5
22003	15.787	0.54545	0.1	1850.9
22004	15.88	0.63636	0.1	1827.1
22005	15.603	0.54545	0.1	1896.9
22006	15.695	0.63636	0.1	1872.9
22007	15.418	0.54545	0.1	1943.
22008	15.511	0.63636	0.1	1918.9
22009	15.234	0.54545	0.1	1989.3
22010	15.326	0.63636	0.1	1965.1
22011	15.049	0.54545	0.1	2035.7
22012	15.141	0.63636	0.1	2011.4
22013	14.865	0.54545	0.1	2082.4
22014	14.957	0.63636	0.1	2058.
22015	14.68	0.54545	0.1	2129.1
22016	14.772	0.63636	0.1	2104.6
22017	14.496	0.54545	0.1	2176.
22018	14.588	0.63636	0.1	2151.5
22019	14.311	0.54545	0.1	2222.9
22020	14.403	0.63636	0.1	2198.4
22021	14.126	0.54545	0.1	2269.9
22022	14.219	0.63636	0.1	2245.4
22023	13.942	0.54545	0.1	2316.8
22024	14.034	0.63636	0.1	2292.4
22025	13.757	0.54545	0.1	2363.7
22026	13.85	0.63636	0.1	2339.3
22027	13.573	0.54545	0.1	2410.3
22028	13.665	0.63636	0.1	2386.2
22029	13.388	0.54545	0.1	2456.6
22030	13.48	0.63636	0.1	2432.8
22031	13.204	0.54545	0.1	2502.3
22032	13.296	0.63636	0.1	2479.1
22033	13.019	0.54545	0.1	2547.4
22034	13.111	0.63636	0.1	2524.8
22035	12.835	0.54545	0.1	2591.4
22036	12.927	0.63636	0.1	2569.8
22037	12.65	0.54545	0.1	2634.1
22038	12.742	0.63636	0.1	2613.7
22039	12.465	0.54545	0.1	2674.9
22040	12.558	0.63636	0.1	2656.2
22041	12.281	0.54545	0.1	2713.4
22042	12.373	0.63636	0.1	2696.8
22043	12.096	0.54545	0.1	2748.8
22044	12.189	0.63636	0.1	2734.9
22045	11.912	0.54545	0.1	2780.1
22046	12.004	0.63636	0.1	2769.7
22047	11.727	0.54545	0.1	2806.2
22048	11.82	0.63636	0.1	2800.4
22049	11.543	0.54545	0.1	2825.6
22050	11.635	0.63636	0.1	2825.6
22051	11.358	0.54545	0.1	2836.7
22052	11.45	0.63636	0.1	2844.
22053	11.174	0.54545	0.1	2837.1
22054	11.266	0.63636	0.1	2853.5
22055	10.989	0.54545	0.1	2824.1
22056	11.081	0.63636	0.1	2852.
22057	10.804	0.54545	0.1	2794.6
22058	10.897	0.63636	0.1	2836.6
22059	10.62	0.54545	0.1	2744.6
22060	10.712	0.63636	0.1	2803.9
22061	10.435	0.54545	0.1	2669.7
22062	10.528	0.63636	0.1	2750.
22063	10.251	0.54545	0.1	2564.9
22064	10.343	0.63636	0.1	2670.4
22065	10.066	0.54545	0.1	2425.1
22066	10.159	0.63636	0.1	2560.
22067	9.8817	0.54545	0.1	2246.2
22068	9.974	0.63636	0.1	2414.1
22069	9.6972	0.54545	0.1	2026.2
22070	9.7894	0.63636	0.1	2229.5
22071	9.5126	0.54545	0.1	1769.7
22072	9.6049	0.63636	0.1	2006.9
22073	9.328	0.54545	0.1	1494.9
22074	9.4203	0.63636	0.1	1756.4
22075	9.1435	0.54545	0.1	1262.5
22076	9.2358	0.63636	0.1	1506.3
22077	9.0512	0.63636	0.1	1349.9
22078	8.9589	0.54545	0.1	967.16
22079	23.723	0.72727	0.1	57.63
22080	23.815	0.81818	0.1	39.609
22081	23.908	0.72727	0.1	22.345
22082	23.539	0.72727	0.1	94.278
22083	23.631	0.81818	0.1	76.246
22084	23.354	0.72727	0.1	131.42
22085	23.446	0.81818	0.1	113.33
22086	23.17	0.72727	0.1	169.04
22087	23.262	0.81818	0.1	150.75
22088	22.985	0.72727	0.1	207.11
22089	23.077	0.81818	0.1	188.58
22090	22.8	0.72727	0.1	245.56
22091	22.893	0.81818	0.1	226.79
22092	22.616	0.72727	0.1	284.35
22093	22.708	0.81818	0.1	265.34
22094	22.431	0.72727	0.1	323.41
22095	22.524	0.81818	0.1	304.18
22096	22.247	0.72727	0.1	362.7
22097	22.339	0.81818	0.1	343.28
22098	22.062	0.72727	0.1	402.2
22099	22.154	0.81818	0.1	382.6
22100	21.878	0.72727	0.1	441.89
22101	21.97	0.81818	0.1	422.11
22102	21.693	0.72727	0.1	481.75
22103	21.785	0.81818	0.1	461.82
22104	21.509	0.72727	0.1	521.78
22105	21.601	0.81818	0.1	501.7
22106	21.324	0.72727	0.1	561.97
22107	21.416	0.81818	0.1	541.75
22108	21.139	0.72727	0.1	602.32
22109	21.232	0.81818	0.1	581.96
22110	20.955	0.72727	0.1	642.83
22111	21.047	0.81818	0.1	622.34
22112	20.77	0.72727	0.1	683.49
22113	20.863	0.81818	0.1	662.88
22114	20.586	0.72727	0.1	724.32
22115	20.678	0.81818	0.1	703.58
22116	20.401	0.72727	0.1	765.31
22117	20.493	0.81818	0.1	744.44
22118	20.217	0.72727	0.1	806.45
22119	20.309	0.81818	0.1	785.47
22120	20.032	0.72727	0.1	847.77
22121	20.124	0.81818	0.1	826.67
22122	19.848	0.72727	0.1	889.26
22123	19.94	0.81818	0.1	868.04
22124	19.663	0.72727	0.1	930.91
22125	19.755	0.81818	0.1	909.58
22126	19.478	0.72727	0.1	972.74
22127	19.571	0.81818	0.1	951.3
22128	19.294	0.72727	0.1	1014.7
22129	19.386	0.81818	0.1	993.19
22130	19.109	0.72727	0.1	1056.9
22131	19.202	0.81818	0.1	1035.3
22132	18.925	0.72727	0.1	1099.3
22133	19.017	0.81818	0.1	1077.5
22134	18.74	0.72727	0.1	1141.9
22135	18.833	0.81818	0.1	1120.
22136	18.556	0.72727	0.1	1184.6
22137	18.648	0.81818	0.1	1162.6
22138	18.371	0.72727	0.1	1227.5
22139	18.463	0.81818	0.1	1205.4
22140	18.187	0.72727	0.1	1270.6
22141	18.279	0.81818	0.1	1248.4
22142	18.002	0.72727	0.1	1313.9
22143	18.094	0.81818	0.1	1291.6
22144	17.817	0.72727	0.1	1357.4
22145	17.91	0.81818	0.1	1335.
22146	17.633	0.72727	0.1	1401.1
22147	17.725	0.81818	0.1	1378.6
22148	17.448	0.72727	0.1	1445.
22149	17.541	0.81818	0.1	1422.3
22150	17.264	0.72727	0.1	1489.1
22151	17.356	0.81818	0.1	1466.3
22152	17.079	0.72727	0.1	1533.4
22153	17.172	0.81818	0.1	1510.5
22154	16.895	0.72727	0.1	1577.9
22155	16.987	0.81818	0.1	1554.9
22156	16.71	0.72727	0.1	1622.6
22157	16.802	0.81818	0.1	1599.4
22158	16.526	0.72727	0.1	1667.5
22159	16.618	0.81818	0.1	1644.2
22160	16.341	0.72727	0.1	1712.6
22161	16.433	0.81818	0.1	1689.2
22162	16.157	0.72727	0.1	1757.9
22163	16.249	0.81818	0.1	1734.3
22164	15.972	0.72727	0.1	1803.4
22165	16.064	0.81818	0.1	1779.7
22166	15.787	0.72727	0.1	1849.
22167	15.88	0.81818	0.1	1825.3
22168	15.603	0.72727	0.1	1894.9
22169	15.695	0.81818	0.1	1871.
22170	15.418	0.72727	0.1	1941.
22171	15.511	0.81818	0.1	1917.
22172	15.234	0.72727	0.1	1987.2
22173	15.326	0.81818	0.1	1963.1
22174	15.049	0.72727	0.1	2033.7
22175	15.141	0.81818	0.1	2009.5
22176	14.865	0.72727	0.1	2080.3
22177	14.957	0.81818	0.1	2056.
22178	14.68	0.72727	0.1	2127.
22179	14.772	0.81818	0.1	2102.6
22180	14.496	0.72727	0.1	2173.9
22181	14.588	0.81818	0.1	2149.4
22182	14.311	0.72727	0.1	2220.8
22183	14.403	0.81818	0.1	2196.4
22184	14.126	0.72727	0.1	2267.9
22185	14.219	0.81818	0.1	2243.4
22186	13.942	0.72727	0.1	2314.9
22187	14.034	0.81818	0.1	2290.5
22188	13.757	0.72727	0.1	2361.9
22189	13.85	0.81818	0.1	2337.6
22190	13.573	0.72727	0.1	2408.8
22191	13.665	0.81818	0.1	2384.6
22192	13.388	0.72727	0.1	2455.4
22193	13.48	0.81818	0.1	2431.6
22194	13.204	0.72727	0.1	2501.6
22195	13.296	0.81818	0.1	2478.2
22196	13.019	0.72727	0.1	2547.2
22197	13.111	0.81818	0.1	2524.5
22198	12.835	0.72727	0.1	2592.1
22199	12.927	0.81818	0.1	2570.2
22200	12.65	0.72727	0.1	2635.8
22201	12.742	0.81818	0.1	2615.1
22202	12.465	0.72727	0.1	2678.
22203	12.558	0.81818	0.1	2658.8
22204	12.281	0.72727	0.1	2718.3
22205	12.373	0.81818	0.1	2701.1
22206	12.096	0.72727	0.1	2755.9
22207	12.189	0.81818	0.1	2741.4
22208	11.912	0.72727	0.1	2790.1
22209	12.004	0.81818	0.1	2779.
22210	11.727	0.72727	0.1	2819.9
22211	11.82	0.81818	0.1	2813.1
22212	11.543	0.72727	0.1	2844.
22213	11.635	0.81818	0.1	2842.8
22214	11.358	0.72727	0.1	2860.8
22215	11.45	0.81818	0.1	2866.7
22216	11.174	0.72727	0.1	2868.3
22217	11.266	0.81818	0.1	2883.2
22218	10.989	0.72727	0.1	2864.3
22219	11.081	0.81818	0.1	2890.4
22220	10.804	0.72727	0.1	2845.6
22221	10.897	0.81818	0.1	2885.9
22222	10.62	0.72727	0.1	2808.9
22223	10.712	0.81818	0.1	2866.7
22224	10.435	0.72727	0.1	2750.
22225	10.528	0.81818	0.1	2829.2
22226	10.251	0.72727	0.1	2664.3
22227	10.343	0.81818	0.1	2769.6
22228	10.066	0.72727	0.1	2547.
22229	10.159	0.81818	0.1	2683.2
22230	9.8817	0.72727	0.1	2394.1
22231	9.974	0.81818	0.1	2565.9
22232	9.6972	0.72727	0.1	2204.3
22233	9.7894	0.81818	0.1	2414.5
22234	9.5126	0.72727	0.1	1983.
22235	9.6049	0.81818	0.1	2229.6
22236	9.328	0.72727	0.1	1748.5
22237	9.4203	0.81818	0.1	2020.2
22238	9.1435	0.72727	0.1	1561.7
22239	9.2358	0.81818	0.1	1809.9
22240	9.0512	0.81818	0.1	1692.5
22241	8.9589	0.72727	0.1	1234.7
22242	23.723	0.90909	0.1	58.196
22243	23.815	1.	0.1	39.812
22244	23.908	0.90909	0.1	22.483
22245	23.539	0.90909	0.1	95.328
22246	23.631	1.	0.1	76.997
22247	23.354	0.90909	0.1	132.71
22248	23.446	1.	0.1	114.43
22249	23.17	0.90909	0.1	170.36
22250	23.262	1.	0.1	152.01
22251	22.985	0.90909	0.1	208.35
22252	23.077	1.	0.1	189.86
22253	22.8	0.90909	0.1	246.66
22254	22.893	1.	0.1	227.98
22255	22.616	0.90909	0.1	285.26
22256	22.708	1.	0.1	266.4
22257	22.431	0.90909	0.1	324.14
22258	22.524	1.	0.1	305.08
22259	22.247	0.90909	0.1	363.25
22260	22.339	1.	0.1	344.01
22261	22.062	0.90909	0.1	402.59
22262	22.154	1.	0.1	383.16
22263	21.878	0.90909	0.1	442.12
22264	21.97	1.	0.1	422.52
22265	21.693	0.90909	0.1	481.84
22266	21.785	1.	0.1	462.08
22267	21.509	0.90909	0.1	521.73
22268	21.601	1.	0.1	501.82
22269	21.324	0.90909	0.1	561.8
22270	21.416	1.	0.1	541.74
22271	21.139	0.90909	0.1	602.04
22272	21.232	1.	0.1	581.84
22273	20.955	0.90909	0.1	642.44
22274	21.047	1.	0.1	622.1
22275	20.77	0.90909	0.1	683.01
22276	20.863	1.	0.1	662.54
22277	20.586	0.90909	0.1	723.75
22278	20.678	1.	0.1	703.15
22279	20.401	0.90909	0.1	764.66
22280	20.493	1.	0.1	743.93
22281	20.217	0.90909	0.1	805.74
22282	20.309	1.	0.1	784.88
22283	20.032	0.90909	0.1	846.99
22284	20.124	1.	0.1	826.01
22285	19.848	0.90909	0.1	888.41
22286	19.94	1.	0.1	867.31
22287	19.663	0.90909	0.1	930.01
22288	19.755	1.	0.1	908.8
22289	19.478	0.90909	0.1	971.79
22290	19.571	1.	0.1	950.46
22291	19.294	0.90909	0.1	1013.8
22292	19.386	1.	0.1	992.3
22293	19.109	0.90909	0.1	1055.9
22294	19.202	1.	0.1	1034.3
22295	18.925	0.90909	0.1	1098.2
22296	19.017	1.	0.1	1076.5
22297	18.74	0.90909	0.1	1140.7
22298	18.833	1.	0.1	1118.9
22299	18.556	0.90909	0.1	1183.4
22300	18.648	1.	0.1	1161.5
22301	18.371	0.90909	0.1	1226.3
22302	18.463	1.	0.1	1204.3
22303	18.187	0.90909	0.1	1269.4
22304	18.279	1.	0.1	1247.3
22305	18.002	0.90909	0.1	1312.7
22306	18.094	1.	0.1	1290.4
22307	17.817	0.90909	0.1	1356.1
22308	17.91	1.	0.1	1333.8
22309	17.633	0.90909	0.1	1399.8
22310	17.725	1.	0.1	1377.3
22311	17.448	0.90909	0.1	1443.7
22312	17.541	1.	0.1	1421.
22313	17.264	0.90909	0.1	1487.7
22314	17.356	1.	0.1	1465.
22315	17.079	0.90909	0.1	1532.
22316	17.172	1.	0.1	1509.1
22317	16.895	0.90909	0.1	1576.4
22318	16.987	1.	0.1	1553.4
22319	16.71	0.90909	0.1	1621.1
22320	16.802	1.	0.1	1598.
22321	16.526	0.90909	0.1	1665.9
22322	16.618	1.	0.1	1642.7
22323	16.341	0.90909	0.1	1710.9
22324	16.433	1.	0.1	1687.6
22325	16.157	0.90909	0.1	1756.2
22326	16.249	1.	0.1	1732.8
22327	15.972	0.90909	0.1	1801.6
22328	16.064	1.	0.1	1778.1
22329	15.787	0.90909	0.1	1847.3
22330	15.88	1.	0.1	1823.6
22331	15.603	0.90909	0.1	1893.1
22332	15.695	1.	0.1	1869.3
22333	15.418	0.90909	0.1	1939.1
22334	15.511	1.	0.1	1915.2
22335	15.234	0.90909	0.1	1985.4
22336	15.326	1.	0.1	1961.3
22337	15.049	0.90909	0.1	2031.8
22338	15.141	1.	0.1	2007.6
22339	14.865	0.90909	0.1	2078.3
22340	14.957	1.	0.1	2054.1
22341	14.68	0.90909	0.1	2125.1
22342	14.772	1.	0.1	2100.7
22343	14.496	0.90909	0.1	2171.9
22344	14.588	1.	0.1	2147.5
22345	14.311	0.90909	0.1	2218.9
22346	14.403	1.	0.1	2194.5
22347	14.126	0.90909	0.1	2266.
22348	14.219	1.	0.1	2241.6
22349	13.942	0.90909	0.1	2313.2
22350	14.034	1.	0.1	2288.8
22351	13.757	0.90909	0.1	2360.3
22352	13.85	1.	0.1	2336.
22353	13.573	0.90909	0.1	2407.5
22354	13.665	1.	0.1	2383.3
22355	13.388	0.90909	0.1	2454.4
22356	13.48	1.	0.1	2430.5
22357	13.204	0.90909	0.1	2501.1
22358	13.296	1.	0.1	2477.6
22359	13.019	0.90909	0.1	2547.5
22360	13.111	1.	0.1	2524.5
22361	12.835	0.90909	0.1	2593.2
22362	12.927	1.	0.1	2571.
22363	12.65	0.90909	0.1	2638.2
22364	12.742	1.	0.1	2617.
22365	12.465	0.90909	0.1	2681.9
22366	12.558	1.	0.1	2662.2
22367	12.281	0.90909	0.1	2724.2
22368	12.373	1.	0.1	2706.3
22369	12.096	0.90909	0.1	2764.4
22370	12.189	1.	0.1	2748.9
22371	11.912	0.90909	0.1	2802.
22372	12.004	1.	0.1	2789.6
22373	11.727	0.90909	0.1	2836.
22374	11.82	1.	0.1	2827.7
22375	11.543	0.90909	0.1	2865.5
22376	11.635	1.	0.1	2862.4
22377	11.358	0.90909	0.1	2889.1
22378	11.45	1.	0.1	2892.7
22379	11.174	0.90909	0.1	2905.3
22380	11.266	1.	0.1	2917.4
22381	10.989	0.90909	0.1	2911.9
22382	11.081	1.	0.1	2934.8
22383	10.804	0.90909	0.1	2906.6
22384	10.897	1.	0.1	2943.1
22385	10.62	0.90909	0.1	2886.4
22386	10.712	1.	0.1	2939.9
22387	10.435	0.90909	0.1	2847.8
22388	10.528	1.	0.1	2922.5
22389	10.251	0.90909	0.1	2786.9
22390	10.343	1.	0.1	2887.6
22391	10.066	0.90909	0.1	2699.3
22392	10.159	1.	0.1	2831.7
22393	9.8817	0.90909	0.1	2581.4
22394	9.974	1.	0.1	2751.1
22395	9.6972	0.90909	0.1	2431.3
22396	9.7894	1.	0.1	2642.8
22397	9.5126	0.90909	0.1	2252.5
22398	9.6049	1.	0.1	2506.1
22399	9.328	0.90909	0.1	2058.6
22400	9.4203	1.	0.1	2345.2
22401	9.1435	0.90909	0.1	1907.9
22402	9.2358	1.	0.1	2174.3
22403	9.0512	1.	0.1	2090.1
22404	8.9589	0.90909	0.1	1530.7
22405	23.723	1.0909	0.1	58.569
22406	23.815	1.1818	0.1	39.909
22407	23.908	1.0909	0.1	22.544
22408	23.539	1.0909	0.1	96.118
22409	23.631	1.1818	0.1	77.527
22410	23.354	1.0909	0.1	133.77
22411	23.446	1.1818	0.1	115.29
22412	23.17	1.0909	0.1	171.55
22413	23.262	1.1818	0.1	153.08
22414	22.985	1.0909	0.1	209.55
22415	23.077	1.1818	0.1	191.01
22416	22.8	1.0909	0.1	247.79
22417	22.893	1.1818	0.1	229.13
22418	22.616	1.0909	0.1	286.28
22419	22.708	1.1818	0.1	267.48
22420	22.431	1.0909	0.1	325.02
22421	22.524	1.1818	0.1	306.06
22422	22.247	1.0909	0.1	363.99
22423	22.339	1.1818	0.1	344.86
22424	22.062	1.0909	0.1	403.17
22425	22.154	1.1818	0.1	383.87
22426	21.878	1.0909	0.1	442.55
22427	21.97	1.1818	0.1	423.09
22428	21.693	1.0909	0.1	482.13
22429	21.785	1.1818	0.1	462.51
22430	21.509	1.0909	0.1	521.89
22431	21.601	1.1818	0.1	502.12
22432	21.324	1.0909	0.1	561.84
22433	21.416	1.1818	0.1	541.92
22434	21.139	1.0909	0.1	601.96
22435	21.232	1.1818	0.1	581.89
22436	20.955	1.0909	0.1	642.26
22437	21.047	1.1818	0.1	622.05
22438	20.77	1.0909	0.1	682.73
22439	20.863	1.1818	0.1	662.39
22440	20.586	1.0909	0.1	723.38
22441	20.678	1.1818	0.1	702.9
22442	20.401	1.0909	0.1	764.2
22443	20.493	1.1818	0.1	743.59
22444	20.217	1.0909	0.1	805.2
22445	20.309	1.1818	0.1	784.46
22446	20.032	1.0909	0.1	846.38
22447	20.124	1.1818	0.1	825.52
22448	19.848	1.0909	0.1	887.74
22449	19.94	1.1818	0.1	866.75
22450	19.663	1.0909	0.1	929.28
22451	19.755	1.1818	0.1	908.17
22452	19.478	1.0909	0.1	971.
22453	19.571	1.1818	0.1	949.77
22454	19.294	1.0909	0.1	1012.9
22455	19.386	1.1818	0.1	991.56
22456	19.109	1.0909	0.1	1055.
22457	19.202	1.1818	0.1	1033.5
22458	18.925	1.0909	0.1	1097.3
22459	19.017	1.1818	0.1	1075.7
22460	18.74	1.0909	0.1	1139.8
22461	18.833	1.1818	0.1	1118.
22462	18.556	1.0909	0.1	1182.4
22463	18.648	1.1818	0.1	1160.6
22464	18.371	1.0909	0.1	1225.3
22465	18.463	1.1818	0.1	1203.3
22466	18.187	1.0909	0.1	1268.3
22467	18.279	1.1818	0.1	1246.2
22468	18.002	1.0909	0.1	1311.5
22469	18.094	1.1818	0.1	1289.4
22470	17.817	1.0909	0.1	1355.
22471	17.91	1.1818	0.1	1332.7
22472	17.633	1.0909	0.1	1398.6
22473	17.725	1.1818	0.1	1376.2
22474	17.448	1.0909	0.1	1442.4
22475	17.541	1.1818	0.1	1419.9
22476	17.264	1.0909	0.1	1486.4
22477	17.356	1.1818	0.1	1463.8
22478	17.079	1.0909	0.1	1530.6
22479	17.172	1.1818	0.1	1507.9
22480	16.895	1.0909	0.1	1575.
22481	16.987	1.1818	0.1	1552.2
22482	16.71	1.0909	0.1	1619.7
22483	16.802	1.1818	0.1	1596.7
22484	16.526	1.0909	0.1	1664.5
22485	16.618	1.1818	0.1	1641.3
22486	16.341	1.0909	0.1	1709.5
22487	16.433	1.1818	0.1	1686.2
22488	16.157	1.0909	0.1	1754.7
22489	16.249	1.1818	0.1	1731.3
22490	15.972	1.0909	0.1	1800.1
22491	16.064	1.1818	0.1	1776.6
22492	15.787	1.0909	0.1	1845.7
22493	15.88	1.1818	0.1	1822.1
22494	15.603	1.0909	0.1	1891.4
22495	15.695	1.1818	0.1	1867.7
22496	15.418	1.0909	0.1	1937.4
22497	15.511	1.1818	0.1	1913.6
22498	15.234	1.0909	0.1	1983.6
22499	15.326	1.1818	0.1	1959.7
22500	15.049	1.0909	0.1	2030.
22501	15.141	1.1818	0.1	2005.9
22502	14.865	1.0909	0.1	2076.5
22503	14.957	1.1818	0.1	2052.4
22504	14.68	1.0909	0.1	2123.2
22505	14.772	1.1818	0.1	2099.
22506	14.496	1.0909	0.1	2170.1
22507	14.588	1.1818	0.1	2145.8
22508	14.311	1.0909	0.1	2217.2
22509	14.403	1.1818	0.1	2192.8
22510	14.126	1.0909	0.1	2264.3
22511	14.219	1.1818	0.1	2239.9
22512	13.942	1.0909	0.1	2311.6
22513	14.034	1.1818	0.1	2287.2
22514	13.757	1.0909	0.1	2359.
22515	13.85	1.1818	0.1	2334.6
22516	13.573	1.0909	0.1	2406.4
22517	13.665	1.1818	0.1	2382.1
22518	13.388	1.0909	0.1	2453.7
22519	13.48	1.1818	0.1	2429.7
22520	13.204	1.0909	0.1	2501.
22521	13.296	1.1818	0.1	2477.2
22522	13.019	1.0909	0.1	2548.
22523	13.111	1.1818	0.1	2524.7
22524	12.835	1.0909	0.1	2594.8
22525	12.927	1.1818	0.1	2572.1
22526	12.65	1.0909	0.1	2641.
22527	12.742	1.1818	0.1	2619.2
22528	12.465	1.0909	0.1	2686.5
22529	12.558	1.1818	0.1	2665.9
22530	12.281	1.0909	0.1	2731.
22531	12.373	1.1818	0.1	2712.
22532	12.096	1.0909	0.1	2774.1
22533	12.189	1.1818	0.1	2757.2
22534	11.912	1.0909	0.1	2815.3
22535	12.004	1.1818	0.1	2801.2
22536	11.727	1.0909	0.1	2854.1
22537	11.82	1.1818	0.1	2843.7
22538	11.543	1.0909	0.1	2889.6
22539	11.635	1.1818	0.1	2883.9
22540	11.358	1.0909	0.1	2920.9
22541	11.45	1.1818	0.1	2921.3
22542	11.174	1.0909	0.1	2946.8
22543	11.266	1.1818	0.1	2955.
22544	10.989	1.0909	0.1	2965.8
22545	11.081	1.1818	0.1	2983.8
22546	10.804	1.0909	0.1	2976.1
22547	10.897	1.1818	0.1	3006.7
22548	10.62	1.0909	0.1	2975.4
22549	10.712	1.1818	0.1	3021.8
22550	10.435	1.0909	0.1	2961.2
22551	10.528	1.1818	0.1	3027.6
22552	10.251	1.0909	0.1	2930.5
22553	10.343	1.1818	0.1	3021.8
22554	10.066	1.0909	0.1	2880.
22555	10.159	1.1818	0.1	3002.2
22556	9.8817	1.0909	0.1	2806.5
22557	9.974	1.1818	0.1	2966.5
22558	9.6972	1.0909	0.1	2707.3
22559	9.7894	1.1818	0.1	2912.5
22560	9.5126	1.0909	0.1	2581.8
22561	9.6049	1.1818	0.1	2837.8
22562	9.328	1.0909	0.1	2434.9
22563	9.4203	1.1818	0.1	2740.5
22564	9.1435	1.0909	0.1	2320.7
22565	9.2358	1.1818	0.1	2621.1
22566	9.0512	1.1818	0.1	2575.4
22567	8.9589	1.0909	0.1	1876.8
22568	23.723	1.2727	0.1	58.814
22569	23.815	1.3636	0.1	39.944
22570	23.908	1.2727	0.1	22.56
22571	23.539	1.2727	0.1	96.709
22572	23.631	1.3636	0.1	77.905
22573	23.354	1.2727	0.1	134.62
22574	23.446	1.3636	0.1	115.95
22575	23.17	1.2727	0.1	172.57
22576	23.262	1.3636	0.1	153.95
22577	22.985	1.2727	0.1	210.63
22578	23.077	1.3636	0.1	192.
22579	22.8	1.2727	0.1	248.87
22580	22.893	1.3636	0.1	230.17
22581	22.616	1.2727	0.1	287.3
22582	22.708	1.3636	0.1	268.5
22583	22.431	1.2727	0.1	325.95
22584	22.524	1.3636	0.1	307.02
22585	22.247	1.2727	0.1	364.8
22586	22.339	1.3636	0.1	345.73
22587	22.062	1.2727	0.1	403.86
22588	22.154	1.3636	0.1	384.64
22589	21.878	1.2727	0.1	443.11
22590	21.97	1.3636	0.1	423.75
22591	21.693	1.2727	0.1	482.56
22592	21.785	1.3636	0.1	463.05
22593	21.509	1.2727	0.1	522.2
22594	21.601	1.3636	0.1	502.54
22595	21.324	1.2727	0.1	562.03
22596	21.416	1.3636	0.1	542.21
22597	21.139	1.2727	0.1	602.04
22598	21.232	1.3636	0.1	582.08
22599	20.955	1.2727	0.1	642.23
22600	21.047	1.3636	0.1	622.13
22601	20.77	1.2727	0.1	682.6
22602	20.863	1.3636	0.1	662.36
22603	20.586	1.2727	0.1	723.16
22604	20.678	1.3636	0.1	702.78
22605	20.401	1.2727	0.1	763.9
22606	20.493	1.3636	0.1	743.39
22607	20.217	1.2727	0.1	804.82
22608	20.309	1.3636	0.1	784.18
22609	20.032	1.2727	0.1	845.93
22610	20.124	1.3636	0.1	825.16
22611	19.848	1.2727	0.1	887.22
22612	19.94	1.3636	0.1	866.32
22613	19.663	1.2727	0.1	928.7
22614	19.755	1.3636	0.1	907.67
22615	19.478	1.2727	0.1	970.36
22616	19.571	1.3636	0.1	949.21
22617	19.294	1.2727	0.1	1012.2
22618	19.386	1.3636	0.1	990.95
22619	19.109	1.2727	0.1	1054.3
22620	19.202	1.3636	0.1	1032.9
22621	18.925	1.2727	0.1	1096.5
22622	19.017	1.3636	0.1	1075.
22623	18.74	1.2727	0.1	1138.9
22624	18.833	1.3636	0.1	1117.3
22625	18.556	1.2727	0.1	1181.5
22626	18.648	1.3636	0.1	1159.8
22627	18.371	1.2727	0.1	1224.3
22628	18.463	1.3636	0.1	1202.5
22629	18.187	1.2727	0.1	1267.3
22630	18.279	1.3636	0.1	1245.4
22631	18.002	1.2727	0.1	1310.5
22632	18.094	1.3636	0.1	1288.4
22633	17.817	1.2727	0.1	1353.9
22634	17.91	1.3636	0.1	1331.7
22635	17.633	1.2727	0.1	1397.5
22636	17.725	1.3636	0.1	1375.2
22637	17.448	1.2727	0.1	1441.3
22638	17.541	1.3636	0.1	1418.9
22639	17.264	1.2727	0.1	1485.3
22640	17.356	1.3636	0.1	1462.7
22641	17.079	1.2727	0.1	1529.4
22642	17.172	1.3636	0.1	1506.8
22643	16.895	1.2727	0.1	1573.8
22644	16.987	1.3636	0.1	1551.
22645	16.71	1.2727	0.1	1618.4
22646	16.802	1.3636	0.1	1595.5
22647	16.526	1.2727	0.1	1663.1
22648	16.618	1.3636	0.1	1640.1
22649	16.341	1.2727	0.1	1708.1
22650	16.433	1.3636	0.1	1685.
22651	16.157	1.2727	0.1	1753.3
22652	16.249	1.3636	0.1	1730.
22653	15.972	1.2727	0.1	1798.6
22654	16.064	1.3636	0.1	1775.2
22655	15.787	1.2727	0.1	1844.2
22656	15.88	1.3636	0.1	1820.7
22657	15.603	1.2727	0.1	1889.9
22658	15.695	1.3636	0.1	1866.3
22659	15.418	1.2727	0.1	1935.9
22660	15.511	1.3636	0.1	1912.1
22661	15.234	1.2727	0.1	1982.
22662	15.326	1.3636	0.1	1958.1
22663	15.049	1.2727	0.1	2028.3
22664	15.141	1.3636	0.1	2004.3
22665	14.865	1.2727	0.1	2074.8
22666	14.957	1.3636	0.1	2050.8
22667	14.68	1.2727	0.1	2121.6
22668	14.772	1.3636	0.1	2097.4
22669	14.496	1.2727	0.1	2168.5
22670	14.588	1.3636	0.1	2144.2
22671	14.311	1.2727	0.1	2215.5
22672	14.403	1.3636	0.1	2191.2
22673	14.126	1.2727	0.1	2262.8
22674	14.219	1.3636	0.1	2238.4
22675	13.942	1.2727	0.1	2310.2
22676	14.034	1.3636	0.1	2285.8
22677	13.757	1.2727	0.1	2357.7
22678	13.85	1.3636	0.1	2333.3
22679	13.573	1.2727	0.1	2405.4
22680	13.665	1.3636	0.1	2381.
22681	13.388	1.2727	0.1	2453.2
22682	13.48	1.3636	0.1	2428.9
22683	13.204	1.2727	0.1	2501.
22684	13.296	1.3636	0.1	2477.
22685	13.019	1.2727	0.1	2548.8
22686	13.111	1.3636	0.1	2525.1
22687	12.835	1.2727	0.1	2596.6
22688	12.927	1.3636	0.1	2573.4
22689	12.65	1.2727	0.1	2644.1
22690	12.742	1.3636	0.1	2621.7
22691	12.465	1.2727	0.1	2691.4
22692	12.558	1.3636	0.1	2669.9
22693	12.281	1.2727	0.1	2738.3
22694	12.373	1.3636	0.1	2718.1
22695	12.096	1.2727	0.1	2784.4
22696	12.189	1.3636	0.1	2766.
22697	11.912	1.2727	0.1	2829.6
22698	12.004	1.3636	0.1	2813.5
22699	11.727	1.2727	0.1	2873.5
22700	11.82	1.3636	0.1	2860.5
22701	11.543	1.2727	0.1	2915.6
22702	11.635	1.3636	0.1	2906.6
22703	11.358	1.2727	0.1	2955.3
22704	11.45	1.3636	0.1	2951.5
22705	11.174	1.2727	0.1	2991.9
22706	11.266	1.3636	0.1	2994.9
22707	10.989	1.2727	0.1	3024.5
22708	11.081	1.3636	0.1	3036.1
22709	10.804	1.2727	0.1	3052.
22710	10.897	1.3636	0.1	3074.7
22711	10.62	1.2727	0.1	3073.3
22712	10.712	1.3636	0.1	3110.
22713	10.435	1.2727	0.1	3086.9
22714	10.528	1.3636	0.1	3141.3
22715	10.251	1.2727	0.1	3091.3
22716	10.343	1.3636	0.1	3168.1
22717	10.066	1.2727	0.1	3085.
22718	10.159	1.3636	0.1	3190.
22719	9.8817	1.2727	0.1	3066.
22720	9.974	1.3636	0.1	3206.9
22721	9.6972	1.2727	0.1	3031.8
22722	9.7894	1.3636	0.1	3218.9
22723	9.5126	1.2727	0.1	2977.9
22724	9.6049	1.3636	0.1	3224.7
22725	9.328	1.2727	0.1	2897.7
22726	9.4203	1.3636	0.1	3219.7
22727	9.1435	1.2727	0.1	2833.5
22728	9.2358	1.3636	0.1	3185.7
22729	9.0512	1.3636	0.1	3212.2
22730	8.9589	1.2727	0.1	2305.4
22731	23.723	1.4545	0.1	58.975
22732	23.815	1.5455	0.1	39.942
22733	23.908	1.4545	0.1	22.551
22734	23.539	1.4545	0.1	97.153
22735	23.631	1.5455	0.1	78.177
22736	23.354	1.4545	0.1	135.3
22737	23.446	1.5455	0.1	116.46
22738	23.17	1.4545	0.1	173.41
22739	23.262	1.5455	0.1	154.65
22740	22.985	1.4545	0.1	211.57
22741	23.077	1.5455	0.1	192.84
22742	22.8	1.4545	0.1	249.84
22743	22.893	1.5455	0.1	231.08
22744	22.616	1.4545	0.1	288.26
22745	22.708	1.5455	0.1	269.43
22746	22.431	1.4545	0.1	326.85
22747	22.524	1.5455	0.1	307.92
22748	22.247	1.4545	0.1	365.62
22749	22.339	1.5455	0.1	346.58
22750	22.062	1.4545	0.1	404.58
22751	22.154	1.5455	0.1	385.41
22752	21.878	1.4545	0.1	443.73
22753	21.97	1.5455	0.1	424.42
22754	21.693	1.4545	0.1	483.07
22755	21.785	1.5455	0.1	463.62
22756	21.509	1.4545	0.1	522.6
22757	21.601	1.5455	0.1	503.01
22758	21.324	1.4545	0.1	562.31
22759	21.416	1.5455	0.1	542.58
22760	21.139	1.4545	0.1	602.22
22761	21.232	1.5455	0.1	582.35
22762	20.955	1.4545	0.1	642.31
22763	21.047	1.5455	0.1	622.3
22764	20.77	1.4545	0.1	682.59
22765	20.863	1.5455	0.1	662.44
22766	20.586	1.4545	0.1	723.06
22767	20.678	1.5455	0.1	702.77
22768	20.401	1.4545	0.1	763.71
22769	20.493	1.5455	0.1	743.29
22770	20.217	1.4545	0.1	804.56
22771	20.309	1.5455	0.1	784.
22772	20.032	1.4545	0.1	845.59
22773	20.124	1.5455	0.1	824.91
22774	19.848	1.4545	0.1	886.82
22775	19.94	1.5455	0.1	866.
22776	19.663	1.4545	0.1	928.23
22777	19.755	1.5455	0.1	907.29
22778	19.478	1.4545	0.1	969.84
22779	19.571	1.5455	0.1	948.77
22780	19.294	1.4545	0.1	1011.6
22781	19.386	1.5455	0.1	990.45
22782	19.109	1.4545	0.1	1053.6
22783	19.202	1.5455	0.1	1032.3
22784	18.925	1.4545	0.1	1095.8
22785	19.017	1.5455	0.1	1074.4
22786	18.74	1.4545	0.1	1138.2
22787	18.833	1.5455	0.1	1116.6
22788	18.556	1.4545	0.1	1180.8
22789	18.648	1.5455	0.1	1159.1
22790	18.371	1.4545	0.1	1223.5
22791	18.463	1.5455	0.1	1201.8
22792	18.187	1.4545	0.1	1266.5
22793	18.279	1.5455	0.1	1244.6
22794	18.002	1.4545	0.1	1309.7
22795	18.094	1.5455	0.1	1287.6
22796	17.817	1.4545	0.1	1353.
22797	17.91	1.5455	0.1	1330.9
22798	17.633	1.4545	0.1	1396.6
22799	17.725	1.5455	0.1	1374.3
22800	17.448	1.4545	0.1	1440.3
22801	17.541	1.5455	0.1	1417.9
22802	17.264	1.4545	0.1	1484.2
22803	17.356	1.5455	0.1	1461.8
22804	17.079	1.4545	0.1	1528.4
22805	17.172	1.5455	0.1	1505.8
22806	16.895	1.4545	0.1	1572.7
22807	16.987	1.5455	0.1	1550.
22808	16.71	1.4545	0.1	1617.2
22809	16.802	1.5455	0.1	1594.4
22810	16.526	1.4545	0.1	1662.
22811	16.618	1.5455	0.1	1639.
22812	16.341	1.4545	0.1	1706.9
22813	16.433	1.5455	0.1	1683.8
22814	16.157	1.4545	0.1	1752.
22815	16.249	1.5455	0.1	1728.8
22816	15.972	1.4545	0.1	1797.3
22817	16.064	1.5455	0.1	1774.
22818	15.787	1.4545	0.1	1842.8
22819	15.88	1.5455	0.1	1819.4
22820	15.603	1.4545	0.1	1888.5
22821	15.695	1.5455	0.1	1865.
22822	15.418	1.4545	0.1	1934.4
22823	15.511	1.5455	0.1	1910.8
22824	15.234	1.4545	0.1	1980.5
22825	15.326	1.5455	0.1	1956.7
22826	15.049	1.4545	0.1	2026.8
22827	15.141	1.5455	0.1	2002.9
22828	14.865	1.4545	0.1	2073.3
22829	14.957	1.5455	0.1	2049.3
22830	14.68	1.4545	0.1	2120.
22831	14.772	1.5455	0.1	2095.9
22832	14.496	1.4545	0.1	2166.9
22833	14.588	1.5455	0.1	2142.7
22834	14.311	1.4545	0.1	2214.
22835	14.403	1.5455	0.1	2189.7
22836	14.126	1.4545	0.1	2261.4
22837	14.219	1.5455	0.1	2237.
22838	13.942	1.4545	0.1	2308.9
22839	14.034	1.5455	0.1	2284.4
22840	13.757	1.4545	0.1	2356.6
22841	13.85	1.5455	0.1	2332.2
22842	13.573	1.4545	0.1	2404.6
22843	13.665	1.5455	0.1	2380.1
22844	13.388	1.4545	0.1	2452.8
22845	13.48	1.5455	0.1	2428.4
22846	13.204	1.4545	0.1	2501.1
22847	13.296	1.5455	0.1	2476.9
22848	13.019	1.4545	0.1	2549.7
22849	13.111	1.5455	0.1	2525.7
22850	12.835	1.4545	0.1	2598.5
22851	12.927	1.5455	0.1	2574.8
22852	12.65	1.4545	0.1	2647.5
22853	12.742	1.5455	0.1	2624.2
22854	12.465	1.4545	0.1	2696.6
22855	12.558	1.5455	0.1	2674.1
22856	12.281	1.4545	0.1	2745.8
22857	12.373	1.5455	0.1	2724.3
22858	12.096	1.4545	0.1	2795.1
22859	12.189	1.5455	0.1	2774.9
22860	11.912	1.4545	0.1	2844.4
22861	12.004	1.5455	0.1	2826.1
22862	11.727	1.4545	0.1	2893.6
22863	11.82	1.5455	0.1	2877.6
22864	11.543	1.4545	0.1	2942.5
22865	11.635	1.5455	0.1	2929.8
22866	11.358	1.4545	0.1	2991.1
22867	11.45	1.5455	0.1	2982.5
22868	11.174	1.4545	0.1	3039.
22869	11.266	1.5455	0.1	3035.8
22870	10.989	1.4545	0.1	3086.1
22871	11.081	1.5455	0.1	3090.
22872	10.804	1.4545	0.1	3132.2
22873	10.897	1.5455	0.1	3145.1
22874	10.62	1.4545	0.1	3177.2
22875	10.712	1.5455	0.1	3201.6
22876	10.435	1.4545	0.1	3221.2
22877	10.528	1.5455	0.1	3260.1
22878	10.251	1.4545	0.1	3264.6
22879	10.343	1.5455	0.1	3321.9
22880	10.066	1.4545	0.1	3308.3
22881	10.159	1.5455	0.1	3389.1
22882	9.8817	1.4545	0.1	3353.6
22883	9.974	1.5455	0.1	3464.8
22884	9.6972	1.4545	0.1	3401.1
22885	9.7894	1.5455	0.1	3553.8
22886	9.5126	1.4545	0.1	3448.4
22887	9.6049	1.5455	0.1	3661.4
22888	9.328	1.4545	0.1	3476.5
22889	9.4203	1.5455	0.1	3790.2
22890	9.1435	1.4545	0.1	3511.3
22891	9.2358	1.5455	0.1	3921.6
22892	9.0512	1.5455	0.1	4113.1
22893	8.9589	1.4545	0.1	2884.3
22894	23.723	1.6364	0.1	59.079
22895	23.815	1.7273	0.1	39.92
22896	23.908	1.6364	0.1	22.528
22897	23.539	1.6364	0.1	97.487
22898	23.631	1.7273	0.1	78.373
22899	23.354	1.6364	0.1	135.83
22900	23.446	1.7273	0.1	116.86
22901	23.17	1.6364	0.1	174.1
22902	23.262	1.7273	0.1	155.21
22903	22.985	1.6364	0.1	212.37
22904	23.077	1.7273	0.1	193.52
22905	22.8	1.6364	0.1	250.69
22906	22.893	1.7273	0.1	231.85
22907	22.616	1.6364	0.1	289.12
22908	22.708	1.7273	0.1	270.24
22909	22.431	1.6364	0.1	327.68
22910	22.524	1.7273	0.1	308.73
22911	22.247	1.6364	0.1	366.4
22912	22.339	1.7273	0.1	347.36
22913	22.062	1.6364	0.1	405.29
22914	22.154	1.7273	0.1	386.13
22915	21.878	1.6364	0.1	444.36
22916	21.97	1.7273	0.1	425.08
22917	21.693	1.6364	0.1	483.6
22918	21.785	1.7273	0.1	464.2
22919	21.509	1.6364	0.1	523.04
22920	21.601	1.7273	0.1	503.5
22921	21.324	1.6364	0.1	562.66
22922	21.416	1.7273	0.1	542.98
22923	21.139	1.6364	0.1	602.47
22924	21.232	1.7273	0.1	582.65
22925	20.955	1.6364	0.1	642.47
22926	21.047	1.7273	0.1	622.52
22927	20.77	1.6364	0.1	682.66
22928	20.863	1.7273	0.1	662.57
22929	20.586	1.6364	0.1	723.04
22930	20.678	1.7273	0.1	702.82
22931	20.401	1.6364	0.1	763.62
22932	20.493	1.7273	0.1	743.27
22933	20.217	1.6364	0.1	804.39
22934	20.309	1.7273	0.1	783.91
22935	20.032	1.6364	0.1	845.36
22936	20.124	1.7273	0.1	824.74
22937	19.848	1.6364	0.1	886.52
22938	19.94	1.7273	0.1	865.77
22939	19.663	1.6364	0.1	927.87
22940	19.755	1.7273	0.1	907.
22941	19.478	1.6364	0.1	969.42
22942	19.571	1.7273	0.1	948.43
22943	19.294	1.6364	0.1	1011.2
22944	19.386	1.7273	0.1	990.05
22945	19.109	1.6364	0.1	1053.1
22946	19.202	1.7273	0.1	1031.9
22947	18.925	1.6364	0.1	1095.3
22948	19.017	1.7273	0.1	1073.9
22949	18.74	1.6364	0.1	1137.6
22950	18.833	1.7273	0.1	1116.1
22951	18.556	1.6364	0.1	1180.1
22952	18.648	1.7273	0.1	1158.5
22953	18.371	1.6364	0.1	1222.8
22954	18.463	1.7273	0.1	1201.1
22955	18.187	1.6364	0.1	1265.8
22956	18.279	1.7273	0.1	1243.9
22957	18.002	1.6364	0.1	1308.9
22958	18.094	1.7273	0.1	1287.
22959	17.817	1.6364	0.1	1352.2
22960	17.91	1.7273	0.1	1330.2
22961	17.633	1.6364	0.1	1395.7
22962	17.725	1.7273	0.1	1373.6
22963	17.448	1.6364	0.1	1439.4
22964	17.541	1.7273	0.1	1417.1
22965	17.264	1.6364	0.1	1483.3
22966	17.356	1.7273	0.1	1460.9
22967	17.079	1.6364	0.1	1527.4
22968	17.172	1.7273	0.1	1504.9
22969	16.895	1.6364	0.1	1571.7
22970	16.987	1.7273	0.1	1549.1
22971	16.71	1.6364	0.1	1616.2
22972	16.802	1.7273	0.1	1593.5
22973	16.526	1.6364	0.1	1660.9
22974	16.618	1.7273	0.1	1638.
22975	16.341	1.6364	0.1	1705.8
22976	16.433	1.7273	0.1	1682.8
22977	16.157	1.6364	0.1	1750.8
22978	16.249	1.7273	0.1	1727.8
22979	15.972	1.6364	0.1	1796.1
22980	16.064	1.7273	0.1	1772.9
22981	15.787	1.6364	0.1	1841.6
22982	15.88	1.7273	0.1	1818.3
22983	15.603	1.6364	0.1	1887.2
22984	15.695	1.7273	0.1	1863.8
22985	15.418	1.6364	0.1	1933.1
22986	15.511	1.7273	0.1	1909.5
22987	15.234	1.6364	0.1	1979.2
22988	15.326	1.7273	0.1	1955.5
22989	15.049	1.6364	0.1	2025.4
22990	15.141	1.7273	0.1	2001.6
22991	14.865	1.6364	0.1	2071.9
22992	14.957	1.7273	0.1	2048.
22993	14.68	1.6364	0.1	2118.6
22994	14.772	1.7273	0.1	2094.6
22995	14.496	1.6364	0.1	2165.5
22996	14.588	1.7273	0.1	2141.4
22997	14.311	1.6364	0.1	2212.7
22998	14.403	1.7273	0.1	2188.4
22999	14.126	1.6364	0.1	2260.1
23000	14.219	1.7273	0.1	2235.7
23001	13.942	1.6364	0.1	2307.7
23002	14.034	1.7273	0.1	2283.3
23003	13.757	1.6364	0.1	2355.7
23004	13.85	1.7273	0.1	2331.1
23005	13.573	1.6364	0.1	2403.9
23006	13.665	1.7273	0.1	2379.3
23007	13.388	1.6364	0.1	2452.5
23008	13.48	1.7273	0.1	2427.9
23009	13.204	1.6364	0.1	2501.4
23010	13.296	1.7273	0.1	2476.8
23011	13.019	1.6364	0.1	2550.7
23012	13.111	1.7273	0.1	2526.2
23013	12.835	1.6364	0.1	2600.5
23014	12.927	1.7273	0.1	2576.2
23015	12.65	1.6364	0.1	2650.9
23016	12.742	1.7273	0.1	2626.8
23017	12.465	1.6364	0.1	2701.8
23018	12.558	1.7273	0.1	2678.2
23019	12.281	1.6364	0.1	2753.4
23020	12.373	1.7273	0.1	2730.4
23021	12.096	1.6364	0.1	2805.9
23022	12.189	1.7273	0.1	2783.7
23023	11.912	1.6364	0.1	2859.3
23024	12.004	1.7273	0.1	2838.4
23025	11.727	1.6364	0.1	2913.8
23026	11.82	1.7273	0.1	2894.6
23027	11.543	1.6364	0.1	2969.7
23028	11.635	1.7273	0.1	2952.7
23029	11.358	1.6364	0.1	3027.2
23030	11.45	1.7273	0.1	3013.2
23031	11.174	1.6364	0.1	3086.7
23032	11.266	1.7273	0.1	3076.6
23033	10.989	1.6364	0.1	3148.8
23034	11.081	1.7273	0.1	3143.8
23035	10.804	1.6364	0.1	3214.1
23036	10.897	1.7273	0.1	3215.6
23037	10.62	1.6364	0.1	3283.8
23038	10.712	1.7273	0.1	3293.7
23039	10.435	1.6364	0.1	3359.7
23040	10.528	1.7273	0.1	3380.1
23041	10.251	1.6364	0.1	3444.4
23042	10.343	1.7273	0.1	3478.1
23043	10.066	1.6364	0.1	3542.2
23044	10.159	1.7273	0.1	3592.3
23045	9.8817	1.6364	0.1	3659.5
23046	9.974	1.7273	0.1	3730.5
23047	9.6972	1.6364	0.1	3805.1
23048	9.7894	1.7273	0.1	3904.
23049	9.5126	1.6364	0.1	3988.
23050	9.6049	1.7273	0.1	4131.2
23051	9.328	1.6364	0.1	4207.8
23052	9.4203	1.7273	0.1	4438.7
23053	9.1435	1.6364	0.1	4446.2
23054	9.2358	1.7273	0.1	4875.5
23055	9.0512	1.7273	0.1	5679.
23056	8.9589	1.6364	0.1	3714.2
23057	23.723	1.8182	0.1	59.145
23058	23.815	1.9091	0.1	39.889
23059	23.908	1.8182	0.1	22.5
23060	23.539	1.8182	0.1	97.738
23061	23.631	1.9091	0.1	78.514
23062	23.354	1.8182	0.1	136.25
23063	23.446	1.9091	0.1	117.16
23064	23.17	1.8182	0.1	174.65
23065	23.262	1.9091	0.1	155.66
23066	22.985	1.8182	0.1	213.02
23067	23.077	1.9091	0.1	194.08
23068	22.8	1.8182	0.1	251.41
23069	22.893	1.9091	0.1	232.49
23070	22.616	1.8182	0.1	289.87
23071	22.708	1.9091	0.1	270.92
23072	22.431	1.8182	0.1	328.43
23073	22.524	1.9091	0.1	309.43
23074	22.247	1.8182	0.1	367.12
23075	22.339	1.9091	0.1	348.05
23076	22.062	1.8182	0.1	405.96
23077	22.154	1.9091	0.1	386.79
23078	21.878	1.8182	0.1	444.95
23079	21.97	1.9091	0.1	425.68
23080	21.693	1.8182	0.1	484.13
23081	21.785	1.9091	0.1	464.74
23082	21.509	1.8182	0.1	523.48
23083	21.601	1.9091	0.1	503.97
23084	21.324	1.8182	0.1	563.02
23085	21.416	1.9091	0.1	543.38
23086	21.139	1.8182	0.1	602.75
23087	21.232	1.9091	0.1	582.98
23088	20.955	1.8182	0.1	642.66
23089	21.047	1.9091	0.1	622.76
23090	20.77	1.8182	0.1	682.78
23091	20.863	1.9091	0.1	662.74
23092	20.586	1.8182	0.1	723.09
23093	20.678	1.9091	0.1	702.92
23094	20.401	1.8182	0.1	763.59
23095	20.493	1.9091	0.1	743.29
23096	20.217	1.8182	0.1	804.29
23097	20.309	1.9091	0.1	783.87
23098	20.032	1.8182	0.1	845.2
23099	20.124	1.9091	0.1	824.64
23100	19.848	1.8182	0.1	886.3
23101	19.94	1.9091	0.1	865.61
23102	19.663	1.8182	0.1	927.6
23103	19.755	1.9091	0.1	906.79
23104	19.478	1.8182	0.1	969.09
23105	19.571	1.9091	0.1	948.16
23106	19.294	1.8182	0.1	1010.8
23107	19.386	1.9091	0.1	989.74
23108	19.109	1.8182	0.1	1052.7
23109	19.202	1.9091	0.1	1031.5
23110	18.925	1.8182	0.1	1094.8
23111	19.017	1.9091	0.1	1073.5
23112	18.74	1.8182	0.1	1137.1
23113	18.833	1.9091	0.1	1115.7
23114	18.556	1.8182	0.1	1179.6
23115	18.648	1.9091	0.1	1158.
23116	18.371	1.8182	0.1	1222.3
23117	18.463	1.9091	0.1	1200.6
23118	18.187	1.8182	0.1	1265.2
23119	18.279	1.9091	0.1	1243.4
23120	18.002	1.8182	0.1	1308.2
23121	18.094	1.9091	0.1	1286.4
23122	17.817	1.8182	0.1	1351.5
23123	17.91	1.9091	0.1	1329.5
23124	17.633	1.8182	0.1	1395.
23125	17.725	1.9091	0.1	1372.9
23126	17.448	1.8182	0.1	1438.7
23127	17.541	1.9091	0.1	1416.5
23128	17.264	1.8182	0.1	1482.6
23129	17.356	1.9091	0.1	1460.2
23130	17.079	1.8182	0.1	1526.6
23131	17.172	1.9091	0.1	1504.2
23132	16.895	1.8182	0.1	1570.9
23133	16.987	1.9091	0.1	1548.3
23134	16.71	1.8182	0.1	1615.3
23135	16.802	1.9091	0.1	1592.7
23136	16.526	1.8182	0.1	1660.
23137	16.618	1.9091	0.1	1637.2
23138	16.341	1.8182	0.1	1704.8
23139	16.433	1.9091	0.1	1681.9
23140	16.157	1.8182	0.1	1749.8
23141	16.249	1.9091	0.1	1726.8
23142	15.972	1.8182	0.1	1795.1
23143	16.064	1.9091	0.1	1772.
23144	15.787	1.8182	0.1	1840.5
23145	15.88	1.9091	0.1	1817.3
23146	15.603	1.8182	0.1	1886.1
23147	15.695	1.9091	0.1	1862.8
23148	15.418	1.8182	0.1	1932.
23149	15.511	1.9091	0.1	1908.5
23150	15.234	1.8182	0.1	1978.
23151	15.326	1.9091	0.1	1954.4
23152	15.049	1.8182	0.1	2024.2
23153	15.141	1.9091	0.1	2000.5
23154	14.865	1.8182	0.1	2070.7
23155	14.957	1.9091	0.1	2046.8
23156	14.68	1.8182	0.1	2117.4
23157	14.772	1.9091	0.1	2093.4
23158	14.496	1.8182	0.1	2164.3
23159	14.588	1.9091	0.1	2140.2
23160	14.311	1.8182	0.1	2211.5
23161	14.403	1.9091	0.1	2187.3
23162	14.126	1.8182	0.1	2258.9
23163	14.219	1.9091	0.1	2234.6
23164	13.942	1.8182	0.1	2306.7
23165	14.034	1.9091	0.1	2282.2
23166	13.757	1.8182	0.1	2354.8
23167	13.85	1.9091	0.1	2330.2
23168	13.573	1.8182	0.1	2403.3
23169	13.665	1.9091	0.1	2378.6
23170	13.388	1.8182	0.1	2452.2
23171	13.48	1.9091	0.1	2427.4
23172	13.204	1.8182	0.1	2501.7
23173	13.296	1.9091	0.1	2476.8
23174	13.019	1.8182	0.1	2551.7
23175	13.111	1.9091	0.1	2526.8
23176	12.835	1.8182	0.1	2602.5
23177	12.927	1.9091	0.1	2577.6
23178	12.65	1.8182	0.1	2654.1
23179	12.742	1.9091	0.1	2629.2
23180	12.465	1.8182	0.1	2706.8
23181	12.558	1.9091	0.1	2682.
23182	12.281	1.8182	0.1	2760.7
23183	12.373	1.9091	0.1	2736.2
23184	12.096	1.8182	0.1	2816.3
23185	12.189	1.9091	0.1	2792.1
23186	11.912	1.8182	0.1	2873.7
23187	12.004	1.9091	0.1	2850.1
23188	11.727	1.8182	0.1	2933.5
23189	11.82	1.9091	0.1	2910.7
23190	11.543	1.8182	0.1	2996.2
23191	11.635	1.9091	0.1	2974.6
23192	11.358	1.8182	0.1	3062.6
23193	11.45	1.9091	0.1	3042.6
23194	11.174	1.8182	0.1	3133.6
23195	11.266	1.9091	0.1	3115.8
23196	10.989	1.8182	0.1	3210.5
23197	11.081	1.9091	0.1	3195.7
23198	10.804	1.8182	0.1	3295.
23199	10.897	1.9091	0.1	3284.
23200	10.62	1.8182	0.1	3389.5
23201	10.712	1.9091	0.1	3383.3
23202	10.435	1.8182	0.1	3497.5
23203	10.528	1.9091	0.1	3497.3
23204	10.251	1.8182	0.1	3624.3
23205	10.343	1.9091	0.1	3631.
23206	10.066	1.8182	0.1	3777.8
23207	10.159	1.9091	0.1	3792.2
23208	9.8817	1.8182	0.1	3970.7
23209	9.974	1.9091	0.1	3993.
23210	9.6972	1.8182	0.1	4223.5
23211	9.7894	1.9091	0.1	4252.6
23212	9.5126	1.8182	0.1	4571.9
23213	9.6049	1.9091	0.1	4605.2
23214	9.328	1.8182	0.1	5087.2
23215	9.4203	1.9091	0.1	5118.4
23216	9.1435	1.8182	0.1	6044.
23217	9.2358	1.9091	0.1	5923.
23218	9.0512	1.9091	0.1	8021.6
23219	8.9589	1.8182	0.1	5233.9
23220	23.723	2.	0.1	59.186
23221	23.815	2.0909	0.1	39.854
23222	23.908	2.	0.1	22.47
23223	23.539	2.	0.1	97.927
23224	23.631	2.0909	0.1	78.616
23225	23.354	2.	0.1	136.57
23226	23.446	2.0909	0.1	117.39
23227	23.17	2.	0.1	175.1
23228	23.262	2.0909	0.1	156.
23229	22.985	2.	0.1	213.56
23230	23.077	2.0909	0.1	194.53
23231	22.8	2.	0.1	252.02
23232	22.893	2.0909	0.1	233.01
23233	22.616	2.	0.1	290.51
23234	22.708	2.0909	0.1	271.49
23235	22.431	2.	0.1	329.07
23236	22.524	2.0909	0.1	310.02
23237	22.247	2.	0.1	367.75
23238	22.339	2.0909	0.1	348.64
23239	22.062	2.	0.1	406.55
23240	22.154	2.0909	0.1	387.36
23241	21.878	2.	0.1	445.5
23242	21.97	2.0909	0.1	426.22
23243	21.693	2.	0.1	484.61
23244	21.785	2.0909	0.1	465.23
23245	21.509	2.	0.1	523.9
23246	21.601	2.0909	0.1	504.4
23247	21.324	2.	0.1	563.37
23248	21.416	2.0909	0.1	543.75
23249	21.139	2.	0.1	603.03
23250	21.232	2.0909	0.1	583.28
23251	20.955	2.	0.1	642.88
23252	21.047	2.0909	0.1	623.01
23253	20.77	2.	0.1	682.92
23254	20.863	2.0909	0.1	662.92
23255	20.586	2.	0.1	723.16
23256	20.678	2.0909	0.1	703.04
23257	20.401	2.	0.1	763.61
23258	20.493	2.0909	0.1	743.35
23259	20.217	2.	0.1	804.25
23260	20.309	2.0909	0.1	783.87
23261	20.032	2.	0.1	845.09
23262	20.124	2.0909	0.1	824.58
23263	19.848	2.	0.1	886.14
23264	19.94	2.0909	0.1	865.51
23265	19.663	2.	0.1	927.39
23266	19.755	2.0909	0.1	906.63
23267	19.478	2.	0.1	968.84
23268	19.571	2.0909	0.1	947.96
23269	19.294	2.	0.1	1010.5
23270	19.386	2.0909	0.1	989.49
23271	19.109	2.	0.1	1052.4
23272	19.202	2.0909	0.1	1031.2
23273	18.925	2.	0.1	1094.4
23274	19.017	2.0909	0.1	1073.2
23275	18.74	2.	0.1	1136.7
23276	18.833	2.0909	0.1	1115.3
23277	18.556	2.	0.1	1179.1
23278	18.648	2.0909	0.1	1157.7
23279	18.371	2.	0.1	1221.8
23280	18.463	2.0909	0.1	1200.2
23281	18.187	2.	0.1	1264.6
23282	18.279	2.0909	0.1	1242.9
23283	18.002	2.	0.1	1307.7
23284	18.094	2.0909	0.1	1285.9
23285	17.817	2.	0.1	1350.9
23286	17.91	2.0909	0.1	1329.
23287	17.633	2.	0.1	1394.4
23288	17.725	2.0909	0.1	1372.4
23289	17.448	2.	0.1	1438.
23290	17.541	2.0909	0.1	1415.9
23291	17.264	2.	0.1	1481.9
23292	17.356	2.0909	0.1	1459.6
23293	17.079	2.	0.1	1525.9
23294	17.172	2.0909	0.1	1503.6
23295	16.895	2.	0.1	1570.1
23296	16.987	2.0909	0.1	1547.7
23297	16.71	2.	0.1	1614.6
23298	16.802	2.0909	0.1	1592.
23299	16.526	2.	0.1	1659.2
23300	16.618	2.0909	0.1	1636.5
23301	16.341	2.	0.1	1704.
23302	16.433	2.0909	0.1	1681.2
23303	16.157	2.	0.1	1749.
23304	16.249	2.0909	0.1	1726.1
23305	15.972	2.	0.1	1794.2
23306	16.064	2.0909	0.1	1771.1
23307	15.787	2.	0.1	1839.6
23308	15.88	2.0909	0.1	1816.4
23309	15.603	2.	0.1	1885.2
23310	15.695	2.0909	0.1	1861.9
23311	15.418	2.	0.1	1930.9
23312	15.511	2.0909	0.1	1907.6
23313	15.234	2.	0.1	1976.9
23314	15.326	2.0909	0.1	1953.5
23315	15.049	2.	0.1	2023.2
23316	15.141	2.0909	0.1	1999.5
23317	14.865	2.	0.1	2069.6
23318	14.957	2.0909	0.1	2045.9
23319	14.68	2.	0.1	2116.3
23320	14.772	2.0909	0.1	2092.4
23321	14.496	2.	0.1	2163.2
23322	14.588	2.0909	0.1	2139.2
23323	14.311	2.	0.1	2210.4
23324	14.403	2.0909	0.1	2186.3
23325	14.126	2.	0.1	2257.9
23326	14.219	2.0909	0.1	2233.6
23327	13.942	2.	0.1	2305.8
23328	14.034	2.0909	0.1	2281.4
23329	13.757	2.	0.1	2354.1
23330	13.85	2.0909	0.1	2329.5
23331	13.573	2.	0.1	2402.8
23332	13.665	2.0909	0.1	2378.
23333	13.388	2.	0.1	2452.
23334	13.48	2.0909	0.1	2427.1
23335	13.204	2.	0.1	2502.
23336	13.296	2.0909	0.1	2476.8
23337	13.019	2.	0.1	2552.7
23338	13.111	2.0909	0.1	2527.4
23339	12.835	2.	0.1	2604.3
23340	12.927	2.0909	0.1	2578.8
23341	12.65	2.	0.1	2657.2
23342	12.742	2.0909	0.1	2631.5
23343	12.465	2.	0.1	2711.5
23344	12.558	2.0909	0.1	2685.6
23345	12.281	2.	0.1	2767.6
23346	12.373	2.0909	0.1	2741.5
23347	12.096	2.	0.1	2825.9
23348	12.189	2.0909	0.1	2799.7
23349	11.912	2.	0.1	2887.1
23350	12.004	2.0909	0.1	2860.8
23351	11.727	2.	0.1	2951.8
23352	11.82	2.0909	0.1	2925.5
23353	11.543	2.	0.1	3021.
23354	11.635	2.0909	0.1	2994.7
23355	11.358	2.	0.1	3095.9
23356	11.45	2.0909	0.1	3069.8
23357	11.174	2.	0.1	3177.9
23358	11.266	2.0909	0.1	3152.1
23359	10.989	2.	0.1	3269.1
23360	11.081	2.0909	0.1	3243.9
23361	10.804	2.	0.1	3372.1
23362	10.897	2.0909	0.1	3347.7
23363	10.62	2.	0.1	3490.7
23364	10.712	2.0909	0.1	3467.2
23365	10.435	2.	0.1	3630.
23366	10.528	2.0909	0.1	3607.4
23367	10.251	2.	0.1	3797.6
23368	10.343	2.0909	0.1	3775.1
23369	10.066	2.	0.1	4005.3
23370	10.159	2.0909	0.1	3980.7
23371	9.8817	2.	0.1	4271.8
23372	9.974	2.0909	0.1	4240.2
23373	9.6972	2.	0.1	4630.
23374	9.7894	2.0909	0.1	4579.6
23375	9.5126	2.	0.1	5146.4
23376	9.6049	2.0909	0.1	5045.4
23377	9.328	2.	0.1	5951.9
23378	9.4203	2.0909	0.1	5734.1
23379	9.1435	2.	0.1	7918.7
23380	9.2358	2.0909	0.1	6858.9
23381	9.0512	2.0909	0.1	9497.
23382	8.9589	2.	0.1	14149
23383	23.723	2.1818	0.1	59.21
23384	23.815	2.2727	0.1	39.822
23385	23.908	2.1818	0.1	22.441
23386	23.539	2.1818	0.1	98.068
23387	23.631	2.2727	0.1	78.688
23388	23.354	2.1818	0.1	136.82
23389	23.446	2.2727	0.1	117.56
23390	23.17	2.1818	0.1	175.44
23391	23.262	2.2727	0.1	156.27
23392	22.985	2.1818	0.1	213.99
23393	23.077	2.2727	0.1	194.87
23394	22.8	2.1818	0.1	252.5
23395	22.893	2.2727	0.1	233.42
23396	22.616	2.1818	0.1	291.03
23397	22.708	2.2727	0.1	271.95
23398	22.431	2.1818	0.1	329.61
23399	22.524	2.2727	0.1	310.5
23400	22.247	2.1818	0.1	368.28
23401	22.339	2.2727	0.1	349.12
23402	22.062	2.1818	0.1	407.06
23403	22.154	2.2727	0.1	387.83
23404	21.878	2.1818	0.1	445.97
23405	21.97	2.2727	0.1	426.67
23406	21.693	2.1818	0.1	485.04
23407	21.785	2.2727	0.1	465.64
23408	21.509	2.1818	0.1	524.28
23409	21.601	2.2727	0.1	504.78
23410	21.324	2.1818	0.1	563.7
23411	21.416	2.2727	0.1	544.08
23412	21.139	2.1818	0.1	603.29
23413	21.232	2.2727	0.1	583.56
23414	20.955	2.1818	0.1	643.08
23415	21.047	2.2727	0.1	623.23
23416	20.77	2.1818	0.1	683.07
23417	20.863	2.2727	0.1	663.09
23418	20.586	2.1818	0.1	723.26
23419	20.678	2.2727	0.1	703.16
23420	20.401	2.1818	0.1	763.64
23421	20.493	2.2727	0.1	743.42
23422	20.217	2.1818	0.1	804.24
23423	20.309	2.2727	0.1	783.89
23424	20.032	2.1818	0.1	845.03
23425	20.124	2.2727	0.1	824.56
23426	19.848	2.1818	0.1	886.03
23427	19.94	2.2727	0.1	865.44
23428	19.663	2.1818	0.1	927.24
23429	19.755	2.2727	0.1	906.52
23430	19.478	2.1818	0.1	968.65
23431	19.571	2.2727	0.1	947.81
23432	19.294	2.1818	0.1	1010.3
23433	19.386	2.2727	0.1	989.31
23434	19.109	2.1818	0.1	1052.1
23435	19.202	2.2727	0.1	1031.
23436	18.925	2.1818	0.1	1094.1
23437	19.017	2.2727	0.1	1072.9
23438	18.74	2.1818	0.1	1136.3
23439	18.833	2.2727	0.1	1115.
23440	18.556	2.1818	0.1	1178.8
23441	18.648	2.2727	0.1	1157.3
23442	18.371	2.1818	0.1	1221.4
23443	18.463	2.2727	0.1	1199.9
23444	18.187	2.1818	0.1	1264.2
23445	18.279	2.2727	0.1	1242.6
23446	18.002	2.1818	0.1	1307.2
23447	18.094	2.2727	0.1	1285.5
23448	17.817	2.1818	0.1	1350.5
23449	17.91	2.2727	0.1	1328.6
23450	17.633	2.1818	0.1	1393.9
23451	17.725	2.2727	0.1	1371.9
23452	17.448	2.1818	0.1	1437.5
23453	17.541	2.2727	0.1	1415.4
23454	17.264	2.1818	0.1	1481.3
23455	17.356	2.2727	0.1	1459.1
23456	17.079	2.1818	0.1	1525.3
23457	17.172	2.2727	0.1	1503.
23458	16.895	2.1818	0.1	1569.5
23459	16.987	2.2727	0.1	1547.1
23460	16.71	2.1818	0.1	1613.9
23461	16.802	2.2727	0.1	1591.4
23462	16.526	2.1818	0.1	1658.5
23463	16.618	2.2727	0.1	1635.9
23464	16.341	2.1818	0.1	1703.3
23465	16.433	2.2727	0.1	1680.6
23466	16.157	2.1818	0.1	1748.3
23467	16.249	2.2727	0.1	1725.4
23468	15.972	2.1818	0.1	1793.4
23469	16.064	2.2727	0.1	1770.5
23470	15.787	2.1818	0.1	1838.8
23471	15.88	2.2727	0.1	1815.7
23472	15.603	2.1818	0.1	1884.3
23473	15.695	2.2727	0.1	1861.2
23474	15.418	2.1818	0.1	1930.1
23475	15.511	2.2727	0.1	1906.8
23476	15.234	2.1818	0.1	1976.1
23477	15.326	2.2727	0.1	1952.7
23478	15.049	2.1818	0.1	2022.3
23479	15.141	2.2727	0.1	1998.7
23480	14.865	2.1818	0.1	2068.7
23481	14.957	2.2727	0.1	2045.
23482	14.68	2.1818	0.1	2115.3
23483	14.772	2.2727	0.1	2091.6
23484	14.496	2.1818	0.1	2162.3
23485	14.588	2.2727	0.1	2138.4
23486	14.311	2.1818	0.1	2209.5
23487	14.403	2.2727	0.1	2185.4
23488	14.126	2.1818	0.1	2257.1
23489	14.219	2.2727	0.1	2232.8
23490	13.942	2.1818	0.1	2305.
23491	14.034	2.2727	0.1	2280.6
23492	13.757	2.1818	0.1	2353.4
23493	13.85	2.2727	0.1	2328.8
23494	13.573	2.1818	0.1	2402.4
23495	13.665	2.2727	0.1	2377.5
23496	13.388	2.1818	0.1	2451.9
23497	13.48	2.2727	0.1	2426.8
23498	13.204	2.1818	0.1	2502.2
23499	13.296	2.2727	0.1	2476.9
23500	13.019	2.1818	0.1	2553.5
23501	13.111	2.2727	0.1	2527.8
23502	12.835	2.1818	0.1	2606.
23503	12.927	2.2727	0.1	2579.9
23504	12.65	2.1818	0.1	2659.9
23505	12.742	2.2727	0.1	2633.4
23506	12.465	2.1818	0.1	2715.6
23507	12.558	2.2727	0.1	2688.7
23508	12.281	2.1818	0.1	2773.7
23509	12.373	2.2727	0.1	2746.1
23510	12.096	2.1818	0.1	2834.6
23511	12.189	2.2727	0.1	2806.4
23512	11.912	2.1818	0.1	2899.2
23513	12.004	2.2727	0.1	2870.1
23514	11.727	2.1818	0.1	2968.4
23515	11.82	2.2727	0.1	2938.4
23516	11.543	2.1818	0.1	3043.5
23517	11.635	2.2727	0.1	3012.4
23518	11.358	2.1818	0.1	3126.
23519	11.45	2.2727	0.1	3093.7
23520	11.174	2.1818	0.1	3218.1
23521	11.266	2.2727	0.1	3184.2
23522	10.989	2.1818	0.1	3322.5
23523	11.081	2.2727	0.1	3286.7
23524	10.804	2.1818	0.1	3442.7
23525	10.897	2.2727	0.1	3404.5
23526	10.62	2.1818	0.1	3583.6
23527	10.712	2.2727	0.1	3542.2
23528	10.435	2.1818	0.1	3751.9
23529	10.528	2.2727	0.1	3705.9
23530	10.251	2.1818	0.1	3957.3
23531	10.343	2.2727	0.1	3904.2
23532	10.066	2.1818	0.1	4214.3
23533	10.159	2.2727	0.1	4149.3
23534	9.8817	2.1818	0.1	4546.2
23535	9.974	2.2727	0.1	4459.4
23536	9.6972	2.1818	0.1	4993.1
23537	9.7894	2.2727	0.1	4863.8
23538	9.5126	2.1818	0.1	5632.6
23539	9.6049	2.2727	0.1	5411.4
23540	9.328	2.1818	0.1	6648.2
23541	9.4203	2.2727	0.1	6194.9
23542	9.1435	2.1818	0.1	8505.1
23543	9.2358	2.2727	0.1	7408.7
23544	9.0512	2.2727	0.1	9433.9
23545	8.9589	2.1818	0.1	11384
23546	23.723	2.3636	0.1	59.223
23547	23.815	2.4545	0.1	39.793
23548	23.908	2.3636	0.1	22.416
23549	23.539	2.3636	0.1	98.17
23550	23.631	2.4545	0.1	78.738
23551	23.354	2.3636	0.1	137.01
23552	23.446	2.4545	0.1	117.68
23553	23.17	2.3636	0.1	175.71
23554	23.262	2.4545	0.1	156.46
23555	22.985	2.3636	0.1	214.32
23556	23.077	2.4545	0.1	195.13
23557	22.8	2.3636	0.1	252.88
23558	22.893	2.4545	0.1	233.73
23559	22.616	2.3636	0.1	291.44
23560	22.708	2.4545	0.1	272.29
23561	22.431	2.3636	0.1	330.03
23562	22.524	2.4545	0.1	310.87
23563	22.247	2.3636	0.1	368.7
23564	22.339	2.4545	0.1	349.5
23565	22.062	2.3636	0.1	407.47
23566	22.154	2.4545	0.1	388.21
23567	21.878	2.3636	0.1	446.36
23568	21.97	2.4545	0.1	427.03
23569	21.693	2.3636	0.1	485.4
23570	21.785	2.4545	0.1	465.98
23571	21.509	2.3636	0.1	524.6
23572	21.601	2.4545	0.1	505.08
23573	21.324	2.3636	0.1	563.97
23574	21.416	2.4545	0.1	544.34
23575	21.139	2.3636	0.1	603.53
23576	21.232	2.4545	0.1	583.79
23577	20.955	2.3636	0.1	643.27
23578	21.047	2.4545	0.1	623.42
23579	20.77	2.3636	0.1	683.21
23580	20.863	2.4545	0.1	663.24
23581	20.586	2.3636	0.1	723.35
23582	20.678	2.4545	0.1	703.26
23583	20.401	2.3636	0.1	763.69
23584	20.493	2.4545	0.1	743.49
23585	20.217	2.3636	0.1	804.24
23586	20.309	2.4545	0.1	783.92
23587	20.032	2.3636	0.1	845.
23588	20.124	2.4545	0.1	824.55
23589	19.848	2.3636	0.1	885.96
23590	19.94	2.4545	0.1	865.4
23591	19.663	2.3636	0.1	927.13
23592	19.755	2.4545	0.1	906.45
23593	19.478	2.3636	0.1	968.51
23594	19.571	2.4545	0.1	947.71
23595	19.294	2.3636	0.1	1010.1
23596	19.386	2.4545	0.1	989.18
23597	19.109	2.3636	0.1	1051.9
23598	19.202	2.4545	0.1	1030.9
23599	18.925	2.3636	0.1	1093.9
23600	19.017	2.4545	0.1	1072.7
23601	18.74	2.3636	0.1	1136.1
23602	18.833	2.4545	0.1	1114.8
23603	18.556	2.3636	0.1	1178.5
23604	18.648	2.4545	0.1	1157.1
23605	18.371	2.3636	0.1	1221.1
23606	18.463	2.4545	0.1	1199.6
23607	18.187	2.3636	0.1	1263.9
23608	18.279	2.4545	0.1	1242.3
23609	18.002	2.3636	0.1	1306.9
23610	18.094	2.4545	0.1	1285.2
23611	17.817	2.3636	0.1	1350.1
23612	17.91	2.4545	0.1	1328.3
23613	17.633	2.3636	0.1	1393.5
23614	17.725	2.4545	0.1	1371.6
23615	17.448	2.3636	0.1	1437.1
23616	17.541	2.4545	0.1	1415.1
23617	17.264	2.3636	0.1	1480.9
23618	17.356	2.4545	0.1	1458.8
23619	17.079	2.3636	0.1	1524.9
23620	17.172	2.4545	0.1	1502.6
23621	16.895	2.3636	0.1	1569.
23622	16.987	2.4545	0.1	1546.7
23623	16.71	2.3636	0.1	1613.4
23624	16.802	2.4545	0.1	1591.
23625	16.526	2.3636	0.1	1658.
23626	16.618	2.4545	0.1	1635.4
23627	16.341	2.3636	0.1	1702.7
23628	16.433	2.4545	0.1	1680.1
23629	16.157	2.3636	0.1	1747.7
23630	16.249	2.4545	0.1	1724.9
23631	15.972	2.3636	0.1	1792.8
23632	16.064	2.4545	0.1	1770.
23633	15.787	2.3636	0.1	1838.1
23634	15.88	2.4545	0.1	1815.2
23635	15.603	2.3636	0.1	1883.7
23636	15.695	2.4545	0.1	1860.6
23637	15.418	2.3636	0.1	1929.4
23638	15.511	2.4545	0.1	1906.2
23639	15.234	2.3636	0.1	1975.4
23640	15.326	2.4545	0.1	1952.1
23641	15.049	2.3636	0.1	2021.5
23642	15.141	2.4545	0.1	1998.1
23643	14.865	2.3636	0.1	2067.9
23644	14.957	2.4545	0.1	2044.4
23645	14.68	2.3636	0.1	2114.6
23646	14.772	2.4545	0.1	2090.9
23647	14.496	2.3636	0.1	2161.5
23648	14.588	2.4545	0.1	2137.7
23649	14.311	2.3636	0.1	2208.8
23650	14.403	2.4545	0.1	2184.8
23651	14.126	2.3636	0.1	2256.4
23652	14.219	2.4545	0.1	2232.2
23653	13.942	2.3636	0.1	2304.4
23654	14.034	2.4545	0.1	2280.
23655	13.757	2.3636	0.1	2352.9
23656	13.85	2.4545	0.1	2328.3
23657	13.573	2.3636	0.1	2402.
23658	13.665	2.4545	0.1	2377.1
23659	13.388	2.3636	0.1	2451.8
23660	13.48	2.4545	0.1	2426.6
23661	13.204	2.3636	0.1	2502.5
23662	13.296	2.4545	0.1	2476.9
23663	13.019	2.3636	0.1	2554.3
23664	13.111	2.4545	0.1	2528.3
23665	12.835	2.3636	0.1	2607.4
23666	12.927	2.4545	0.1	2580.8
23667	12.65	2.3636	0.1	2662.2
23668	12.742	2.4545	0.1	2635.
23669	12.465	2.3636	0.1	2719.1
23670	12.558	2.4545	0.1	2691.2
23671	12.281	2.3636	0.1	2778.8
23672	12.373	2.4545	0.1	2749.9
23673	12.096	2.3636	0.1	2841.9
23674	12.189	2.4545	0.1	2811.8
23675	11.912	2.3636	0.1	2909.4
23676	12.004	2.4545	0.1	2877.8
23677	11.727	2.3636	0.1	2982.5
23678	11.82	2.4545	0.1	2949.
23679	11.543	2.3636	0.1	3062.6
23680	11.635	2.4545	0.1	3027.
23681	11.358	2.3636	0.1	3151.9
23682	11.45	2.4545	0.1	3113.4
23683	11.174	2.3636	0.1	3252.7
23684	11.266	2.4545	0.1	3210.8
23685	10.989	2.3636	0.1	3368.6
23686	11.081	2.4545	0.1	3322.2
23687	10.804	2.3636	0.1	3503.9
23688	10.897	2.4545	0.1	3451.8
23689	10.62	2.3636	0.1	3664.3
23690	10.712	2.4545	0.1	3604.8
23691	10.435	2.3636	0.1	3857.9
23692	10.528	2.4545	0.1	3788.5
23693	10.251	2.3636	0.1	4095.8
23694	10.343	2.4545	0.1	4012.3
23695	10.066	2.3636	0.1	4394.
23696	10.159	2.4545	0.1	4289.5
23697	9.8817	2.3636	0.1	4776.7
23698	9.974	2.4545	0.1	4638.9
23699	9.6972	2.3636	0.1	5282.8
23700	9.7894	2.4545	0.1	5087.7
23701	9.5126	2.3636	0.1	5978.1
23702	9.6049	2.4545	0.1	5676.4
23703	9.328	2.3636	0.1	6971.9
23704	9.4203	2.4545	0.1	6465.6
23705	9.1435	2.3636	0.1	8380.6
23706	9.2358	2.4545	0.1	7531.1
23707	9.0512	2.4545	0.1	8865.
23708	8.9589	2.3636	0.1	9824.3
23709	23.723	2.5455	0.1	59.23
23710	23.815	2.6364	0.1	39.772
23711	23.908	2.5455	0.1	22.397
23712	23.539	2.5455	0.1	98.241
23713	23.631	2.6364	0.1	78.771
23714	23.354	2.5455	0.1	137.14
23715	23.446	2.6364	0.1	117.77
23716	23.17	2.5455	0.1	175.9
23717	23.262	2.6364	0.1	156.59
23718	22.985	2.5455	0.1	214.55
23719	23.077	2.6364	0.1	195.31
23720	22.8	2.5455	0.1	253.15
23721	22.893	2.6364	0.1	233.94
23722	22.616	2.5455	0.1	291.74
23723	22.708	2.6364	0.1	272.53
23724	22.431	2.5455	0.1	330.35
23725	22.524	2.6364	0.1	311.13
23726	22.247	2.5455	0.1	369.02
23727	22.339	2.6364	0.1	349.77
23728	22.062	2.5455	0.1	407.78
23729	22.154	2.6364	0.1	388.47
23730	21.878	2.5455	0.1	446.66
23731	21.97	2.6364	0.1	427.28
23732	21.693	2.5455	0.1	485.68
23733	21.785	2.6364	0.1	466.22
23734	21.509	2.5455	0.1	524.85
23735	21.601	2.6364	0.1	505.3
23736	21.324	2.5455	0.1	564.19
23737	21.416	2.6364	0.1	544.54
23738	21.139	2.5455	0.1	603.71
23739	21.232	2.6364	0.1	583.96
23740	20.955	2.5455	0.1	643.42
23741	21.047	2.6364	0.1	623.56
23742	20.77	2.5455	0.1	683.32
23743	20.863	2.6364	0.1	663.35
23744	20.586	2.5455	0.1	723.43
23745	20.678	2.6364	0.1	703.35
23746	20.401	2.5455	0.1	763.74
23747	20.493	2.6364	0.1	743.54
23748	20.217	2.5455	0.1	804.26
23749	20.309	2.6364	0.1	783.94
23750	20.032	2.5455	0.1	844.98
23751	20.124	2.6364	0.1	824.55
23752	19.848	2.5455	0.1	885.92
23753	19.94	2.6364	0.1	865.37
23754	19.663	2.5455	0.1	927.06
23755	19.755	2.6364	0.1	906.4
23756	19.478	2.5455	0.1	968.41
23757	19.571	2.6364	0.1	947.64
23758	19.294	2.5455	0.1	1010.
23759	19.386	2.6364	0.1	989.08
23760	19.109	2.5455	0.1	1051.7
23761	19.202	2.6364	0.1	1030.7
23762	18.925	2.5455	0.1	1093.7
23763	19.017	2.6364	0.1	1072.6
23764	18.74	2.5455	0.1	1135.9
23765	18.833	2.6364	0.1	1114.7
23766	18.556	2.5455	0.1	1178.3
23767	18.648	2.6364	0.1	1156.9
23768	18.371	2.5455	0.1	1220.9
23769	18.463	2.6364	0.1	1199.4
23770	18.187	2.5455	0.1	1263.6
23771	18.279	2.6364	0.1	1242.1
23772	18.002	2.5455	0.1	1306.6
23773	18.094	2.6364	0.1	1285.
23774	17.817	2.5455	0.1	1349.8
23775	17.91	2.6364	0.1	1328.1
23776	17.633	2.5455	0.1	1393.2
23777	17.725	2.6364	0.1	1371.4
23778	17.448	2.5455	0.1	1436.8
23779	17.541	2.6364	0.1	1414.8
23780	17.264	2.5455	0.1	1480.6
23781	17.356	2.6364	0.1	1458.5
23782	17.079	2.5455	0.1	1524.5
23783	17.172	2.6364	0.1	1502.4
23784	16.895	2.5455	0.1	1568.7
23785	16.987	2.6364	0.1	1546.4
23786	16.71	2.5455	0.1	1613.
23787	16.802	2.6364	0.1	1590.7
23788	16.526	2.5455	0.1	1657.6
23789	16.618	2.6364	0.1	1635.1
23790	16.341	2.5455	0.1	1702.3
23791	16.433	2.6364	0.1	1679.7
23792	16.157	2.5455	0.1	1747.2
23793	16.249	2.6364	0.1	1724.6
23794	15.972	2.5455	0.1	1792.4
23795	16.064	2.6364	0.1	1769.6
23796	15.787	2.5455	0.1	1837.7
23797	15.88	2.6364	0.1	1814.8
23798	15.603	2.5455	0.1	1883.2
23799	15.695	2.6364	0.1	1860.2
23800	15.418	2.5455	0.1	1928.9
23801	15.511	2.6364	0.1	1905.8
23802	15.234	2.5455	0.1	1974.8
23803	15.326	2.6364	0.1	1951.6
23804	15.049	2.5455	0.1	2021.
23805	15.141	2.6364	0.1	1997.6
23806	14.865	2.5455	0.1	2067.4
23807	14.957	2.6364	0.1	2043.9
23808	14.68	2.5455	0.1	2114.
23809	14.772	2.6364	0.1	2090.4
23810	14.496	2.5455	0.1	2161.
23811	14.588	2.6364	0.1	2137.2
23812	14.311	2.5455	0.1	2208.2
23813	14.403	2.6364	0.1	2184.3
23814	14.126	2.5455	0.1	2255.9
23815	14.219	2.6364	0.1	2231.7
23816	13.942	2.5455	0.1	2303.9
23817	14.034	2.6364	0.1	2279.6
23818	13.757	2.5455	0.1	2352.5
23819	13.85	2.6364	0.1	2327.9
23820	13.573	2.5455	0.1	2401.7
23821	13.665	2.6364	0.1	2376.8
23822	13.388	2.5455	0.1	2451.7
23823	13.48	2.6364	0.1	2426.5
23824	13.204	2.5455	0.1	2502.7
23825	13.296	2.6364	0.1	2477.
23826	13.019	2.5455	0.1	2554.8
23827	13.111	2.6364	0.1	2528.5
23828	12.835	2.5455	0.1	2608.5
23829	12.927	2.6364	0.1	2581.5
23830	12.65	2.5455	0.1	2664.
23831	12.742	2.6364	0.1	2636.2
23832	12.465	2.5455	0.1	2721.9
23833	12.558	2.6364	0.1	2693.
23834	12.281	2.5455	0.1	2782.8
23835	12.373	2.6364	0.1	2752.6
23836	12.096	2.5455	0.1	2847.7
23837	12.189	2.6364	0.1	2815.8
23838	11.912	2.5455	0.1	2917.4
23839	12.004	2.6364	0.1	2883.5
23840	11.727	2.5455	0.1	2993.5
23841	11.82	2.6364	0.1	2956.9
23842	11.543	2.5455	0.1	3077.7
23843	11.635	2.6364	0.1	3037.8
23844	11.358	2.5455	0.1	3172.3
23845	11.45	2.6364	0.1	3128.1
23846	11.174	2.5455	0.1	3280.3
23847	11.266	2.6364	0.1	3230.7
23848	10.989	2.5455	0.1	3405.4
23849	11.081	2.6364	0.1	3348.9
23850	10.804	2.5455	0.1	3552.8
23851	10.897	2.6364	0.1	3487.5
23852	10.62	2.5455	0.1	3729.
23853	10.712	2.6364	0.1	3652.2
23854	10.435	2.5455	0.1	3942.8
23855	10.528	2.6364	0.1	3850.9
23856	10.251	2.5455	0.1	4206.2
23857	10.343	2.6364	0.1	4093.8
23858	10.066	2.5455	0.1	4534.9
23859	10.159	2.6364	0.1	4394.4
23860	9.8817	2.5455	0.1	4951.1
23861	9.974	2.6364	0.1	4770.2
23862	9.6972	2.5455	0.1	5484.5
23863	9.7894	2.6364	0.1	5243.5
23864	9.5126	2.5455	0.1	6171.6
23865	9.6049	2.6364	0.1	5840.4
23866	9.328	2.5455	0.1	7040.6
23867	9.4203	2.6364	0.1	6583.1
23868	9.1435	2.5455	0.1	8032.9
23869	9.2358	2.6364	0.1	7462.2
23870	9.0512	2.6364	0.1	8348.4
23871	8.9589	2.5455	0.1	8891.1
23872	23.723	2.7273	0.1	59.233
23873	23.815	2.8182	0.1	39.759
23874	23.908	2.7273	0.1	22.383
23875	23.539	2.7273	0.1	98.286
23876	23.631	2.8182	0.1	78.789
23877	23.354	2.7273	0.1	137.22
23878	23.446	2.8182	0.1	117.81
23879	23.17	2.7273	0.1	176.02
23880	23.262	2.8182	0.1	156.67
23881	22.985	2.7273	0.1	214.71
23882	23.077	2.8182	0.1	195.41
23883	22.8	2.7273	0.1	253.34
23884	22.893	2.8182	0.1	234.07
23885	22.616	2.7273	0.1	291.94
23886	22.708	2.8182	0.1	272.68
23887	22.431	2.7273	0.1	330.56
23888	22.524	2.8182	0.1	311.29
23889	22.247	2.7273	0.1	369.24
23890	22.339	2.8182	0.1	349.93
23891	22.062	2.7273	0.1	407.99
23892	22.154	2.8182	0.1	388.63
23893	21.878	2.7273	0.1	446.86
23894	21.97	2.8182	0.1	427.44
23895	21.693	2.7273	0.1	485.86
23896	21.785	2.8182	0.1	466.36
23897	21.509	2.7273	0.1	525.02
23898	21.601	2.8182	0.1	505.43
23899	21.324	2.7273	0.1	564.34
23900	21.416	2.8182	0.1	544.66
23901	21.139	2.7273	0.1	603.84
23902	21.232	2.8182	0.1	584.06
23903	20.955	2.7273	0.1	643.52
23904	21.047	2.8182	0.1	623.65
23905	20.77	2.7273	0.1	683.41
23906	20.863	2.8182	0.1	663.42
23907	20.586	2.7273	0.1	723.49
23908	20.678	2.8182	0.1	703.4
23909	20.401	2.7273	0.1	763.78
23910	20.493	2.8182	0.1	743.58
23911	20.217	2.7273	0.1	804.27
23912	20.309	2.8182	0.1	783.96
23913	20.032	2.7273	0.1	844.98
23914	20.124	2.8182	0.1	824.56
23915	19.848	2.7273	0.1	885.89
23916	19.94	2.8182	0.1	865.36
23917	19.663	2.7273	0.1	927.01
23918	19.755	2.8182	0.1	906.37
23919	19.478	2.7273	0.1	968.35
23920	19.571	2.8182	0.1	947.6
23921	19.294	2.7273	0.1	1009.9
23922	19.386	2.8182	0.1	989.03
23923	19.109	2.7273	0.1	1051.6
23924	19.202	2.8182	0.1	1030.7
23925	18.925	2.7273	0.1	1093.6
23926	19.017	2.8182	0.1	1072.5
23927	18.74	2.7273	0.1	1135.8
23928	18.833	2.8182	0.1	1114.6
23929	18.556	2.7273	0.1	1178.1
23930	18.648	2.8182	0.1	1156.9
23931	18.371	2.7273	0.1	1220.7
23932	18.463	2.8182	0.1	1199.3
23933	18.187	2.7273	0.1	1263.5
23934	18.279	2.8182	0.1	1242.
23935	18.002	2.7273	0.1	1306.5
23936	18.094	2.8182	0.1	1284.9
23937	17.817	2.7273	0.1	1349.6
23938	17.91	2.8182	0.1	1327.9
23939	17.633	2.7273	0.1	1393.
23940	17.725	2.8182	0.1	1371.2
23941	17.448	2.7273	0.1	1436.6
23942	17.541	2.8182	0.1	1414.7
23943	17.264	2.7273	0.1	1480.3
23944	17.356	2.8182	0.1	1458.3
23945	17.079	2.7273	0.1	1524.3
23946	17.172	2.8182	0.1	1502.2
23947	16.895	2.7273	0.1	1568.4
23948	16.987	2.8182	0.1	1546.2
23949	16.71	2.7273	0.1	1612.8
23950	16.802	2.8182	0.1	1590.5
23951	16.526	2.7273	0.1	1657.3
23952	16.618	2.8182	0.1	1634.9
23953	16.341	2.7273	0.1	1702.
23954	16.433	2.8182	0.1	1679.5
23955	16.157	2.7273	0.1	1746.9
23956	16.249	2.8182	0.1	1724.4
23957	15.972	2.7273	0.1	1792.
23958	16.064	2.8182	0.1	1769.4
23959	15.787	2.7273	0.1	1837.3
23960	15.88	2.8182	0.1	1814.6
23961	15.603	2.7273	0.1	1882.8
23962	15.695	2.8182	0.1	1860.
23963	15.418	2.7273	0.1	1928.5
23964	15.511	2.8182	0.1	1905.5
23965	15.234	2.7273	0.1	1974.5
23966	15.326	2.8182	0.1	1951.4
23967	15.049	2.7273	0.1	2020.6
23968	15.141	2.8182	0.1	1997.4
23969	14.865	2.7273	0.1	2067.
23970	14.957	2.8182	0.1	2043.6
23971	14.68	2.7273	0.1	2113.6
23972	14.772	2.8182	0.1	2090.1
23973	14.496	2.7273	0.1	2160.6
23974	14.588	2.8182	0.1	2136.9
23975	14.311	2.7273	0.1	2207.8
23976	14.403	2.8182	0.1	2184.
23977	14.126	2.7273	0.1	2255.5
23978	14.219	2.8182	0.1	2231.5
23979	13.942	2.7273	0.1	2303.6
23980	14.034	2.8182	0.1	2279.3
23981	13.757	2.7273	0.1	2352.3
23982	13.85	2.8182	0.1	2327.7
23983	13.573	2.7273	0.1	2401.6
23984	13.665	2.8182	0.1	2376.7
23985	13.388	2.7273	0.1	2451.7
23986	13.48	2.8182	0.1	2426.4
23987	13.204	2.7273	0.1	2502.8
23988	13.296	2.8182	0.1	2477.
23989	13.019	2.7273	0.1	2555.2
23990	13.111	2.8182	0.1	2528.7
23991	12.835	2.7273	0.1	2609.2
23992	12.927	2.8182	0.1	2581.9
23993	12.65	2.7273	0.1	2665.2
23994	12.742	2.8182	0.1	2636.9
23995	12.465	2.7273	0.1	2723.8
23996	12.558	2.8182	0.1	2694.2
23997	12.281	2.7273	0.1	2785.6
23998	12.373	2.8182	0.1	2754.3
23999	12.096	2.7273	0.1	2851.6
24000	12.189	2.8182	0.1	2818.3
24001	11.912	2.7273	0.1	2923.
24002	12.004	2.8182	0.1	2887.
24003	11.727	2.7273	0.1	3001.2
24004	11.82	2.8182	0.1	2961.8
24005	11.543	2.7273	0.1	3088.2
24006	11.635	2.8182	0.1	3044.5
24007	11.358	2.7273	0.1	3186.5
24008	11.45	2.8182	0.1	3137.3
24009	11.174	2.7273	0.1	3299.4
24010	11.266	2.8182	0.1	3243.
24011	10.989	2.7273	0.1	3431.1
24012	11.081	2.8182	0.1	3365.6
24013	10.804	2.7273	0.1	3587.
24014	10.897	2.8182	0.1	3509.7
24015	10.62	2.7273	0.1	3774.2
24016	10.712	2.8182	0.1	3681.7
24017	10.435	2.7273	0.1	4002.2
24018	10.528	2.8182	0.1	3889.8
24019	10.251	2.7273	0.1	4282.7
24020	10.343	2.8182	0.1	4144.5
24021	10.066	2.7273	0.1	4631.
24022	10.159	2.8182	0.1	4459.
24023	9.8817	2.7273	0.1	5065.2
24024	9.974	2.8182	0.1	4849.4
24025	9.6972	2.7273	0.1	5604.3
24026	9.7894	2.8182	0.1	5333.1
24027	9.5126	2.7273	0.1	6260.3
24028	9.6049	2.8182	0.1	5924.2
24029	9.328	2.7273	0.1	7016.6
24030	9.4203	2.8182	0.1	6620.3
24031	9.1435	2.7273	0.1	7786.9
24032	9.2358	2.8182	0.1	7375.7
24033	9.0512	2.8182	0.1	8064.7
24034	8.9589	2.7273	0.1	8391.
24035	23.723	2.9091	0.1	59.235
24036	23.815	3.	0.1	39.754
24037	23.908	2.9091	0.1	22.376
24038	23.539	2.9091	0.1	98.308
24039	23.631	3.	0.1	78.795
24040	23.354	2.9091	0.1	137.27
24041	23.446	3.	0.1	117.83
24042	23.17	2.9091	0.1	176.08
24043	23.262	3.	0.1	156.7
24044	22.985	2.9091	0.1	214.78
24045	23.077	3.	0.1	195.45
24046	22.8	2.9091	0.1	253.43
24047	22.893	3.	0.1	234.11
24048	22.616	2.9091	0.1	292.04
24049	22.708	3.	0.1	272.73
24050	22.431	2.9091	0.1	330.67
24051	22.524	3.	0.1	311.34
24052	22.247	2.9091	0.1	369.34
24053	22.339	3.	0.1	349.98
24054	22.062	2.9091	0.1	408.1
24055	22.154	3.	0.1	388.69
24056	21.878	2.9091	0.1	446.96
24057	21.97	3.	0.1	427.49
24058	21.693	2.9091	0.1	485.96
24059	21.785	3.	0.1	466.41
24060	21.509	2.9091	0.1	525.1
24061	21.601	3.	0.1	505.48
24062	21.324	2.9091	0.1	564.41
24063	21.416	3.	0.1	544.7
24064	21.139	2.9091	0.1	603.9
24065	21.232	3.	0.1	584.1
24066	20.955	2.9091	0.1	643.58
24067	21.047	3.	0.1	623.68
24068	20.77	2.9091	0.1	683.45
24069	20.863	3.	0.1	663.45
24070	20.586	2.9091	0.1	723.52
24071	20.678	3.	0.1	703.42
24072	20.401	2.9091	0.1	763.8
24073	20.493	3.	0.1	743.59
24074	20.217	2.9091	0.1	804.28
24075	20.309	3.	0.1	783.97
24076	20.032	2.9091	0.1	844.97
24077	20.124	3.	0.1	824.56
24078	19.848	2.9091	0.1	885.88
24079	19.94	3.	0.1	865.36
24080	19.663	2.9091	0.1	926.99
24081	19.755	3.	0.1	906.37
24082	19.478	2.9091	0.1	968.32
24083	19.571	3.	0.1	947.59
24084	19.294	2.9091	0.1	1009.9
24085	19.386	3.	0.1	989.01
24086	19.109	2.9091	0.1	1051.6
24087	19.202	3.	0.1	1030.7
24088	18.925	2.9091	0.1	1093.5
24089	19.017	3.	0.1	1072.5
24090	18.74	2.9091	0.1	1135.7
24091	18.833	3.	0.1	1114.6
24092	18.556	2.9091	0.1	1178.1
24093	18.648	3.	0.1	1156.8
24094	18.371	2.9091	0.1	1220.6
24095	18.463	3.	0.1	1199.3
24096	18.187	2.9091	0.1	1263.4
24097	18.279	3.	0.1	1242.
24098	18.002	2.9091	0.1	1306.4
24099	18.094	3.	0.1	1284.8
24100	17.817	2.9091	0.1	1349.5
24101	17.91	3.	0.1	1327.9
24102	17.633	2.9091	0.1	1392.9
24103	17.725	3.	0.1	1371.2
24104	17.448	2.9091	0.1	1436.5
24105	17.541	3.	0.1	1414.6
24106	17.264	2.9091	0.1	1480.2
24107	17.356	3.	0.1	1458.3
24108	17.079	2.9091	0.1	1524.2
24109	17.172	3.	0.1	1502.1
24110	16.895	2.9091	0.1	1568.3
24111	16.987	3.	0.1	1546.2
24112	16.71	2.9091	0.1	1612.7
24113	16.802	3.	0.1	1590.4
24114	16.526	2.9091	0.1	1657.2
24115	16.618	3.	0.1	1634.9
24116	16.341	2.9091	0.1	1701.9
24117	16.433	3.	0.1	1679.5
24118	16.157	2.9091	0.1	1746.8
24119	16.249	3.	0.1	1724.3
24120	15.972	2.9091	0.1	1791.9
24121	16.064	3.	0.1	1769.3
24122	15.787	2.9091	0.1	1837.2
24123	15.88	3.	0.1	1814.5
24124	15.603	2.9091	0.1	1882.7
24125	15.695	3.	0.1	1859.9
24126	15.418	2.9091	0.1	1928.4
24127	15.511	3.	0.1	1905.5
24128	15.234	2.9091	0.1	1974.3
24129	15.326	3.	0.1	1951.3
24130	15.049	2.9091	0.1	2020.4
24131	15.141	3.	0.1	1997.3
24132	14.865	2.9091	0.1	2066.8
24133	14.957	3.	0.1	2043.5
24134	14.68	2.9091	0.1	2113.4
24135	14.772	3.	0.1	2090.
24136	14.496	2.9091	0.1	2160.4
24137	14.588	3.	0.1	2136.8
24138	14.311	2.9091	0.1	2207.7
24139	14.403	3.	0.1	2183.9
24140	14.126	2.9091	0.1	2255.3
24141	14.219	3.	0.1	2231.4
24142	13.942	2.9091	0.1	2303.4
24143	14.034	3.	0.1	2279.3
24144	13.757	2.9091	0.1	2352.1
24145	13.85	3.	0.1	2327.6
24146	13.573	2.9091	0.1	2401.5
24147	13.665	3.	0.1	2376.6
24148	13.388	2.9091	0.1	2451.7
24149	13.48	3.	0.1	2426.3
24150	13.204	2.9091	0.1	2502.9
24151	13.296	3.	0.1	2477.
24152	13.019	2.9091	0.1	2555.4
24153	13.111	3.	0.1	2528.8
24154	12.835	2.9091	0.1	2609.6
24155	12.927	3.	0.1	2582.
24156	12.65	2.9091	0.1	2665.8
24157	12.742	3.	0.1	2637.1
24158	12.465	2.9091	0.1	2724.7
24159	12.558	3.	0.1	2694.5
24160	12.281	2.9091	0.1	2787.
24161	12.373	3.	0.1	2754.9
24162	12.096	2.9091	0.1	2853.6
24163	12.189	3.	0.1	2819.1
24164	11.912	2.9091	0.1	2925.8
24165	12.004	3.	0.1	2888.2
24166	11.727	2.9091	0.1	3005.1
24167	11.82	3.	0.1	2963.5
24168	11.543	2.9091	0.1	3093.6
24169	11.635	3.	0.1	3046.8
24170	11.358	2.9091	0.1	3193.8
24171	11.45	3.	0.1	3140.4
24172	11.174	2.9091	0.1	3309.2
24173	11.266	3.	0.1	3247.2
24174	10.989	2.9091	0.1	3444.2
24175	11.081	3.	0.1	3371.2
24176	10.804	2.9091	0.1	3604.6
24177	10.897	3.	0.1	3517.2
24178	10.62	2.9091	0.1	3797.5
24179	10.712	3.	0.1	3691.7
24180	10.435	2.9091	0.1	4032.7
24181	10.528	3.	0.1	3903.
24182	10.251	2.9091	0.1	4321.8
24183	10.343	3.	0.1	4161.7
24184	10.066	2.9091	0.1	4679.3
24185	10.159	3.	0.1	4480.8
24186	9.8817	2.9091	0.1	5120.7
24187	9.974	3.	0.1	4875.7
24188	9.6972	2.9091	0.1	5658.5
24189	9.7894	3.	0.1	5362.
24190	9.5126	2.9091	0.1	6292.3
24191	9.6049	3.	0.1	5949.3
24192	9.328	2.9091	0.1	6988.9
24193	9.4203	3.	0.1	6627.3
24194	9.1435	2.9091	0.1	7660.7
24195	9.2358	3.	0.1	7341.8
24196	9.0512	3.	0.1	7972.9
24197	8.9589	2.9091	0.1	8167.
24198	23.723	3.0909	0.1	59.235
24199	23.815	3.1818	0.1	39.759
24200	23.908	3.0909	0.1	22.376
24201	23.539	3.0909	0.1	98.308
24202	23.631	3.1818	0.1	78.789
24203	23.354	3.0909	0.1	137.27
24204	23.446	3.1818	0.1	117.81
24205	23.17	3.0909	0.1	176.08
24206	23.262	3.1818	0.1	156.67
24207	22.985	3.0909	0.1	214.78
24208	23.077	3.1818	0.1	195.41
24209	22.8	3.0909	0.1	253.43
24210	22.893	3.1818	0.1	234.07
24211	22.616	3.0909	0.1	292.04
24212	22.708	3.1818	0.1	272.68
24213	22.431	3.0909	0.1	330.67
24214	22.524	3.1818	0.1	311.29
24215	22.247	3.0909	0.1	369.34
24216	22.339	3.1818	0.1	349.93
24217	22.062	3.0909	0.1	408.1
24218	22.154	3.1818	0.1	388.63
24219	21.878	3.0909	0.1	446.96
24220	21.97	3.1818	0.1	427.44
24221	21.693	3.0909	0.1	485.96
24222	21.785	3.1818	0.1	466.36
24223	21.509	3.0909	0.1	525.1
24224	21.601	3.1818	0.1	505.43
24225	21.324	3.0909	0.1	564.41
24226	21.416	3.1818	0.1	544.66
24227	21.139	3.0909	0.1	603.9
24228	21.232	3.1818	0.1	584.06
24229	20.955	3.0909	0.1	643.58
24230	21.047	3.1818	0.1	623.65
24231	20.77	3.0909	0.1	683.45
24232	20.863	3.1818	0.1	663.42
24233	20.586	3.0909	0.1	723.52
24234	20.678	3.1818	0.1	703.4
24235	20.401	3.0909	0.1	763.8
24236	20.493	3.1818	0.1	743.58
24237	20.217	3.0909	0.1	804.28
24238	20.309	3.1818	0.1	783.96
24239	20.032	3.0909	0.1	844.97
24240	20.124	3.1818	0.1	824.56
24241	19.848	3.0909	0.1	885.88
24242	19.94	3.1818	0.1	865.36
24243	19.663	3.0909	0.1	926.99
24244	19.755	3.1818	0.1	906.37
24245	19.478	3.0909	0.1	968.32
24246	19.571	3.1818	0.1	947.6
24247	19.294	3.0909	0.1	1009.9
24248	19.386	3.1818	0.1	989.03
24249	19.109	3.0909	0.1	1051.6
24250	19.202	3.1818	0.1	1030.7
24251	18.925	3.0909	0.1	1093.5
24252	19.017	3.1818	0.1	1072.5
24253	18.74	3.0909	0.1	1135.7
24254	18.833	3.1818	0.1	1114.6
24255	18.556	3.0909	0.1	1178.1
24256	18.648	3.1818	0.1	1156.9
24257	18.371	3.0909	0.1	1220.6
24258	18.463	3.1818	0.1	1199.3
24259	18.187	3.0909	0.1	1263.4
24260	18.279	3.1818	0.1	1242.
24261	18.002	3.0909	0.1	1306.4
24262	18.094	3.1818	0.1	1284.9
24263	17.817	3.0909	0.1	1349.5
24264	17.91	3.1818	0.1	1327.9
24265	17.633	3.0909	0.1	1392.9
24266	17.725	3.1818	0.1	1371.2
24267	17.448	3.0909	0.1	1436.5
24268	17.541	3.1818	0.1	1414.7
24269	17.264	3.0909	0.1	1480.2
24270	17.356	3.1818	0.1	1458.3
24271	17.079	3.0909	0.1	1524.2
24272	17.172	3.1818	0.1	1502.2
24273	16.895	3.0909	0.1	1568.3
24274	16.987	3.1818	0.1	1546.2
24275	16.71	3.0909	0.1	1612.7
24276	16.802	3.1818	0.1	1590.5
24277	16.526	3.0909	0.1	1657.2
24278	16.618	3.1818	0.1	1634.9
24279	16.341	3.0909	0.1	1701.9
24280	16.433	3.1818	0.1	1679.5
24281	16.157	3.0909	0.1	1746.8
24282	16.249	3.1818	0.1	1724.4
24283	15.972	3.0909	0.1	1791.9
24284	16.064	3.1818	0.1	1769.4
24285	15.787	3.0909	0.1	1837.2
24286	15.88	3.1818	0.1	1814.6
24287	15.603	3.0909	0.1	1882.7
24288	15.695	3.1818	0.1	1860.
24289	15.418	3.0909	0.1	1928.4
24290	15.511	3.1818	0.1	1905.5
24291	15.234	3.0909	0.1	1974.3
24292	15.326	3.1818	0.1	1951.4
24293	15.049	3.0909	0.1	2020.4
24294	15.141	3.1818	0.1	1997.4
24295	14.865	3.0909	0.1	2066.8
24296	14.957	3.1818	0.1	2043.6
24297	14.68	3.0909	0.1	2113.4
24298	14.772	3.1818	0.1	2090.1
24299	14.496	3.0909	0.1	2160.4
24300	14.588	3.1818	0.1	2136.9
24301	14.311	3.0909	0.1	2207.7
24302	14.403	3.1818	0.1	2184.
24303	14.126	3.0909	0.1	2255.3
24304	14.219	3.1818	0.1	2231.5
24305	13.942	3.0909	0.1	2303.4
24306	14.034	3.1818	0.1	2279.3
24307	13.757	3.0909	0.1	2352.1
24308	13.85	3.1818	0.1	2327.7
24309	13.573	3.0909	0.1	2401.5
24310	13.665	3.1818	0.1	2376.7
24311	13.388	3.0909	0.1	2451.7
24312	13.48	3.1818	0.1	2426.4
24313	13.204	3.0909	0.1	2502.9
24314	13.296	3.1818	0.1	2477.
24315	13.019	3.0909	0.1	2555.4
24316	13.111	3.1818	0.1	2528.7
24317	12.835	3.0909	0.1	2609.6
24318	12.927	3.1818	0.1	2581.9
24319	12.65	3.0909	0.1	2665.8
24320	12.742	3.1818	0.1	2636.9
24321	12.465	3.0909	0.1	2724.7
24322	12.558	3.1818	0.1	2694.2
24323	12.281	3.0909	0.1	2787.
24324	12.373	3.1818	0.1	2754.3
24325	12.096	3.0909	0.1	2853.6
24326	12.189	3.1818	0.1	2818.3
24327	11.912	3.0909	0.1	2925.8
24328	12.004	3.1818	0.1	2887.
24329	11.727	3.0909	0.1	3005.1
24330	11.82	3.1818	0.1	2961.8
24331	11.543	3.0909	0.1	3093.6
24332	11.635	3.1818	0.1	3044.5
24333	11.358	3.0909	0.1	3193.8
24334	11.45	3.1818	0.1	3137.3
24335	11.174	3.0909	0.1	3309.2
24336	11.266	3.1818	0.1	3243.
24337	10.989	3.0909	0.1	3444.2
24338	11.081	3.1818	0.1	3365.6
24339	10.804	3.0909	0.1	3604.6
24340	10.897	3.1818	0.1	3509.7
24341	10.62	3.0909	0.1	3797.5
24342	10.712	3.1818	0.1	3681.7
24343	10.435	3.0909	0.1	4032.7
24344	10.528	3.1818	0.1	3889.8
24345	10.251	3.0909	0.1	4321.8
24346	10.343	3.1818	0.1	4144.5
24347	10.066	3.0909	0.1	4679.3
24348	10.159	3.1818	0.1	4459.
24349	9.8817	3.0909	0.1	5120.7
24350	9.974	3.1818	0.1	4849.4
24351	9.6972	3.0909	0.1	5658.5
24352	9.7894	3.1818	0.1	5333.1
24353	9.5126	3.0909	0.1	6292.3
24354	9.6049	3.1818	0.1	5924.2
24355	9.328	3.0909	0.1	6988.9
24356	9.4203	3.1818	0.1	6620.3
24357	9.1435	3.0909	0.1	7660.7
24358	9.2358	3.1818	0.1	7375.7
24359	9.0512	3.1818	0.1	8064.7
24360	8.9589	3.0909	0.1	8167.
24361	23.723	3.2727	0.1	59.233
24362	23.815	3.3636	0.1	39.772
24363	23.908	3.2727	0.1	22.383
24364	23.539	3.2727	0.1	98.286
24365	23.631	3.3636	0.1	78.771
24366	23.354	3.2727	0.1	137.22
24367	23.446	3.3636	0.1	117.77
24368	23.17	3.2727	0.1	176.02
24369	23.262	3.3636	0.1	156.59
24370	22.985	3.2727	0.1	214.71
24371	23.077	3.3636	0.1	195.31
24372	22.8	3.2727	0.1	253.34
24373	22.893	3.3636	0.1	233.94
24374	22.616	3.2727	0.1	291.94
24375	22.708	3.3636	0.1	272.53
24376	22.431	3.2727	0.1	330.56
24377	22.524	3.3636	0.1	311.13
24378	22.247	3.2727	0.1	369.24
24379	22.339	3.3636	0.1	349.77
24380	22.062	3.2727	0.1	407.99
24381	22.154	3.3636	0.1	388.47
24382	21.878	3.2727	0.1	446.86
24383	21.97	3.3636	0.1	427.28
24384	21.693	3.2727	0.1	485.86
24385	21.785	3.3636	0.1	466.22
24386	21.509	3.2727	0.1	525.02
24387	21.601	3.3636	0.1	505.3
24388	21.324	3.2727	0.1	564.34
24389	21.416	3.3636	0.1	544.54
24390	21.139	3.2727	0.1	603.84
24391	21.232	3.3636	0.1	583.96
24392	20.955	3.2727	0.1	643.52
24393	21.047	3.3636	0.1	623.56
24394	20.77	3.2727	0.1	683.41
24395	20.863	3.3636	0.1	663.35
24396	20.586	3.2727	0.1	723.49
24397	20.678	3.3636	0.1	703.35
24398	20.401	3.2727	0.1	763.78
24399	20.493	3.3636	0.1	743.54
24400	20.217	3.2727	0.1	804.27
24401	20.309	3.3636	0.1	783.94
24402	20.032	3.2727	0.1	844.98
24403	20.124	3.3636	0.1	824.55
24404	19.848	3.2727	0.1	885.89
24405	19.94	3.3636	0.1	865.37
24406	19.663	3.2727	0.1	927.01
24407	19.755	3.3636	0.1	906.4
24408	19.478	3.2727	0.1	968.35
24409	19.571	3.3636	0.1	947.64
24410	19.294	3.2727	0.1	1009.9
24411	19.386	3.3636	0.1	989.08
24412	19.109	3.2727	0.1	1051.6
24413	19.202	3.3636	0.1	1030.7
24414	18.925	3.2727	0.1	1093.6
24415	19.017	3.3636	0.1	1072.6
24416	18.74	3.2727	0.1	1135.8
24417	18.833	3.3636	0.1	1114.7
24418	18.556	3.2727	0.1	1178.1
24419	18.648	3.3636	0.1	1156.9
24420	18.371	3.2727	0.1	1220.7
24421	18.463	3.3636	0.1	1199.4
24422	18.187	3.2727	0.1	1263.5
24423	18.279	3.3636	0.1	1242.1
24424	18.002	3.2727	0.1	1306.5
24425	18.094	3.3636	0.1	1285.
24426	17.817	3.2727	0.1	1349.6
24427	17.91	3.3636	0.1	1328.1
24428	17.633	3.2727	0.1	1393.
24429	17.725	3.3636	0.1	1371.4
24430	17.448	3.2727	0.1	1436.6
24431	17.541	3.3636	0.1	1414.8
24432	17.264	3.2727	0.1	1480.3
24433	17.356	3.3636	0.1	1458.5
24434	17.079	3.2727	0.1	1524.3
24435	17.172	3.3636	0.1	1502.4
24436	16.895	3.2727	0.1	1568.4
24437	16.987	3.3636	0.1	1546.4
24438	16.71	3.2727	0.1	1612.8
24439	16.802	3.3636	0.1	1590.7
24440	16.526	3.2727	0.1	1657.3
24441	16.618	3.3636	0.1	1635.1
24442	16.341	3.2727	0.1	1702.
24443	16.433	3.3636	0.1	1679.7
24444	16.157	3.2727	0.1	1746.9
24445	16.249	3.3636	0.1	1724.6
24446	15.972	3.2727	0.1	1792.
24447	16.064	3.3636	0.1	1769.6
24448	15.787	3.2727	0.1	1837.3
24449	15.88	3.3636	0.1	1814.8
24450	15.603	3.2727	0.1	1882.8
24451	15.695	3.3636	0.1	1860.2
24452	15.418	3.2727	0.1	1928.5
24453	15.511	3.3636	0.1	1905.8
24454	15.234	3.2727	0.1	1974.5
24455	15.326	3.3636	0.1	1951.6
24456	15.049	3.2727	0.1	2020.6
24457	15.141	3.3636	0.1	1997.6
24458	14.865	3.2727	0.1	2067.
24459	14.957	3.3636	0.1	2043.9
24460	14.68	3.2727	0.1	2113.6
24461	14.772	3.3636	0.1	2090.4
24462	14.496	3.2727	0.1	2160.6
24463	14.588	3.3636	0.1	2137.2
24464	14.311	3.2727	0.1	2207.8
24465	14.403	3.3636	0.1	2184.3
24466	14.126	3.2727	0.1	2255.5
24467	14.219	3.3636	0.1	2231.7
24468	13.942	3.2727	0.1	2303.6
24469	14.034	3.3636	0.1	2279.6
24470	13.757	3.2727	0.1	2352.3
24471	13.85	3.3636	0.1	2327.9
24472	13.573	3.2727	0.1	2401.6
24473	13.665	3.3636	0.1	2376.8
24474	13.388	3.2727	0.1	2451.7
24475	13.48	3.3636	0.1	2426.5
24476	13.204	3.2727	0.1	2502.8
24477	13.296	3.3636	0.1	2477.
24478	13.019	3.2727	0.1	2555.2
24479	13.111	3.3636	0.1	2528.5
24480	12.835	3.2727	0.1	2609.2
24481	12.927	3.3636	0.1	2581.5
24482	12.65	3.2727	0.1	2665.2
24483	12.742	3.3636	0.1	2636.2
24484	12.465	3.2727	0.1	2723.8
24485	12.558	3.3636	0.1	2693.
24486	12.281	3.2727	0.1	2785.6
24487	12.373	3.3636	0.1	2752.6
24488	12.096	3.2727	0.1	2851.6
24489	12.189	3.3636	0.1	2815.8
24490	11.912	3.2727	0.1	2923.
24491	12.004	3.3636	0.1	2883.5
24492	11.727	3.2727	0.1	3001.2
24493	11.82	3.3636	0.1	2956.9
24494	11.543	3.2727	0.1	3088.2
24495	11.635	3.3636	0.1	3037.8
24496	11.358	3.2727	0.1	3186.5
24497	11.45	3.3636	0.1	3128.1
24498	11.174	3.2727	0.1	3299.4
24499	11.266	3.3636	0.1	3230.7
24500	10.989	3.2727	0.1	3431.1
24501	11.081	3.3636	0.1	3348.9
24502	10.804	3.2727	0.1	3587.
24503	10.897	3.3636	0.1	3487.5
24504	10.62	3.2727	0.1	3774.2
24505	10.712	3.3636	0.1	3652.2
24506	10.435	3.2727	0.1	4002.2
24507	10.528	3.3636	0.1	3850.9
24508	10.251	3.2727	0.1	4282.7
24509	10.343	3.3636	0.1	4093.8
24510	10.066	3.2727	0.1	4631.
24511	10.159	3.3636	0.1	4394.4
24512	9.8817	3.2727	0.1	5065.2
24513	9.974	3.3636	0.1	4770.2
24514	9.6972	3.2727	0.1	5604.3
24515	9.7894	3.3636	0.1	5243.5
24516	9.5126	3.2727	0.1	6260.3
24517	9.6049	3.3636	0.1	5840.4
24518	9.328	3.2727	0.1	7016.6
24519	9.4203	3.3636	0.1	6583.1
24520	9.1435	3.2727	0.1	7786.9
24521	9.2358	3.3636	0.1	7462.2
24522	9.0512	3.3636	0.1	8348.4
24523	8.9589	3.2727	0.1	8391.
24524	23.723	3.4545	0.1	59.23
24525	23.815	3.5455	0.1	39.793
24526	23.908	3.4545	0.1	22.397
24527	23.539	3.4545	0.1	98.241
24528	23.631	3.5455	0.1	78.738
24529	23.354	3.4545	0.1	137.14
24530	23.446	3.5455	0.1	117.68
24531	23.17	3.4545	0.1	175.9
24532	23.262	3.5455	0.1	156.46
24533	22.985	3.4545	0.1	214.55
24534	23.077	3.5455	0.1	195.13
24535	22.8	3.4545	0.1	253.15
24536	22.893	3.5455	0.1	233.73
24537	22.616	3.4545	0.1	291.74
24538	22.708	3.5455	0.1	272.29
24539	22.431	3.4545	0.1	330.35
24540	22.524	3.5455	0.1	310.87
24541	22.247	3.4545	0.1	369.02
24542	22.339	3.5455	0.1	349.5
24543	22.062	3.4545	0.1	407.78
24544	22.154	3.5455	0.1	388.21
24545	21.878	3.4545	0.1	446.66
24546	21.97	3.5455	0.1	427.03
24547	21.693	3.4545	0.1	485.68
24548	21.785	3.5455	0.1	465.98
24549	21.509	3.4545	0.1	524.85
24550	21.601	3.5455	0.1	505.08
24551	21.324	3.4545	0.1	564.19
24552	21.416	3.5455	0.1	544.34
24553	21.139	3.4545	0.1	603.71
24554	21.232	3.5455	0.1	583.79
24555	20.955	3.4545	0.1	643.42
24556	21.047	3.5455	0.1	623.42
24557	20.77	3.4545	0.1	683.32
24558	20.863	3.5455	0.1	663.24
24559	20.586	3.4545	0.1	723.43
24560	20.678	3.5455	0.1	703.26
24561	20.401	3.4545	0.1	763.74
24562	20.493	3.5455	0.1	743.49
24563	20.217	3.4545	0.1	804.26
24564	20.309	3.5455	0.1	783.92
24565	20.032	3.4545	0.1	844.98
24566	20.124	3.5455	0.1	824.55
24567	19.848	3.4545	0.1	885.92
24568	19.94	3.5455	0.1	865.4
24569	19.663	3.4545	0.1	927.06
24570	19.755	3.5455	0.1	906.45
24571	19.478	3.4545	0.1	968.41
24572	19.571	3.5455	0.1	947.71
24573	19.294	3.4545	0.1	1010.
24574	19.386	3.5455	0.1	989.18
24575	19.109	3.4545	0.1	1051.7
24576	19.202	3.5455	0.1	1030.9
24577	18.925	3.4545	0.1	1093.7
24578	19.017	3.5455	0.1	1072.7
24579	18.74	3.4545	0.1	1135.9
24580	18.833	3.5455	0.1	1114.8
24581	18.556	3.4545	0.1	1178.3
24582	18.648	3.5455	0.1	1157.1
24583	18.371	3.4545	0.1	1220.9
24584	18.463	3.5455	0.1	1199.6
24585	18.187	3.4545	0.1	1263.6
24586	18.279	3.5455	0.1	1242.3
24587	18.002	3.4545	0.1	1306.6
24588	18.094	3.5455	0.1	1285.2
24589	17.817	3.4545	0.1	1349.8
24590	17.91	3.5455	0.1	1328.3
24591	17.633	3.4545	0.1	1393.2
24592	17.725	3.5455	0.1	1371.6
24593	17.448	3.4545	0.1	1436.8
24594	17.541	3.5455	0.1	1415.1
24595	17.264	3.4545	0.1	1480.6
24596	17.356	3.5455	0.1	1458.8
24597	17.079	3.4545	0.1	1524.5
24598	17.172	3.5455	0.1	1502.6
24599	16.895	3.4545	0.1	1568.7
24600	16.987	3.5455	0.1	1546.7
24601	16.71	3.4545	0.1	1613.
24602	16.802	3.5455	0.1	1591.
24603	16.526	3.4545	0.1	1657.6
24604	16.618	3.5455	0.1	1635.4
24605	16.341	3.4545	0.1	1702.3
24606	16.433	3.5455	0.1	1680.1
24607	16.157	3.4545	0.1	1747.2
24608	16.249	3.5455	0.1	1724.9
24609	15.972	3.4545	0.1	1792.4
24610	16.064	3.5455	0.1	1770.
24611	15.787	3.4545	0.1	1837.7
24612	15.88	3.5455	0.1	1815.2
24613	15.603	3.4545	0.1	1883.2
24614	15.695	3.5455	0.1	1860.6
24615	15.418	3.4545	0.1	1928.9
24616	15.511	3.5455	0.1	1906.2
24617	15.234	3.4545	0.1	1974.8
24618	15.326	3.5455	0.1	1952.1
24619	15.049	3.4545	0.1	2021.
24620	15.141	3.5455	0.1	1998.1
24621	14.865	3.4545	0.1	2067.4
24622	14.957	3.5455	0.1	2044.4
24623	14.68	3.4545	0.1	2114.
24624	14.772	3.5455	0.1	2090.9
24625	14.496	3.4545	0.1	2161.
24626	14.588	3.5455	0.1	2137.7
24627	14.311	3.4545	0.1	2208.2
24628	14.403	3.5455	0.1	2184.8
24629	14.126	3.4545	0.1	2255.9
24630	14.219	3.5455	0.1	2232.2
24631	13.942	3.4545	0.1	2303.9
24632	14.034	3.5455	0.1	2280.
24633	13.757	3.4545	0.1	2352.5
24634	13.85	3.5455	0.1	2328.3
24635	13.573	3.4545	0.1	2401.7
24636	13.665	3.5455	0.1	2377.1
24637	13.388	3.4545	0.1	2451.7
24638	13.48	3.5455	0.1	2426.6
24639	13.204	3.4545	0.1	2502.7
24640	13.296	3.5455	0.1	2476.9
24641	13.019	3.4545	0.1	2554.8
24642	13.111	3.5455	0.1	2528.3
24643	12.835	3.4545	0.1	2608.5
24644	12.927	3.5455	0.1	2580.8
24645	12.65	3.4545	0.1	2664.
24646	12.742	3.5455	0.1	2635.
24647	12.465	3.4545	0.1	2721.9
24648	12.558	3.5455	0.1	2691.2
24649	12.281	3.4545	0.1	2782.8
24650	12.373	3.5455	0.1	2749.9
24651	12.096	3.4545	0.1	2847.7
24652	12.189	3.5455	0.1	2811.8
24653	11.912	3.4545	0.1	2917.4
24654	12.004	3.5455	0.1	2877.8
24655	11.727	3.4545	0.1	2993.5
24656	11.82	3.5455	0.1	2949.
24657	11.543	3.4545	0.1	3077.7
24658	11.635	3.5455	0.1	3027.
24659	11.358	3.4545	0.1	3172.3
24660	11.45	3.5455	0.1	3113.4
24661	11.174	3.4545	0.1	3280.3
24662	11.266	3.5455	0.1	3210.8
24663	10.989	3.4545	0.1	3405.4
24664	11.081	3.5455	0.1	3322.2
24665	10.804	3.4545	0.1	3552.8
24666	10.897	3.5455	0.1	3451.8
24667	10.62	3.4545	0.1	3729.
24668	10.712	3.5455	0.1	3604.8
24669	10.435	3.4545	0.1	3942.8
24670	10.528	3.5455	0.1	3788.5
24671	10.251	3.4545	0.1	4206.2
24672	10.343	3.5455	0.1	4012.3
24673	10.066	3.4545	0.1	4534.9
24674	10.159	3.5455	0.1	4289.5
24675	9.8817	3.4545	0.1	4951.1
24676	9.974	3.5455	0.1	4638.9
24677	9.6972	3.4545	0.1	5484.5
24678	9.7894	3.5455	0.1	5087.7
24679	9.5126	3.4545	0.1	6171.6
24680	9.6049	3.5455	0.1	5676.4
24681	9.328	3.4545	0.1	7040.6
24682	9.4203	3.5455	0.1	6465.6
24683	9.1435	3.4545	0.1	8032.9
24684	9.2358	3.5455	0.1	7531.1
24685	9.0512	3.5455	0.1	8865.
24686	8.9589	3.4545	0.1	8891.1
24687	23.723	3.6364	0.1	59.223
24688	23.815	3.7273	0.1	39.822
24689	23.908	3.6364	0.1	22.416
24690	23.539	3.6364	0.1	98.17
24691	23.631	3.7273	0.1	78.688
24692	23.354	3.6364	0.1	137.01
24693	23.446	3.7273	0.1	117.56
24694	23.17	3.6364	0.1	175.71
24695	23.262	3.7273	0.1	156.27
24696	22.985	3.6364	0.1	214.32
24697	23.077	3.7273	0.1	194.87
24698	22.8	3.6364	0.1	252.88
24699	22.893	3.7273	0.1	233.42
24700	22.616	3.6364	0.1	291.44
24701	22.708	3.7273	0.1	271.95
24702	22.431	3.6364	0.1	330.03
24703	22.524	3.7273	0.1	310.5
24704	22.247	3.6364	0.1	368.7
24705	22.339	3.7273	0.1	349.12
24706	22.062	3.6364	0.1	407.47
24707	22.154	3.7273	0.1	387.83
24708	21.878	3.6364	0.1	446.36
24709	21.97	3.7273	0.1	426.67
24710	21.693	3.6364	0.1	485.4
24711	21.785	3.7273	0.1	465.64
24712	21.509	3.6364	0.1	524.6
24713	21.601	3.7273	0.1	504.78
24714	21.324	3.6364	0.1	563.97
24715	21.416	3.7273	0.1	544.08
24716	21.139	3.6364	0.1	603.53
24717	21.232	3.7273	0.1	583.56
24718	20.955	3.6364	0.1	643.27
24719	21.047	3.7273	0.1	623.23
24720	20.77	3.6364	0.1	683.21
24721	20.863	3.7273	0.1	663.09
24722	20.586	3.6364	0.1	723.35
24723	20.678	3.7273	0.1	703.16
24724	20.401	3.6364	0.1	763.69
24725	20.493	3.7273	0.1	743.42
24726	20.217	3.6364	0.1	804.24
24727	20.309	3.7273	0.1	783.89
24728	20.032	3.6364	0.1	845.
24729	20.124	3.7273	0.1	824.56
24730	19.848	3.6364	0.1	885.96
24731	19.94	3.7273	0.1	865.44
24732	19.663	3.6364	0.1	927.13
24733	19.755	3.7273	0.1	906.52
24734	19.478	3.6364	0.1	968.51
24735	19.571	3.7273	0.1	947.81
24736	19.294	3.6364	0.1	1010.1
24737	19.386	3.7273	0.1	989.31
24738	19.109	3.6364	0.1	1051.9
24739	19.202	3.7273	0.1	1031.
24740	18.925	3.6364	0.1	1093.9
24741	19.017	3.7273	0.1	1072.9
24742	18.74	3.6364	0.1	1136.1
24743	18.833	3.7273	0.1	1115.
24744	18.556	3.6364	0.1	1178.5
24745	18.648	3.7273	0.1	1157.3
24746	18.371	3.6364	0.1	1221.1
24747	18.463	3.7273	0.1	1199.9
24748	18.187	3.6364	0.1	1263.9
24749	18.279	3.7273	0.1	1242.6
24750	18.002	3.6364	0.1	1306.9
24751	18.094	3.7273	0.1	1285.5
24752	17.817	3.6364	0.1	1350.1
24753	17.91	3.7273	0.1	1328.6
24754	17.633	3.6364	0.1	1393.5
24755	17.725	3.7273	0.1	1371.9
24756	17.448	3.6364	0.1	1437.1
24757	17.541	3.7273	0.1	1415.4
24758	17.264	3.6364	0.1	1480.9
24759	17.356	3.7273	0.1	1459.1
24760	17.079	3.6364	0.1	1524.9
24761	17.172	3.7273	0.1	1503.
24762	16.895	3.6364	0.1	1569.
24763	16.987	3.7273	0.1	1547.1
24764	16.71	3.6364	0.1	1613.4
24765	16.802	3.7273	0.1	1591.4
24766	16.526	3.6364	0.1	1658.
24767	16.618	3.7273	0.1	1635.9
24768	16.341	3.6364	0.1	1702.7
24769	16.433	3.7273	0.1	1680.6
24770	16.157	3.6364	0.1	1747.7
24771	16.249	3.7273	0.1	1725.4
24772	15.972	3.6364	0.1	1792.8
24773	16.064	3.7273	0.1	1770.5
24774	15.787	3.6364	0.1	1838.1
24775	15.88	3.7273	0.1	1815.7
24776	15.603	3.6364	0.1	1883.7
24777	15.695	3.7273	0.1	1861.2
24778	15.418	3.6364	0.1	1929.4
24779	15.511	3.7273	0.1	1906.8
24780	15.234	3.6364	0.1	1975.4
24781	15.326	3.7273	0.1	1952.7
24782	15.049	3.6364	0.1	2021.5
24783	15.141	3.7273	0.1	1998.7
24784	14.865	3.6364	0.1	2067.9
24785	14.957	3.7273	0.1	2045.
24786	14.68	3.6364	0.1	2114.6
24787	14.772	3.7273	0.1	2091.6
24788	14.496	3.6364	0.1	2161.5
24789	14.588	3.7273	0.1	2138.4
24790	14.311	3.6364	0.1	2208.8
24791	14.403	3.7273	0.1	2185.4
24792	14.126	3.6364	0.1	2256.4
24793	14.219	3.7273	0.1	2232.8
24794	13.942	3.6364	0.1	2304.4
24795	14.034	3.7273	0.1	2280.6
24796	13.757	3.6364	0.1	2352.9
24797	13.85	3.7273	0.1	2328.8
24798	13.573	3.6364	0.1	2402.
24799	13.665	3.7273	0.1	2377.5
24800	13.388	3.6364	0.1	2451.8
24801	13.48	3.7273	0.1	2426.8
24802	13.204	3.6364	0.1	2502.5
24803	13.296	3.7273	0.1	2476.9
24804	13.019	3.6364	0.1	2554.3
24805	13.111	3.7273	0.1	2527.8
24806	12.835	3.6364	0.1	2607.4
24807	12.927	3.7273	0.1	2579.9
24808	12.65	3.6364	0.1	2662.2
24809	12.742	3.7273	0.1	2633.4
24810	12.465	3.6364	0.1	2719.1
24811	12.558	3.7273	0.1	2688.7
24812	12.281	3.6364	0.1	2778.8
24813	12.373	3.7273	0.1	2746.1
24814	12.096	3.6364	0.1	2841.9
24815	12.189	3.7273	0.1	2806.4
24816	11.912	3.6364	0.1	2909.4
24817	12.004	3.7273	0.1	2870.1
24818	11.727	3.6364	0.1	2982.5
24819	11.82	3.7273	0.1	2938.4
24820	11.543	3.6364	0.1	3062.6
24821	11.635	3.7273	0.1	3012.4
24822	11.358	3.6364	0.1	3151.9
24823	11.45	3.7273	0.1	3093.7
24824	11.174	3.6364	0.1	3252.7
24825	11.266	3.7273	0.1	3184.2
24826	10.989	3.6364	0.1	3368.6
24827	11.081	3.7273	0.1	3286.7
24828	10.804	3.6364	0.1	3503.9
24829	10.897	3.7273	0.1	3404.5
24830	10.62	3.6364	0.1	3664.3
24831	10.712	3.7273	0.1	3542.2
24832	10.435	3.6364	0.1	3857.9
24833	10.528	3.7273	0.1	3705.9
24834	10.251	3.6364	0.1	4095.8
24835	10.343	3.7273	0.1	3904.2
24836	10.066	3.6364	0.1	4394.
24837	10.159	3.7273	0.1	4149.3
24838	9.8817	3.6364	0.1	4776.7
24839	9.974	3.7273	0.1	4459.4
24840	9.6972	3.6364	0.1	5282.8
24841	9.7894	3.7273	0.1	4863.8
24842	9.5126	3.6364	0.1	5978.1
24843	9.6049	3.7273	0.1	5411.4
24844	9.328	3.6364	0.1	6971.9
24845	9.4203	3.7273	0.1	6194.9
24846	9.1435	3.6364	0.1	8380.6
24847	9.2358	3.7273	0.1	7408.7
24848	9.0512	3.7273	0.1	9433.9
24849	8.9589	3.6364	0.1	9824.3
24850	23.723	3.8182	0.1	59.21
24851	23.815	3.9091	0.1	39.854
24852	23.908	3.8182	0.1	22.441
24853	23.539	3.8182	0.1	98.068
24854	23.631	3.9091	0.1	78.616
24855	23.354	3.8182	0.1	136.82
24856	23.446	3.9091	0.1	117.39
24857	23.17	3.8182	0.1	175.44
24858	23.262	3.9091	0.1	156.
24859	22.985	3.8182	0.1	213.99
24860	23.077	3.9091	0.1	194.53
24861	22.8	3.8182	0.1	252.5
24862	22.893	3.9091	0.1	233.01
24863	22.616	3.8182	0.1	291.03
24864	22.708	3.9091	0.1	271.49
24865	22.431	3.8182	0.1	329.61
24866	22.524	3.9091	0.1	310.02
24867	22.247	3.8182	0.1	368.28
24868	22.339	3.9091	0.1	348.64
24869	22.062	3.8182	0.1	407.06
24870	22.154	3.9091	0.1	387.36
24871	21.878	3.8182	0.1	445.97
24872	21.97	3.9091	0.1	426.22
24873	21.693	3.8182	0.1	485.04
24874	21.785	3.9091	0.1	465.23
24875	21.509	3.8182	0.1	524.28
24876	21.601	3.9091	0.1	504.4
24877	21.324	3.8182	0.1	563.7
24878	21.416	3.9091	0.1	543.75
24879	21.139	3.8182	0.1	603.29
24880	21.232	3.9091	0.1	583.28
24881	20.955	3.8182	0.1	643.08
24882	21.047	3.9091	0.1	623.01
24883	20.77	3.8182	0.1	683.07
24884	20.863	3.9091	0.1	662.92
24885	20.586	3.8182	0.1	723.26
24886	20.678	3.9091	0.1	703.04
24887	20.401	3.8182	0.1	763.64
24888	20.493	3.9091	0.1	743.35
24889	20.217	3.8182	0.1	804.24
24890	20.309	3.9091	0.1	783.87
24891	20.032	3.8182	0.1	845.03
24892	20.124	3.9091	0.1	824.58
24893	19.848	3.8182	0.1	886.03
24894	19.94	3.9091	0.1	865.51
24895	19.663	3.8182	0.1	927.24
24896	19.755	3.9091	0.1	906.63
24897	19.478	3.8182	0.1	968.65
24898	19.571	3.9091	0.1	947.96
24899	19.294	3.8182	0.1	1010.3
24900	19.386	3.9091	0.1	989.49
24901	19.109	3.8182	0.1	1052.1
24902	19.202	3.9091	0.1	1031.2
24903	18.925	3.8182	0.1	1094.1
24904	19.017	3.9091	0.1	1073.2
24905	18.74	3.8182	0.1	1136.3
24906	18.833	3.9091	0.1	1115.3
24907	18.556	3.8182	0.1	1178.8
24908	18.648	3.9091	0.1	1157.7
24909	18.371	3.8182	0.1	1221.4
24910	18.463	3.9091	0.1	1200.2
24911	18.187	3.8182	0.1	1264.2
24912	18.279	3.9091	0.1	1242.9
24913	18.002	3.8182	0.1	1307.2
24914	18.094	3.9091	0.1	1285.9
24915	17.817	3.8182	0.1	1350.5
24916	17.91	3.9091	0.1	1329.
24917	17.633	3.8182	0.1	1393.9
24918	17.725	3.9091	0.1	1372.4
24919	17.448	3.8182	0.1	1437.5
24920	17.541	3.9091	0.1	1415.9
24921	17.264	3.8182	0.1	1481.3
24922	17.356	3.9091	0.1	1459.6
24923	17.079	3.8182	0.1	1525.3
24924	17.172	3.9091	0.1	1503.6
24925	16.895	3.8182	0.1	1569.5
24926	16.987	3.9091	0.1	1547.7
24927	16.71	3.8182	0.1	1613.9
24928	16.802	3.9091	0.1	1592.
24929	16.526	3.8182	0.1	1658.5
24930	16.618	3.9091	0.1	1636.5
24931	16.341	3.8182	0.1	1703.3
24932	16.433	3.9091	0.1	1681.2
24933	16.157	3.8182	0.1	1748.3
24934	16.249	3.9091	0.1	1726.1
24935	15.972	3.8182	0.1	1793.4
24936	16.064	3.9091	0.1	1771.1
24937	15.787	3.8182	0.1	1838.8
24938	15.88	3.9091	0.1	1816.4
24939	15.603	3.8182	0.1	1884.3
24940	15.695	3.9091	0.1	1861.9
24941	15.418	3.8182	0.1	1930.1
24942	15.511	3.9091	0.1	1907.6
24943	15.234	3.8182	0.1	1976.1
24944	15.326	3.9091	0.1	1953.5
24945	15.049	3.8182	0.1	2022.3
24946	15.141	3.9091	0.1	1999.5
24947	14.865	3.8182	0.1	2068.7
24948	14.957	3.9091	0.1	2045.9
24949	14.68	3.8182	0.1	2115.3
24950	14.772	3.9091	0.1	2092.4
24951	14.496	3.8182	0.1	2162.3
24952	14.588	3.9091	0.1	2139.2
24953	14.311	3.8182	0.1	2209.5
24954	14.403	3.9091	0.1	2186.3
24955	14.126	3.8182	0.1	2257.1
24956	14.219	3.9091	0.1	2233.6
24957	13.942	3.8182	0.1	2305.
24958	14.034	3.9091	0.1	2281.4
24959	13.757	3.8182	0.1	2353.4
24960	13.85	3.9091	0.1	2329.5
24961	13.573	3.8182	0.1	2402.4
24962	13.665	3.9091	0.1	2378.
24963	13.388	3.8182	0.1	2451.9
24964	13.48	3.9091	0.1	2427.1
24965	13.204	3.8182	0.1	2502.2
24966	13.296	3.9091	0.1	2476.8
24967	13.019	3.8182	0.1	2553.5
24968	13.111	3.9091	0.1	2527.4
24969	12.835	3.8182	0.1	2606.
24970	12.927	3.9091	0.1	2578.8
24971	12.65	3.8182	0.1	2659.9
24972	12.742	3.9091	0.1	2631.5
24973	12.465	3.8182	0.1	2715.6
24974	12.558	3.9091	0.1	2685.6
24975	12.281	3.8182	0.1	2773.7
24976	12.373	3.9091	0.1	2741.5
24977	12.096	3.8182	0.1	2834.6
24978	12.189	3.9091	0.1	2799.7
24979	11.912	3.8182	0.1	2899.2
24980	12.004	3.9091	0.1	2860.8
24981	11.727	3.8182	0.1	2968.4
24982	11.82	3.9091	0.1	2925.5
24983	11.543	3.8182	0.1	3043.5
24984	11.635	3.9091	0.1	2994.7
24985	11.358	3.8182	0.1	3126.
24986	11.45	3.9091	0.1	3069.8
24987	11.174	3.8182	0.1	3218.1
24988	11.266	3.9091	0.1	3152.1
24989	10.989	3.8182	0.1	3322.5
24990	11.081	3.9091	0.1	3243.9
24991	10.804	3.8182	0.1	3442.7
24992	10.897	3.9091	0.1	3347.7
24993	10.62	3.8182	0.1	3583.6
24994	10.712	3.9091	0.1	3467.2
24995	10.435	3.8182	0.1	3751.9
24996	10.528	3.9091	0.1	3607.4
24997	10.251	3.8182	0.1	3957.3
24998	10.343	3.9091	0.1	3775.1
24999	10.066	3.8182	0.1	4214.3
25000	10.159	3.9091	0.1	3980.7
25001	9.8817	3.8182	0.1	4546.2
25002	9.974	3.9091	0.1	4240.2
25003	9.6972	3.8182	0.1	4993.1
25004	9.7894	3.9091	0.1	4579.6
25005	9.5126	3.8182	0.1	5632.6
25006	9.6049	3.9091	0.1	5045.4
25007	9.328	3.8182	0.1	6648.2
25008	9.4203	3.9091	0.1	5734.1
25009	9.1435	3.8182	0.1	8505.1
25010	9.2358	3.9091	0.1	6858.9
25011	9.0512	3.9091	0.1	9497.
25012	8.9589	3.8182	0.1	11384
25013	23.723	4.	0.1	59.186
25014	23.815	4.0909	0.1	39.889
25015	23.908	4.	0.1	22.47
25016	23.539	4.	0.1	97.927
25017	23.631	4.0909	0.1	78.514
25018	23.354	4.	0.1	136.57
25019	23.446	4.0909	0.1	117.16
25020	23.17	4.	0.1	175.1
25021	23.262	4.0909	0.1	155.66
25022	22.985	4.	0.1	213.56
25023	23.077	4.0909	0.1	194.08
25024	22.8	4.	0.1	252.02
25025	22.893	4.0909	0.1	232.49
25026	22.616	4.	0.1	290.51
25027	22.708	4.0909	0.1	270.92
25028	22.431	4.	0.1	329.07
25029	22.524	4.0909	0.1	309.43
25030	22.247	4.	0.1	367.75
25031	22.339	4.0909	0.1	348.05
25032	22.062	4.	0.1	406.55
25033	22.154	4.0909	0.1	386.79
25034	21.878	4.	0.1	445.5
25035	21.97	4.0909	0.1	425.68
25036	21.693	4.	0.1	484.61
25037	21.785	4.0909	0.1	464.74
25038	21.509	4.	0.1	523.9
25039	21.601	4.0909	0.1	503.97
25040	21.324	4.	0.1	563.37
25041	21.416	4.0909	0.1	543.38
25042	21.139	4.	0.1	603.03
25043	21.232	4.0909	0.1	582.98
25044	20.955	4.	0.1	642.88
25045	21.047	4.0909	0.1	622.76
25046	20.77	4.	0.1	682.92
25047	20.863	4.0909	0.1	662.74
25048	20.586	4.	0.1	723.16
25049	20.678	4.0909	0.1	702.92
25050	20.401	4.	0.1	763.61
25051	20.493	4.0909	0.1	743.29
25052	20.217	4.	0.1	804.25
25053	20.309	4.0909	0.1	783.87
25054	20.032	4.	0.1	845.09
25055	20.124	4.0909	0.1	824.64
25056	19.848	4.	0.1	886.14
25057	19.94	4.0909	0.1	865.61
25058	19.663	4.	0.1	927.39
25059	19.755	4.0909	0.1	906.79
25060	19.478	4.	0.1	968.84
25061	19.571	4.0909	0.1	948.16
25062	19.294	4.	0.1	1010.5
25063	19.386	4.0909	0.1	989.74
25064	19.109	4.	0.1	1052.4
25065	19.202	4.0909	0.1	1031.5
25066	18.925	4.	0.1	1094.4
25067	19.017	4.0909	0.1	1073.5
25068	18.74	4.	0.1	1136.7
25069	18.833	4.0909	0.1	1115.7
25070	18.556	4.	0.1	1179.1
25071	18.648	4.0909	0.1	1158.
25072	18.371	4.	0.1	1221.8
25073	18.463	4.0909	0.1	1200.6
25074	18.187	4.	0.1	1264.6
25075	18.279	4.0909	0.1	1243.4
25076	18.002	4.	0.1	1307.7
25077	18.094	4.0909	0.1	1286.4
25078	17.817	4.	0.1	1350.9
25079	17.91	4.0909	0.1	1329.5
25080	17.633	4.	0.1	1394.4
25081	17.725	4.0909	0.1	1372.9
25082	17.448	4.	0.1	1438.
25083	17.541	4.0909	0.1	1416.5
25084	17.264	4.	0.1	1481.9
25085	17.356	4.0909	0.1	1460.2
25086	17.079	4.	0.1	1525.9
25087	17.172	4.0909	0.1	1504.2
25088	16.895	4.	0.1	1570.1
25089	16.987	4.0909	0.1	1548.3
25090	16.71	4.	0.1	1614.6
25091	16.802	4.0909	0.1	1592.7
25092	16.526	4.	0.1	1659.2
25093	16.618	4.0909	0.1	1637.2
25094	16.341	4.	0.1	1704.
25095	16.433	4.0909	0.1	1681.9
25096	16.157	4.	0.1	1749.
25097	16.249	4.0909	0.1	1726.8
25098	15.972	4.	0.1	1794.2
25099	16.064	4.0909	0.1	1772.
25100	15.787	4.	0.1	1839.6
25101	15.88	4.0909	0.1	1817.3
25102	15.603	4.	0.1	1885.2
25103	15.695	4.0909	0.1	1862.8
25104	15.418	4.	0.1	1930.9
25105	15.511	4.0909	0.1	1908.5
25106	15.234	4.	0.1	1976.9
25107	15.326	4.0909	0.1	1954.4
25108	15.049	4.	0.1	2023.2
25109	15.141	4.0909	0.1	2000.5
25110	14.865	4.	0.1	2069.6
25111	14.957	4.0909	0.1	2046.8
25112	14.68	4.	0.1	2116.3
25113	14.772	4.0909	0.1	2093.4
25114	14.496	4.	0.1	2163.2
25115	14.588	4.0909	0.1	2140.2
25116	14.311	4.	0.1	2210.4
25117	14.403	4.0909	0.1	2187.3
25118	14.126	4.	0.1	2257.9
25119	14.219	4.0909	0.1	2234.6
25120	13.942	4.	0.1	2305.8
25121	14.034	4.0909	0.1	2282.2
25122	13.757	4.	0.1	2354.1
25123	13.85	4.0909	0.1	2330.2
25124	13.573	4.	0.1	2402.8
25125	13.665	4.0909	0.1	2378.6
25126	13.388	4.	0.1	2452.
25127	13.48	4.0909	0.1	2427.4
25128	13.204	4.	0.1	2502.
25129	13.296	4.0909	0.1	2476.8
25130	13.019	4.	0.1	2552.7
25131	13.111	4.0909	0.1	2526.8
25132	12.835	4.	0.1	2604.3
25133	12.927	4.0909	0.1	2577.6
25134	12.65	4.	0.1	2657.2
25135	12.742	4.0909	0.1	2629.2
25136	12.465	4.	0.1	2711.5
25137	12.558	4.0909	0.1	2682.
25138	12.281	4.	0.1	2767.6
25139	12.373	4.0909	0.1	2736.2
25140	12.096	4.	0.1	2825.9
25141	12.189	4.0909	0.1	2792.1
25142	11.912	4.	0.1	2887.1
25143	12.004	4.0909	0.1	2850.1
25144	11.727	4.	0.1	2951.8
25145	11.82	4.0909	0.1	2910.7
25146	11.543	4.	0.1	3021.
25147	11.635	4.0909	0.1	2974.6
25148	11.358	4.	0.1	3095.9
25149	11.45	4.0909	0.1	3042.6
25150	11.174	4.	0.1	3177.9
25151	11.266	4.0909	0.1	3115.8
25152	10.989	4.	0.1	3269.1
25153	11.081	4.0909	0.1	3195.7
25154	10.804	4.	0.1	3372.1
25155	10.897	4.0909	0.1	3284.
25156	10.62	4.	0.1	3490.7
25157	10.712	4.0909	0.1	3383.3
25158	10.435	4.	0.1	3630.
25159	10.528	4.0909	0.1	3497.3
25160	10.251	4.	0.1	3797.6
25161	10.343	4.0909	0.1	3631.
25162	10.066	4.	0.1	4005.3
25163	10.159	4.0909	0.1	3792.2
25164	9.8817	4.	0.1	4271.8
25165	9.974	4.0909	0.1	3993.
25166	9.6972	4.	0.1	4630.
25167	9.7894	4.0909	0.1	4252.6
25168	9.5126	4.	0.1	5146.4
25169	9.6049	4.0909	0.1	4605.2
25170	9.328	4.	0.1	5951.9
25171	9.4203	4.0909	0.1	5118.4
25172	9.1435	4.	0.1	7918.7
25173	9.2358	4.0909	0.1	5923.
25174	9.0512	4.0909	0.1	8021.6
25175	8.9589	4.	0.1	14149
25176	23.723	4.1818	0.1	59.145
25177	23.815	4.2727	0.1	39.92
25178	23.908	4.1818	0.1	22.5
25179	23.539	4.1818	0.1	97.738
25180	23.631	4.2727	0.1	78.373
25181	23.354	4.1818	0.1	136.25
25182	23.446	4.2727	0.1	116.86
25183	23.17	4.1818	0.1	174.65
25184	23.262	4.2727	0.1	155.21
25185	22.985	4.1818	0.1	213.02
25186	23.077	4.2727	0.1	193.52
25187	22.8	4.1818	0.1	251.41
25188	22.893	4.2727	0.1	231.85
25189	22.616	4.1818	0.1	289.87
25190	22.708	4.2727	0.1	270.24
25191	22.431	4.1818	0.1	328.43
25192	22.524	4.2727	0.1	308.73
25193	22.247	4.1818	0.1	367.12
25194	22.339	4.2727	0.1	347.36
25195	22.062	4.1818	0.1	405.96
25196	22.154	4.2727	0.1	386.13
25197	21.878	4.1818	0.1	444.95
25198	21.97	4.2727	0.1	425.08
25199	21.693	4.1818	0.1	484.13
25200	21.785	4.2727	0.1	464.2
25201	21.509	4.1818	0.1	523.48
25202	21.601	4.2727	0.1	503.5
25203	21.324	4.1818	0.1	563.02
25204	21.416	4.2727	0.1	542.98
25205	21.139	4.1818	0.1	602.75
25206	21.232	4.2727	0.1	582.65
25207	20.955	4.1818	0.1	642.66
25208	21.047	4.2727	0.1	622.52
25209	20.77	4.1818	0.1	682.78
25210	20.863	4.2727	0.1	662.57
25211	20.586	4.1818	0.1	723.09
25212	20.678	4.2727	0.1	702.82
25213	20.401	4.1818	0.1	763.59
25214	20.493	4.2727	0.1	743.27
25215	20.217	4.1818	0.1	804.29
25216	20.309	4.2727	0.1	783.91
25217	20.032	4.1818	0.1	845.2
25218	20.124	4.2727	0.1	824.74
25219	19.848	4.1818	0.1	886.3
25220	19.94	4.2727	0.1	865.77
25221	19.663	4.1818	0.1	927.6
25222	19.755	4.2727	0.1	907.
25223	19.478	4.1818	0.1	969.09
25224	19.571	4.2727	0.1	948.43
25225	19.294	4.1818	0.1	1010.8
25226	19.386	4.2727	0.1	990.05
25227	19.109	4.1818	0.1	1052.7
25228	19.202	4.2727	0.1	1031.9
25229	18.925	4.1818	0.1	1094.8
25230	19.017	4.2727	0.1	1073.9
25231	18.74	4.1818	0.1	1137.1
25232	18.833	4.2727	0.1	1116.1
25233	18.556	4.1818	0.1	1179.6
25234	18.648	4.2727	0.1	1158.5
25235	18.371	4.1818	0.1	1222.3
25236	18.463	4.2727	0.1	1201.1
25237	18.187	4.1818	0.1	1265.2
25238	18.279	4.2727	0.1	1243.9
25239	18.002	4.1818	0.1	1308.2
25240	18.094	4.2727	0.1	1287.
25241	17.817	4.1818	0.1	1351.5
25242	17.91	4.2727	0.1	1330.2
25243	17.633	4.1818	0.1	1395.
25244	17.725	4.2727	0.1	1373.6
25245	17.448	4.1818	0.1	1438.7
25246	17.541	4.2727	0.1	1417.1
25247	17.264	4.1818	0.1	1482.6
25248	17.356	4.2727	0.1	1460.9
25249	17.079	4.1818	0.1	1526.6
25250	17.172	4.2727	0.1	1504.9
25251	16.895	4.1818	0.1	1570.9
25252	16.987	4.2727	0.1	1549.1
25253	16.71	4.1818	0.1	1615.3
25254	16.802	4.2727	0.1	1593.5
25255	16.526	4.1818	0.1	1660.
25256	16.618	4.2727	0.1	1638.
25257	16.341	4.1818	0.1	1704.8
25258	16.433	4.2727	0.1	1682.8
25259	16.157	4.1818	0.1	1749.8
25260	16.249	4.2727	0.1	1727.8
25261	15.972	4.1818	0.1	1795.1
25262	16.064	4.2727	0.1	1772.9
25263	15.787	4.1818	0.1	1840.5
25264	15.88	4.2727	0.1	1818.3
25265	15.603	4.1818	0.1	1886.1
25266	15.695	4.2727	0.1	1863.8
25267	15.418	4.1818	0.1	1931.9
25268	15.511	4.2727	0.1	1909.5
25269	15.234	4.1818	0.1	1978.
25270	15.326	4.2727	0.1	1955.5
25271	15.049	4.1818	0.1	2024.2
25272	15.141	4.2727	0.1	2001.6
25273	14.865	4.1818	0.1	2070.7
25274	14.957	4.2727	0.1	2048.
25275	14.68	4.1818	0.1	2117.4
25276	14.772	4.2727	0.1	2094.6
25277	14.496	4.1818	0.1	2164.3
25278	14.588	4.2727	0.1	2141.4
25279	14.311	4.1818	0.1	2211.5
25280	14.403	4.2727	0.1	2188.4
25281	14.126	4.1818	0.1	2258.9
25282	14.219	4.2727	0.1	2235.7
25283	13.942	4.1818	0.1	2306.7
25284	14.034	4.2727	0.1	2283.3
25285	13.757	4.1818	0.1	2354.8
25286	13.85	4.2727	0.1	2331.1
25287	13.573	4.1818	0.1	2403.3
25288	13.665	4.2727	0.1	2379.3
25289	13.388	4.1818	0.1	2452.2
25290	13.48	4.2727	0.1	2427.9
25291	13.204	4.1818	0.1	2501.7
25292	13.296	4.2727	0.1	2476.8
25293	13.019	4.1818	0.1	2551.7
25294	13.111	4.2727	0.1	2526.2
25295	12.835	4.1818	0.1	2602.5
25296	12.927	4.2727	0.1	2576.2
25297	12.65	4.1818	0.1	2654.1
25298	12.742	4.2727	0.1	2626.8
25299	12.465	4.1818	0.1	2706.8
25300	12.558	4.2727	0.1	2678.2
25301	12.281	4.1818	0.1	2760.7
25302	12.373	4.2727	0.1	2730.4
25303	12.096	4.1818	0.1	2816.3
25304	12.189	4.2727	0.1	2783.7
25305	11.912	4.1818	0.1	2873.7
25306	12.004	4.2727	0.1	2838.4
25307	11.727	4.1818	0.1	2933.5
25308	11.82	4.2727	0.1	2894.6
25309	11.543	4.1818	0.1	2996.2
25310	11.635	4.2727	0.1	2952.7
25311	11.358	4.1818	0.1	3062.6
25312	11.45	4.2727	0.1	3013.2
25313	11.174	4.1818	0.1	3133.6
25314	11.266	4.2727	0.1	3076.6
25315	10.989	4.1818	0.1	3210.5
25316	11.081	4.2727	0.1	3143.8
25317	10.804	4.1818	0.1	3295.
25318	10.897	4.2727	0.1	3215.6
25319	10.62	4.1818	0.1	3389.5
25320	10.712	4.2727	0.1	3293.7
25321	10.435	4.1818	0.1	3497.5
25322	10.528	4.2727	0.1	3380.1
25323	10.251	4.1818	0.1	3624.3
25324	10.343	4.2727	0.1	3478.1
25325	10.066	4.1818	0.1	3777.8
25326	10.159	4.2727	0.1	3592.3
25327	9.8817	4.1818	0.1	3970.7
25328	9.974	4.2727	0.1	3730.5
25329	9.6972	4.1818	0.1	4223.5
25330	9.7894	4.2727	0.1	3904.
25331	9.5126	4.1818	0.1	4571.9
25332	9.6049	4.2727	0.1	4131.2
25333	9.328	4.1818	0.1	5087.2
25334	9.4203	4.2727	0.1	4438.7
25335	9.1435	4.1818	0.1	6044.
25336	9.2358	4.2727	0.1	4875.5
25337	9.0512	4.2727	0.1	5679.
25338	8.9589	4.1818	0.1	5233.9
25339	23.723	4.3636	0.1	59.079
25340	23.815	4.4545	0.1	39.942
25341	23.908	4.3636	0.1	22.528
25342	23.539	4.3636	0.1	97.487
25343	23.631	4.4545	0.1	78.177
25344	23.354	4.3636	0.1	135.83
25345	23.446	4.4545	0.1	116.46
25346	23.17	4.3636	0.1	174.1
25347	23.262	4.4545	0.1	154.65
25348	22.985	4.3636	0.1	212.37
25349	23.077	4.4545	0.1	192.84
25350	22.8	4.3636	0.1	250.69
25351	22.893	4.4545	0.1	231.08
25352	22.616	4.3636	0.1	289.12
25353	22.708	4.4545	0.1	269.43
25354	22.431	4.3636	0.1	327.68
25355	22.524	4.4545	0.1	307.92
25356	22.247	4.3636	0.1	366.4
25357	22.339	4.4545	0.1	346.58
25358	22.062	4.3636	0.1	405.29
25359	22.154	4.4545	0.1	385.41
25360	21.878	4.3636	0.1	444.36
25361	21.97	4.4545	0.1	424.42
25362	21.693	4.3636	0.1	483.6
25363	21.785	4.4545	0.1	463.62
25364	21.509	4.3636	0.1	523.04
25365	21.601	4.4545	0.1	503.01
25366	21.324	4.3636	0.1	562.66
25367	21.416	4.4545	0.1	542.58
25368	21.139	4.3636	0.1	602.47
25369	21.232	4.4545	0.1	582.34
25370	20.955	4.3636	0.1	642.47
25371	21.047	4.4545	0.1	622.3
25372	20.77	4.3636	0.1	682.66
25373	20.863	4.4545	0.1	662.44
25374	20.586	4.3636	0.1	723.04
25375	20.678	4.4545	0.1	702.77
25376	20.401	4.3636	0.1	763.62
25377	20.493	4.4545	0.1	743.29
25378	20.217	4.3636	0.1	804.39
25379	20.309	4.4545	0.1	784.
25380	20.032	4.3636	0.1	845.36
25381	20.124	4.4545	0.1	824.91
25382	19.848	4.3636	0.1	886.52
25383	19.94	4.4545	0.1	866.
25384	19.663	4.3636	0.1	927.87
25385	19.755	4.4545	0.1	907.29
25386	19.478	4.3636	0.1	969.42
25387	19.571	4.4545	0.1	948.77
25388	19.294	4.3636	0.1	1011.2
25389	19.386	4.4545	0.1	990.45
25390	19.109	4.3636	0.1	1053.1
25391	19.202	4.4545	0.1	1032.3
25392	18.925	4.3636	0.1	1095.3
25393	19.017	4.4545	0.1	1074.4
25394	18.74	4.3636	0.1	1137.6
25395	18.833	4.4545	0.1	1116.6
25396	18.556	4.3636	0.1	1180.1
25397	18.648	4.4545	0.1	1159.1
25398	18.371	4.3636	0.1	1222.8
25399	18.463	4.4545	0.1	1201.8
25400	18.187	4.3636	0.1	1265.8
25401	18.279	4.4545	0.1	1244.6
25402	18.002	4.3636	0.1	1308.9
25403	18.094	4.4545	0.1	1287.6
25404	17.817	4.3636	0.1	1352.2
25405	17.91	4.4545	0.1	1330.9
25406	17.633	4.3636	0.1	1395.7
25407	17.725	4.4545	0.1	1374.3
25408	17.448	4.3636	0.1	1439.4
25409	17.541	4.4545	0.1	1417.9
25410	17.264	4.3636	0.1	1483.3
25411	17.356	4.4545	0.1	1461.8
25412	17.079	4.3636	0.1	1527.4
25413	17.172	4.4545	0.1	1505.8
25414	16.895	4.3636	0.1	1571.7
25415	16.987	4.4545	0.1	1550.
25416	16.71	4.3636	0.1	1616.2
25417	16.802	4.4545	0.1	1594.4
25418	16.526	4.3636	0.1	1660.9
25419	16.618	4.4545	0.1	1639.
25420	16.341	4.3636	0.1	1705.8
25421	16.433	4.4545	0.1	1683.8
25422	16.157	4.3636	0.1	1750.8
25423	16.249	4.4545	0.1	1728.8
25424	15.972	4.3636	0.1	1796.1
25425	16.064	4.4545	0.1	1774.
25426	15.787	4.3636	0.1	1841.6
25427	15.88	4.4545	0.1	1819.4
25428	15.603	4.3636	0.1	1887.2
25429	15.695	4.4545	0.1	1865.
25430	15.418	4.3636	0.1	1933.1
25431	15.511	4.4545	0.1	1910.8
25432	15.234	4.3636	0.1	1979.2
25433	15.326	4.4545	0.1	1956.7
25434	15.049	4.3636	0.1	2025.4
25435	15.141	4.4545	0.1	2002.9
25436	14.865	4.3636	0.1	2071.9
25437	14.957	4.4545	0.1	2049.3
25438	14.68	4.3636	0.1	2118.6
25439	14.772	4.4545	0.1	2095.9
25440	14.496	4.3636	0.1	2165.5
25441	14.588	4.4545	0.1	2142.7
25442	14.311	4.3636	0.1	2212.7
25443	14.403	4.4545	0.1	2189.7
25444	14.126	4.3636	0.1	2260.1
25445	14.219	4.4545	0.1	2237.
25446	13.942	4.3636	0.1	2307.7
25447	14.034	4.4545	0.1	2284.4
25448	13.757	4.3636	0.1	2355.7
25449	13.85	4.4545	0.1	2332.2
25450	13.573	4.3636	0.1	2403.9
25451	13.665	4.4545	0.1	2380.1
25452	13.388	4.3636	0.1	2452.5
25453	13.48	4.4545	0.1	2428.4
25454	13.204	4.3636	0.1	2501.4
25455	13.296	4.4545	0.1	2476.9
25456	13.019	4.3636	0.1	2550.7
25457	13.111	4.4545	0.1	2525.7
25458	12.835	4.3636	0.1	2600.5
25459	12.927	4.4545	0.1	2574.8
25460	12.65	4.3636	0.1	2650.9
25461	12.742	4.4545	0.1	2624.2
25462	12.465	4.3636	0.1	2701.8
25463	12.558	4.4545	0.1	2674.1
25464	12.281	4.3636	0.1	2753.4
25465	12.373	4.4545	0.1	2724.3
25466	12.096	4.3636	0.1	2805.9
25467	12.189	4.4545	0.1	2774.9
25468	11.912	4.3636	0.1	2859.3
25469	12.004	4.4545	0.1	2826.1
25470	11.727	4.3636	0.1	2913.8
25471	11.82	4.4545	0.1	2877.6
25472	11.543	4.3636	0.1	2969.7
25473	11.635	4.4545	0.1	2929.8
25474	11.358	4.3636	0.1	3027.2
25475	11.45	4.4545	0.1	2982.5
25476	11.174	4.3636	0.1	3086.7
25477	11.266	4.4545	0.1	3035.8
25478	10.989	4.3636	0.1	3148.8
25479	11.081	4.4545	0.1	3090.
25480	10.804	4.3636	0.1	3214.1
25481	10.897	4.4545	0.1	3145.1
25482	10.62	4.3636	0.1	3283.8
25483	10.712	4.4545	0.1	3201.6
25484	10.435	4.3636	0.1	3359.7
25485	10.528	4.4545	0.1	3260.1
25486	10.251	4.3636	0.1	3444.4
25487	10.343	4.4545	0.1	3321.9
25488	10.066	4.3636	0.1	3542.2
25489	10.159	4.4545	0.1	3389.1
25490	9.8817	4.3636	0.1	3659.5
25491	9.974	4.4545	0.1	3464.8
25492	9.6972	4.3636	0.1	3805.1
25493	9.7894	4.4545	0.1	3553.8
25494	9.5126	4.3636	0.1	3988.
25495	9.6049	4.4545	0.1	3661.4
25496	9.328	4.3636	0.1	4207.8
25497	9.4203	4.4545	0.1	3790.2
25498	9.1435	4.3636	0.1	4446.2
25499	9.2358	4.4545	0.1	3921.6
25500	9.0512	4.4545	0.1	4113.1
25501	8.9589	4.3636	0.1	3714.2
25502	23.723	4.5455	0.1	58.975
25503	23.815	4.6364	0.1	39.944
25504	23.908	4.5455	0.1	22.551
25505	23.539	4.5455	0.1	97.153
25506	23.631	4.6364	0.1	77.905
25507	23.354	4.5455	0.1	135.3
25508	23.446	4.6364	0.1	115.95
25509	23.17	4.5455	0.1	173.41
25510	23.262	4.6364	0.1	153.95
25511	22.985	4.5455	0.1	211.57
25512	23.077	4.6364	0.1	192.
25513	22.8	4.5455	0.1	249.84
25514	22.893	4.6364	0.1	230.17
25515	22.616	4.5455	0.1	288.26
25516	22.708	4.6364	0.1	268.5
25517	22.431	4.5455	0.1	326.85
25518	22.524	4.6364	0.1	307.02
25519	22.247	4.5455	0.1	365.62
25520	22.339	4.6364	0.1	345.73
25521	22.062	4.5455	0.1	404.58
25522	22.154	4.6364	0.1	384.64
25523	21.878	4.5455	0.1	443.73
25524	21.97	4.6364	0.1	423.75
25525	21.693	4.5455	0.1	483.07
25526	21.785	4.6364	0.1	463.05
25527	21.509	4.5455	0.1	522.6
25528	21.601	4.6364	0.1	502.54
25529	21.324	4.5455	0.1	562.31
25530	21.416	4.6364	0.1	542.21
25531	21.139	4.5455	0.1	602.22
25532	21.232	4.6364	0.1	582.08
25533	20.955	4.5455	0.1	642.31
25534	21.047	4.6364	0.1	622.13
25535	20.77	4.5455	0.1	682.59
25536	20.863	4.6364	0.1	662.36
25537	20.586	4.5455	0.1	723.06
25538	20.678	4.6364	0.1	702.78
25539	20.401	4.5455	0.1	763.71
25540	20.493	4.6364	0.1	743.39
25541	20.217	4.5455	0.1	804.56
25542	20.309	4.6364	0.1	784.18
25543	20.032	4.5455	0.1	845.59
25544	20.124	4.6364	0.1	825.16
25545	19.848	4.5455	0.1	886.82
25546	19.94	4.6364	0.1	866.32
25547	19.663	4.5455	0.1	928.23
25548	19.755	4.6364	0.1	907.67
25549	19.478	4.5455	0.1	969.84
25550	19.571	4.6364	0.1	949.21
25551	19.294	4.5455	0.1	1011.6
25552	19.386	4.6364	0.1	990.95
25553	19.109	4.5455	0.1	1053.6
25554	19.202	4.6364	0.1	1032.9
25555	18.925	4.5455	0.1	1095.8
25556	19.017	4.6364	0.1	1075.
25557	18.74	4.5455	0.1	1138.2
25558	18.833	4.6364	0.1	1117.3
25559	18.556	4.5455	0.1	1180.8
25560	18.648	4.6364	0.1	1159.8
25561	18.371	4.5455	0.1	1223.5
25562	18.463	4.6364	0.1	1202.5
25563	18.187	4.5455	0.1	1266.5
25564	18.279	4.6364	0.1	1245.4
25565	18.002	4.5455	0.1	1309.7
25566	18.094	4.6364	0.1	1288.4
25567	17.817	4.5455	0.1	1353.
25568	17.91	4.6364	0.1	1331.7
25569	17.633	4.5455	0.1	1396.6
25570	17.725	4.6364	0.1	1375.2
25571	17.448	4.5455	0.1	1440.3
25572	17.541	4.6364	0.1	1418.9
25573	17.264	4.5455	0.1	1484.2
25574	17.356	4.6364	0.1	1462.7
25575	17.079	4.5455	0.1	1528.4
25576	17.172	4.6364	0.1	1506.8
25577	16.895	4.5455	0.1	1572.7
25578	16.987	4.6364	0.1	1551.
25579	16.71	4.5455	0.1	1617.2
25580	16.802	4.6364	0.1	1595.5
25581	16.526	4.5455	0.1	1662.
25582	16.618	4.6364	0.1	1640.1
25583	16.341	4.5455	0.1	1706.9
25584	16.433	4.6364	0.1	1685.
25585	16.157	4.5455	0.1	1752.
25586	16.249	4.6364	0.1	1730.
25587	15.972	4.5455	0.1	1797.3
25588	16.064	4.6364	0.1	1775.2
25589	15.787	4.5455	0.1	1842.8
25590	15.88	4.6364	0.1	1820.7
25591	15.603	4.5455	0.1	1888.5
25592	15.695	4.6364	0.1	1866.3
25593	15.418	4.5455	0.1	1934.4
25594	15.511	4.6364	0.1	1912.1
25595	15.234	4.5455	0.1	1980.5
25596	15.326	4.6364	0.1	1958.1
25597	15.049	4.5455	0.1	2026.8
25598	15.141	4.6364	0.1	2004.3
25599	14.865	4.5455	0.1	2073.3
25600	14.957	4.6364	0.1	2050.8
25601	14.68	4.5455	0.1	2120.
25602	14.772	4.6364	0.1	2097.4
25603	14.496	4.5455	0.1	2166.9
25604	14.588	4.6364	0.1	2144.2
25605	14.311	4.5455	0.1	2214.
25606	14.403	4.6364	0.1	2191.2
25607	14.126	4.5455	0.1	2261.4
25608	14.219	4.6364	0.1	2238.4
25609	13.942	4.5455	0.1	2308.9
25610	14.034	4.6364	0.1	2285.8
25611	13.757	4.5455	0.1	2356.6
25612	13.85	4.6364	0.1	2333.3
25613	13.573	4.5455	0.1	2404.6
25614	13.665	4.6364	0.1	2381.
25615	13.388	4.5455	0.1	2452.8
25616	13.48	4.6364	0.1	2428.9
25617	13.204	4.5455	0.1	2501.1
25618	13.296	4.6364	0.1	2477.
25619	13.019	4.5455	0.1	2549.7
25620	13.111	4.6364	0.1	2525.1
25621	12.835	4.5455	0.1	2598.5
25622	12.927	4.6364	0.1	2573.4
25623	12.65	4.5455	0.1	2647.5
25624	12.742	4.6364	0.1	2621.7
25625	12.465	4.5455	0.1	2696.6
25626	12.558	4.6364	0.1	2669.9
25627	12.281	4.5455	0.1	2745.8
25628	12.373	4.6364	0.1	2718.1
25629	12.096	4.5455	0.1	2795.1
25630	12.189	4.6364	0.1	2766.
25631	11.912	4.5455	0.1	2844.4
25632	12.004	4.6364	0.1	2813.5
25633	11.727	4.5455	0.1	2893.6
25634	11.82	4.6364	0.1	2860.5
25635	11.543	4.5455	0.1	2942.5
25636	11.635	4.6364	0.1	2906.6
25637	11.358	4.5455	0.1	2991.1
25638	11.45	4.6364	0.1	2951.5
25639	11.174	4.5455	0.1	3039.
25640	11.266	4.6364	0.1	2994.9
25641	10.989	4.5455	0.1	3086.1
25642	11.081	4.6364	0.1	3036.1
25643	10.804	4.5455	0.1	3132.2
25644	10.897	4.6364	0.1	3074.7
25645	10.62	4.5455	0.1	3177.2
25646	10.712	4.6364	0.1	3110.
25647	10.435	4.5455	0.1	3221.2
25648	10.528	4.6364	0.1	3141.3
25649	10.251	4.5455	0.1	3264.6
25650	10.343	4.6364	0.1	3168.1
25651	10.066	4.5455	0.1	3308.3
25652	10.159	4.6364	0.1	3190.
25653	9.8817	4.5455	0.1	3353.6
25654	9.974	4.6364	0.1	3206.9
25655	9.6972	4.5455	0.1	3401.1
25656	9.7894	4.6364	0.1	3218.9
25657	9.5126	4.5455	0.1	3448.4
25658	9.6049	4.6364	0.1	3224.7
25659	9.328	4.5455	0.1	3476.5
25660	9.4203	4.6364	0.1	3219.7
25661	9.1435	4.5455	0.1	3511.3
25662	9.2358	4.6364	0.1	3185.7
25663	9.0512	4.6364	0.1	3212.2
25664	8.9589	4.5455	0.1	2884.3
25665	23.723	4.7273	0.1	58.814
25666	23.815	4.8182	0.1	39.909
25667	23.908	4.7273	0.1	22.56
25668	23.539	4.7273	0.1	96.709
25669	23.631	4.8182	0.1	77.527
25670	23.354	4.7273	0.1	134.62
25671	23.446	4.8182	0.1	115.29
25672	23.17	4.7273	0.1	172.57
25673	23.262	4.8182	0.1	153.08
25674	22.985	4.7273	0.1	210.63
25675	23.077	4.8182	0.1	191.01
25676	22.8	4.7273	0.1	248.87
25677	22.893	4.8182	0.1	229.13
25678	22.616	4.7273	0.1	287.3
25679	22.708	4.8182	0.1	267.48
25680	22.431	4.7273	0.1	325.95
25681	22.524	4.8182	0.1	306.06
25682	22.247	4.7273	0.1	364.8
25683	22.339	4.8182	0.1	344.86
25684	22.062	4.7273	0.1	403.85
25685	22.154	4.8182	0.1	383.87
25686	21.878	4.7273	0.1	443.11
25687	21.97	4.8182	0.1	423.09
25688	21.693	4.7273	0.1	482.56
25689	21.785	4.8182	0.1	462.51
25690	21.509	4.7273	0.1	522.2
25691	21.601	4.8182	0.1	502.12
25692	21.324	4.7273	0.1	562.03
25693	21.416	4.8182	0.1	541.92
25694	21.139	4.7273	0.1	602.04
25695	21.232	4.8182	0.1	581.89
25696	20.955	4.7273	0.1	642.23
25697	21.047	4.8182	0.1	622.05
25698	20.77	4.7273	0.1	682.6
25699	20.863	4.8182	0.1	662.39
25700	20.586	4.7273	0.1	723.16
25701	20.678	4.8182	0.1	702.9
25702	20.401	4.7273	0.1	763.9
25703	20.493	4.8182	0.1	743.59
25704	20.217	4.7273	0.1	804.82
25705	20.309	4.8182	0.1	784.46
25706	20.032	4.7273	0.1	845.93
25707	20.124	4.8182	0.1	825.52
25708	19.848	4.7273	0.1	887.22
25709	19.94	4.8182	0.1	866.75
25710	19.663	4.7273	0.1	928.7
25711	19.755	4.8182	0.1	908.17
25712	19.478	4.7273	0.1	970.36
25713	19.571	4.8182	0.1	949.77
25714	19.294	4.7273	0.1	1012.2
25715	19.386	4.8182	0.1	991.56
25716	19.109	4.7273	0.1	1054.3
25717	19.202	4.8182	0.1	1033.5
25718	18.925	4.7273	0.1	1096.5
25719	19.017	4.8182	0.1	1075.7
25720	18.74	4.7273	0.1	1138.9
25721	18.833	4.8182	0.1	1118.
25722	18.556	4.7273	0.1	1181.5
25723	18.648	4.8182	0.1	1160.6
25724	18.371	4.7273	0.1	1224.3
25725	18.463	4.8182	0.1	1203.3
25726	18.187	4.7273	0.1	1267.3
25727	18.279	4.8182	0.1	1246.2
25728	18.002	4.7273	0.1	1310.5
25729	18.094	4.8182	0.1	1289.4
25730	17.817	4.7273	0.1	1353.9
25731	17.91	4.8182	0.1	1332.7
25732	17.633	4.7273	0.1	1397.5
25733	17.725	4.8182	0.1	1376.2
25734	17.448	4.7273	0.1	1441.3
25735	17.541	4.8182	0.1	1419.9
25736	17.264	4.7273	0.1	1485.3
25737	17.356	4.8182	0.1	1463.8
25738	17.079	4.7273	0.1	1529.4
25739	17.172	4.8182	0.1	1507.9
25740	16.895	4.7273	0.1	1573.8
25741	16.987	4.8182	0.1	1552.2
25742	16.71	4.7273	0.1	1618.4
25743	16.802	4.8182	0.1	1596.7
25744	16.526	4.7273	0.1	1663.1
25745	16.618	4.8182	0.1	1641.3
25746	16.341	4.7273	0.1	1708.1
25747	16.433	4.8182	0.1	1686.2
25748	16.157	4.7273	0.1	1753.3
25749	16.249	4.8182	0.1	1731.3
25750	15.972	4.7273	0.1	1798.6
25751	16.064	4.8182	0.1	1776.6
25752	15.787	4.7273	0.1	1844.2
25753	15.88	4.8182	0.1	1822.1
25754	15.603	4.7273	0.1	1889.9
25755	15.695	4.8182	0.1	1867.7
25756	15.418	4.7273	0.1	1935.9
25757	15.511	4.8182	0.1	1913.6
25758	15.234	4.7273	0.1	1982.
25759	15.326	4.8182	0.1	1959.7
25760	15.049	4.7273	0.1	2028.3
25761	15.141	4.8182	0.1	2005.9
25762	14.865	4.7273	0.1	2074.8
25763	14.957	4.8182	0.1	2052.4
25764	14.68	4.7273	0.1	2121.6
25765	14.772	4.8182	0.1	2099.
25766	14.496	4.7273	0.1	2168.5
25767	14.588	4.8182	0.1	2145.8
25768	14.311	4.7273	0.1	2215.5
25769	14.403	4.8182	0.1	2192.8
25770	14.126	4.7273	0.1	2262.8
25771	14.219	4.8182	0.1	2239.9
25772	13.942	4.7273	0.1	2310.2
25773	14.034	4.8182	0.1	2287.2
25774	13.757	4.7273	0.1	2357.7
25775	13.85	4.8182	0.1	2334.6
25776	13.573	4.7273	0.1	2405.4
25777	13.665	4.8182	0.1	2382.1
25778	13.388	4.7273	0.1	2453.2
25779	13.48	4.8182	0.1	2429.7
25780	13.204	4.7273	0.1	2501.
25781	13.296	4.8182	0.1	2477.2
25782	13.019	4.7273	0.1	2548.8
25783	13.111	4.8182	0.1	2524.7
25784	12.835	4.7273	0.1	2596.6
25785	12.927	4.8182	0.1	2572.1
25786	12.65	4.7273	0.1	2644.1
25787	12.742	4.8182	0.1	2619.2
25788	12.465	4.7273	0.1	2691.4
25789	12.558	4.8182	0.1	2665.9
25790	12.281	4.7273	0.1	2738.3
25791	12.373	4.8182	0.1	2712.
25792	12.096	4.7273	0.1	2784.4
25793	12.189	4.8182	0.1	2757.2
25794	11.912	4.7273	0.1	2829.6
25795	12.004	4.8182	0.1	2801.2
25796	11.727	4.7273	0.1	2873.5
25797	11.82	4.8182	0.1	2843.7
25798	11.543	4.7273	0.1	2915.6
25799	11.635	4.8182	0.1	2883.9
25800	11.358	4.7273	0.1	2955.3
25801	11.45	4.8182	0.1	2921.3
25802	11.174	4.7273	0.1	2991.9
25803	11.266	4.8182	0.1	2955.
25804	10.989	4.7273	0.1	3024.5
25805	11.081	4.8182	0.1	2983.8
25806	10.804	4.7273	0.1	3052.
25807	10.897	4.8182	0.1	3006.7
25808	10.62	4.7273	0.1	3073.3
25809	10.712	4.8182	0.1	3021.8
25810	10.435	4.7273	0.1	3086.9
25811	10.528	4.8182	0.1	3027.6
25812	10.251	4.7273	0.1	3091.3
25813	10.343	4.8182	0.1	3021.8
25814	10.066	4.7273	0.1	3085.
25815	10.159	4.8182	0.1	3002.2
25816	9.8817	4.7273	0.1	3066.
25817	9.974	4.8182	0.1	2966.5
25818	9.6972	4.7273	0.1	3031.8
25819	9.7894	4.8182	0.1	2912.5
25820	9.5126	4.7273	0.1	2977.9
25821	9.6049	4.8182	0.1	2837.8
25822	9.328	4.7273	0.1	2897.7
25823	9.4203	4.8182	0.1	2740.5
25824	9.1435	4.7273	0.1	2833.5
25825	9.2358	4.8182	0.1	2621.1
25826	9.0512	4.8182	0.1	2575.4
25827	8.9589	4.7273	0.1	2305.4
25828	23.723	4.9091	0.1	58.569
25829	23.815	5.	0.1	39.812
25830	23.908	4.9091	0.1	22.544
25831	23.539	4.9091	0.1	96.118
25832	23.631	5.	0.1	76.997
25833	23.354	4.9091	0.1	133.77
25834	23.446	5.	0.1	114.43
25835	23.17	4.9091	0.1	171.55
25836	23.262	5.	0.1	152.01
25837	22.985	4.9091	0.1	209.55
25838	23.077	5.	0.1	189.86
25839	22.8	4.9091	0.1	247.79
25840	22.893	5.	0.1	227.98
25841	22.616	4.9091	0.1	286.28
25842	22.708	5.	0.1	266.4
25843	22.431	4.9091	0.1	325.02
25844	22.524	5.	0.1	305.08
25845	22.247	4.9091	0.1	363.99
25846	22.339	5.	0.1	344.01
25847	22.062	4.9091	0.1	403.17
25848	22.154	5.	0.1	383.16
25849	21.878	4.9091	0.1	442.55
25850	21.97	5.	0.1	422.52
25851	21.693	4.9091	0.1	482.13
25852	21.785	5.	0.1	462.08
25853	21.509	4.9091	0.1	521.89
25854	21.601	5.	0.1	501.82
25855	21.324	4.9091	0.1	561.84
25856	21.416	5.	0.1	541.74
25857	21.139	4.9091	0.1	601.96
25858	21.232	5.	0.1	581.84
25859	20.955	4.9091	0.1	642.26
25860	21.047	5.	0.1	622.1
25861	20.77	4.9091	0.1	682.73
25862	20.863	5.	0.1	662.54
25863	20.586	4.9091	0.1	723.38
25864	20.678	5.	0.1	703.15
25865	20.401	4.9091	0.1	764.2
25866	20.493	5.	0.1	743.93
25867	20.217	4.9091	0.1	805.2
25868	20.309	5.	0.1	784.88
25869	20.032	4.9091	0.1	846.38
25870	20.124	5.	0.1	826.01
25871	19.848	4.9091	0.1	887.74
25872	19.94	5.	0.1	867.31
25873	19.663	4.9091	0.1	929.28
25874	19.755	5.	0.1	908.8
25875	19.478	4.9091	0.1	971.
25876	19.571	5.	0.1	950.46
25877	19.294	4.9091	0.1	1012.9
25878	19.386	5.	0.1	992.3
25879	19.109	4.9091	0.1	1055.
25880	19.202	5.	0.1	1034.3
25881	18.925	4.9091	0.1	1097.3
25882	19.017	5.	0.1	1076.5
25883	18.74	4.9091	0.1	1139.8
25884	18.833	5.	0.1	1118.9
25885	18.556	4.9091	0.1	1182.4
25886	18.648	5.	0.1	1161.5
25887	18.371	4.9091	0.1	1225.3
25888	18.463	5.	0.1	1204.3
25889	18.187	4.9091	0.1	1268.3
25890	18.279	5.	0.1	1247.3
25891	18.002	4.9091	0.1	1311.5
25892	18.094	5.	0.1	1290.4
25893	17.817	4.9091	0.1	1355.
25894	17.91	5.	0.1	1333.8
25895	17.633	4.9091	0.1	1398.6
25896	17.725	5.	0.1	1377.3
25897	17.448	4.9091	0.1	1442.4
25898	17.541	5.	0.1	1421.
25899	17.264	4.9091	0.1	1486.4
25900	17.356	5.	0.1	1465.
25901	17.079	4.9091	0.1	1530.6
25902	17.172	5.	0.1	1509.1
25903	16.895	4.9091	0.1	1575.
25904	16.987	5.	0.1	1553.4
25905	16.71	4.9091	0.1	1619.7
25906	16.802	5.	0.1	1598.
25907	16.526	4.9091	0.1	1664.5
25908	16.618	5.	0.1	1642.7
25909	16.341	4.9091	0.1	1709.5
25910	16.433	5.	0.1	1687.6
25911	16.157	4.9091	0.1	1754.7
25912	16.249	5.	0.1	1732.8
25913	15.972	4.9091	0.1	1800.1
25914	16.064	5.	0.1	1778.1
25915	15.787	4.9091	0.1	1845.7
25916	15.88	5.	0.1	1823.6
25917	15.603	4.9091	0.1	1891.4
25918	15.695	5.	0.1	1869.3
25919	15.418	4.9091	0.1	1937.4
25920	15.511	5.	0.1	1915.2
25921	15.234	4.9091	0.1	1983.6
25922	15.326	5.	0.1	1961.3
25923	15.049	4.9091	0.1	2030.
25924	15.141	5.	0.1	2007.6
25925	14.865	4.9091	0.1	2076.5
25926	14.957	5.	0.1	2054.1
25927	14.68	4.9091	0.1	2123.2
25928	14.772	5.	0.1	2100.7
25929	14.496	4.9091	0.1	2170.1
25930	14.588	5.	0.1	2147.5
25931	14.311	4.9091	0.1	2217.2
25932	14.403	5.	0.1	2194.5
25933	14.126	4.9091	0.1	2264.3
25934	14.219	5.	0.1	2241.6
25935	13.942	4.9091	0.1	2311.6
25936	14.034	5.	0.1	2288.8
25937	13.757	4.9091	0.1	2359.
25938	13.85	5.	0.1	2336.
25939	13.573	4.9091	0.1	2406.4
25940	13.665	5.	0.1	2383.3
25941	13.388	4.9091	0.1	2453.7
25942	13.48	5.	0.1	2430.5
25943	13.204	4.9091	0.1	2501.
25944	13.296	5.	0.1	2477.6
25945	13.019	4.9091	0.1	2548.
25946	13.111	5.	0.1	2524.5
25947	12.835	4.9091	0.1	2594.8
25948	12.927	5.	0.1	2571.
25949	12.65	4.9091	0.1	2641.
25950	12.742	5.	0.1	2617.
25951	12.465	4.9091	0.1	2686.5
25952	12.558	5.	0.1	2662.2
25953	12.281	4.9091	0.1	2731.
25954	12.373	5.	0.1	2706.3
25955	12.096	4.9091	0.1	2774.1
25956	12.189	5.	0.1	2748.9
25957	11.912	4.9091	0.1	2815.3
25958	12.004	5.	0.1	2789.6
25959	11.727	4.9091	0.1	2854.1
25960	11.82	5.	0.1	2827.7
25961	11.543	4.9091	0.1	2889.6
25962	11.635	5.	0.1	2862.4
25963	11.358	4.9091	0.1	2920.9
25964	11.45	5.	0.1	2892.7
25965	11.174	4.9091	0.1	2946.8
25966	11.266	5.	0.1	2917.4
25967	10.989	4.9091	0.1	2965.8
25968	11.081	5.	0.1	2934.8
25969	10.804	4.9091	0.1	2976.1
25970	10.897	5.	0.1	2943.1
25971	10.62	4.9091	0.1	2975.4
25972	10.712	5.	0.1	2939.9
25973	10.435	4.9091	0.1	2961.2
25974	10.528	5.	0.1	2922.5
25975	10.251	4.9091	0.1	2930.5
25976	10.343	5.	0.1	2887.6
25977	10.066	4.9091	0.1	2880.
25978	10.159	5.	0.1	2831.7
25979	9.8817	4.9091	0.1	2806.5
25980	9.974	5.	0.1	2751.1
25981	9.6972	4.9091	0.1	2707.3
25982	9.7894	5.	0.1	2642.8
25983	9.5126	4.9091	0.1	2581.8
25984	9.6049	5.	0.1	2506.1
25985	9.328	4.9091	0.1	2434.9
25986	9.4203	5.	0.1	2345.2
25987	9.1435	4.9091	0.1	2320.7
25988	9.2358	5.	0.1	2174.3
25989	9.0512	5.	0.1	2090.1
25990	8.9589	4.9091	0.1	1876.8
25991	23.723	5.0909	0.1	58.196
25992	23.815	5.1818	0.1	39.609
25993	23.908	5.0909	0.1	22.483
25994	23.539	5.0909	0.1	95.328
25995	23.631	5.1818	0.1	76.246
25996	23.354	5.0909	0.1	132.71
25997	23.446	5.1818	0.1	113.33
25998	23.17	5.0909	0.1	170.36
25999	23.262	5.1818	0.1	150.75
26000	22.985	5.0909	0.1	208.35
26001	23.077	5.1818	0.1	188.58
26002	22.8	5.0909	0.1	246.66
26003	22.893	5.1818	0.1	226.79
26004	22.616	5.0909	0.1	285.26
26005	22.708	5.1818	0.1	265.34
26006	22.431	5.0909	0.1	324.14
26007	22.524	5.1818	0.1	304.18
26008	22.247	5.0909	0.1	363.25
26009	22.339	5.1818	0.1	343.28
26010	22.062	5.0909	0.1	402.59
26011	22.154	5.1818	0.1	382.59
26012	21.878	5.0909	0.1	442.12
26013	21.97	5.1818	0.1	422.11
26014	21.693	5.0909	0.1	481.83
26015	21.785	5.1818	0.1	461.82
26016	21.509	5.0909	0.1	521.73
26017	21.601	5.1818	0.1	501.7
26018	21.324	5.0909	0.1	561.8
26019	21.416	5.1818	0.1	541.75
26020	21.139	5.0909	0.1	602.04
26021	21.232	5.1818	0.1	581.96
26022	20.955	5.0909	0.1	642.44
26023	21.047	5.1818	0.1	622.34
26024	20.77	5.0909	0.1	683.01
26025	20.863	5.1818	0.1	662.88
26026	20.586	5.0909	0.1	723.75
26027	20.678	5.1818	0.1	703.58
26028	20.401	5.0909	0.1	764.66
26029	20.493	5.1818	0.1	744.44
26030	20.217	5.0909	0.1	805.74
26031	20.309	5.1818	0.1	785.47
26032	20.032	5.0909	0.1	846.99
26033	20.124	5.1818	0.1	826.67
26034	19.848	5.0909	0.1	888.41
26035	19.94	5.1818	0.1	868.04
26036	19.663	5.0909	0.1	930.01
26037	19.755	5.1818	0.1	909.58
26038	19.478	5.0909	0.1	971.79
26039	19.571	5.1818	0.1	951.3
26040	19.294	5.0909	0.1	1013.8
26041	19.386	5.1818	0.1	993.19
26042	19.109	5.0909	0.1	1055.9
26043	19.202	5.1818	0.1	1035.3
26044	18.925	5.0909	0.1	1098.2
26045	19.017	5.1818	0.1	1077.5
26046	18.74	5.0909	0.1	1140.7
26047	18.833	5.1818	0.1	1120.
26048	18.556	5.0909	0.1	1183.4
26049	18.648	5.1818	0.1	1162.6
26050	18.371	5.0909	0.1	1226.3
26051	18.463	5.1818	0.1	1205.4
26052	18.187	5.0909	0.1	1269.4
26053	18.279	5.1818	0.1	1248.4
26054	18.002	5.0909	0.1	1312.7
26055	18.094	5.1818	0.1	1291.6
26056	17.817	5.0909	0.1	1356.1
26057	17.91	5.1818	0.1	1335.
26058	17.633	5.0909	0.1	1399.8
26059	17.725	5.1818	0.1	1378.6
26060	17.448	5.0909	0.1	1443.7
26061	17.541	5.1818	0.1	1422.3
26062	17.264	5.0909	0.1	1487.7
26063	17.356	5.1818	0.1	1466.3
26064	17.079	5.0909	0.1	1532.
26065	17.172	5.1818	0.1	1510.5
26066	16.895	5.0909	0.1	1576.4
26067	16.987	5.1818	0.1	1554.9
26068	16.71	5.0909	0.1	1621.1
26069	16.802	5.1818	0.1	1599.4
26070	16.526	5.0909	0.1	1665.9
26071	16.618	5.1818	0.1	1644.2
26072	16.341	5.0909	0.1	1710.9
26073	16.433	5.1818	0.1	1689.2
26074	16.157	5.0909	0.1	1756.2
26075	16.249	5.1818	0.1	1734.3
26076	15.972	5.0909	0.1	1801.6
26077	16.064	5.1818	0.1	1779.7
26078	15.787	5.0909	0.1	1847.3
26079	15.88	5.1818	0.1	1825.3
26080	15.603	5.0909	0.1	1893.1
26081	15.695	5.1818	0.1	1871.
26082	15.418	5.0909	0.1	1939.1
26083	15.511	5.1818	0.1	1917.
26084	15.234	5.0909	0.1	1985.4
26085	15.326	5.1818	0.1	1963.1
26086	15.049	5.0909	0.1	2031.8
26087	15.141	5.1818	0.1	2009.5
26088	14.865	5.0909	0.1	2078.3
26089	14.957	5.1818	0.1	2056.
26090	14.68	5.0909	0.1	2125.1
26091	14.772	5.1818	0.1	2102.6
26092	14.496	5.0909	0.1	2171.9
26093	14.588	5.1818	0.1	2149.4
26094	14.311	5.0909	0.1	2218.9
26095	14.403	5.1818	0.1	2196.4
26096	14.126	5.0909	0.1	2266.
26097	14.219	5.1818	0.1	2243.4
26098	13.942	5.0909	0.1	2313.2
26099	14.034	5.1818	0.1	2290.5
26100	13.757	5.0909	0.1	2360.3
26101	13.85	5.1818	0.1	2337.6
26102	13.573	5.0909	0.1	2407.5
26103	13.665	5.1818	0.1	2384.6
26104	13.388	5.0909	0.1	2454.4
26105	13.48	5.1818	0.1	2431.6
26106	13.204	5.0909	0.1	2501.1
26107	13.296	5.1818	0.1	2478.2
26108	13.019	5.0909	0.1	2547.5
26109	13.111	5.1818	0.1	2524.5
26110	12.835	5.0909	0.1	2593.2
26111	12.927	5.1818	0.1	2570.2
26112	12.65	5.0909	0.1	2638.2
26113	12.742	5.1818	0.1	2615.1
26114	12.465	5.0909	0.1	2681.9
26115	12.558	5.1818	0.1	2658.8
26116	12.281	5.0909	0.1	2724.2
26117	12.373	5.1818	0.1	2701.1
26118	12.096	5.0909	0.1	2764.4
26119	12.189	5.1818	0.1	2741.4
26120	11.912	5.0909	0.1	2802.
26121	12.004	5.1818	0.1	2779.
26122	11.727	5.0909	0.1	2836.
26123	11.82	5.1818	0.1	2813.1
26124	11.543	5.0909	0.1	2865.5
26125	11.635	5.1818	0.1	2842.8
26126	11.358	5.0909	0.1	2889.1
26127	11.45	5.1818	0.1	2866.7
26128	11.174	5.0909	0.1	2905.3
26129	11.266	5.1818	0.1	2883.2
26130	10.989	5.0909	0.1	2911.9
26131	11.081	5.1818	0.1	2890.4
26132	10.804	5.0909	0.1	2906.6
26133	10.897	5.1818	0.1	2885.9
26134	10.62	5.0909	0.1	2886.4
26135	10.712	5.1818	0.1	2866.7
26136	10.435	5.0909	0.1	2847.8
26137	10.528	5.1818	0.1	2829.2
26138	10.251	5.0909	0.1	2786.9
26139	10.343	5.1818	0.1	2769.6
26140	10.066	5.0909	0.1	2699.3
26141	10.159	5.1818	0.1	2683.2
26142	9.8817	5.0909	0.1	2581.4
26143	9.974	5.1818	0.1	2565.9
26144	9.6972	5.0909	0.1	2431.3
26145	9.7894	5.1818	0.1	2414.5
26146	9.5126	5.0909	0.1	2252.5
26147	9.6049	5.1818	0.1	2229.6
26148	9.328	5.0909	0.1	2058.6
26149	9.4203	5.1818	0.1	2020.2
26150	9.1435	5.0909	0.1	1907.9
26151	9.2358	5.1818	0.1	1809.9
26152	9.0512	5.1818	0.1	1692.5
26153	8.9589	5.0909	0.1	1530.7
26154	23.723	5.2727	0.1	57.63
26155	23.815	5.3636	0.1	39.211
26156	23.908	5.2727	0.1	22.345
26157	23.539	5.2727	0.1	94.278
26158	23.631	5.3636	0.1	75.177
26159	23.354	5.2727	0.1	131.42
26160	23.446	5.3636	0.1	111.95
26161	23.17	5.2727	0.1	169.04
26162	23.262	5.3636	0.1	149.34
26163	22.985	5.2727	0.1	207.11
26164	23.077	5.3636	0.1	187.29
26165	22.8	5.2727	0.1	245.56
26166	22.893	5.3636	0.1	225.69
26167	22.616	5.2727	0.1	284.35
26168	22.708	5.3636	0.1	264.45
26169	22.431	5.2727	0.1	323.41
26170	22.524	5.3636	0.1	303.49
26171	22.247	5.2727	0.1	362.7
26172	22.339	5.3636	0.1	342.78
26173	22.062	5.2727	0.1	402.2
26174	22.154	5.3636	0.1	382.28
26175	21.878	5.2727	0.1	441.89
26176	21.97	5.3636	0.1	421.96
26177	21.693	5.2727	0.1	481.75
26178	21.785	5.3636	0.1	461.82
26179	21.509	5.2727	0.1	521.78
26180	21.601	5.3636	0.1	501.83
26181	21.324	5.2727	0.1	561.97
26182	21.416	5.3636	0.1	542.01
26183	21.139	5.2727	0.1	602.32
26184	21.232	5.3636	0.1	582.33
26185	20.955	5.2727	0.1	642.83
26186	21.047	5.3636	0.1	622.81
26187	20.77	5.2727	0.1	683.49
26188	20.863	5.3636	0.1	663.44
26189	20.586	5.2727	0.1	724.32
26190	20.678	5.3636	0.1	704.22
26191	20.401	5.2727	0.1	765.31
26192	20.493	5.3636	0.1	745.17
26193	20.217	5.2727	0.1	806.45
26194	20.309	5.3636	0.1	786.27
26195	20.032	5.2727	0.1	847.77
26196	20.124	5.3636	0.1	827.53
26197	19.848	5.2727	0.1	889.26
26198	19.94	5.3636	0.1	868.96
26199	19.663	5.2727	0.1	930.91
26200	19.755	5.3636	0.1	910.55
26201	19.478	5.2727	0.1	972.74
26202	19.571	5.3636	0.1	952.32
26203	19.294	5.2727	0.1	1014.7
26204	19.386	5.3636	0.1	994.26
26205	19.109	5.2727	0.1	1056.9
26206	19.202	5.3636	0.1	1036.4
26207	18.925	5.2727	0.1	1099.3
26208	19.017	5.3636	0.1	1078.7
26209	18.74	5.2727	0.1	1141.9
26210	18.833	5.3636	0.1	1121.2
26211	18.556	5.2727	0.1	1184.6
26212	18.648	5.3636	0.1	1163.8
26213	18.371	5.2727	0.1	1227.5
26214	18.463	5.3636	0.1	1206.7
26215	18.187	5.2727	0.1	1270.6
26216	18.279	5.3636	0.1	1249.7
26217	18.002	5.2727	0.1	1313.9
26218	18.094	5.3636	0.1	1292.9
26219	17.817	5.2727	0.1	1357.4
26220	17.91	5.3636	0.1	1336.4
26221	17.633	5.2727	0.1	1401.1
26222	17.725	5.3636	0.1	1380.
26223	17.448	5.2727	0.1	1445.
26224	17.541	5.3636	0.1	1423.8
26225	17.264	5.2727	0.1	1489.1
26226	17.356	5.3636	0.1	1467.8
26227	17.079	5.2727	0.1	1533.4
26228	17.172	5.3636	0.1	1512.
26229	16.895	5.2727	0.1	1577.9
26230	16.987	5.3636	0.1	1556.4
26231	16.71	5.2727	0.1	1622.6
26232	16.802	5.3636	0.1	1601.
26233	16.526	5.2727	0.1	1667.5
26234	16.618	5.3636	0.1	1645.8
26235	16.341	5.2727	0.1	1712.6
26236	16.433	5.3636	0.1	1690.8
26237	16.157	5.2727	0.1	1757.9
26238	16.249	5.3636	0.1	1736.
26239	15.972	5.2727	0.1	1803.4
26240	16.064	5.3636	0.1	1781.5
26241	15.787	5.2727	0.1	1849.
26242	15.88	5.3636	0.1	1827.1
26243	15.603	5.2727	0.1	1894.9
26244	15.695	5.3636	0.1	1872.9
26245	15.418	5.2727	0.1	1941.
26246	15.511	5.3636	0.1	1918.9
26247	15.234	5.2727	0.1	1987.2
26248	15.326	5.3636	0.1	1965.1
26249	15.049	5.2727	0.1	2033.7
26250	15.141	5.3636	0.1	2011.4
26251	14.865	5.2727	0.1	2080.3
26252	14.957	5.3636	0.1	2058.
26253	14.68	5.2727	0.1	2127.
26254	14.772	5.3636	0.1	2104.6
26255	14.496	5.2727	0.1	2173.9
26256	14.588	5.3636	0.1	2151.5
26257	14.311	5.2727	0.1	2220.8
26258	14.403	5.3636	0.1	2198.4
26259	14.126	5.2727	0.1	2267.9
26260	14.219	5.3636	0.1	2245.4
26261	13.942	5.2727	0.1	2314.9
26262	14.034	5.3636	0.1	2292.4
26263	13.757	5.2727	0.1	2361.9
26264	13.85	5.3636	0.1	2339.3
26265	13.573	5.2727	0.1	2408.8
26266	13.665	5.3636	0.1	2386.2
26267	13.388	5.2727	0.1	2455.4
26268	13.48	5.3636	0.1	2432.8
26269	13.204	5.2727	0.1	2501.6
26270	13.296	5.3636	0.1	2479.1
26271	13.019	5.2727	0.1	2547.2
26272	13.111	5.3636	0.1	2524.8
26273	12.835	5.2727	0.1	2592.1
26274	12.927	5.3636	0.1	2569.8
26275	12.65	5.2727	0.1	2635.8
26276	12.742	5.3636	0.1	2613.7
26277	12.465	5.2727	0.1	2678.
26278	12.558	5.3636	0.1	2656.2
26279	12.281	5.2727	0.1	2718.3
26280	12.373	5.3636	0.1	2696.8
26281	12.096	5.2727	0.1	2755.9
26282	12.189	5.3636	0.1	2734.9
26283	11.912	5.2727	0.1	2790.1
26284	12.004	5.3636	0.1	2769.7
26285	11.727	5.2727	0.1	2819.9
26286	11.82	5.3636	0.1	2800.4
26287	11.543	5.2727	0.1	2844.
26288	11.635	5.3636	0.1	2825.6
26289	11.358	5.2727	0.1	2860.8
26290	11.45	5.3636	0.1	2844.
26291	11.174	5.2727	0.1	2868.3
26292	11.266	5.3636	0.1	2853.5
26293	10.989	5.2727	0.1	2864.3
26294	11.081	5.3636	0.1	2852.
26295	10.804	5.2727	0.1	2845.6
26296	10.897	5.3636	0.1	2836.6
26297	10.62	5.2727	0.1	2808.9
26298	10.712	5.3636	0.1	2803.9
26299	10.435	5.2727	0.1	2750.
26300	10.528	5.3636	0.1	2750.
26301	10.251	5.2727	0.1	2664.3
26302	10.343	5.3636	0.1	2670.4
26303	10.066	5.2727	0.1	2547.
26304	10.159	5.3636	0.1	2560.
26305	9.8817	5.2727	0.1	2394.1
26306	9.974	5.3636	0.1	2414.1
26307	9.6972	5.2727	0.1	2204.3
26308	9.7894	5.3636	0.1	2229.5
26309	9.5126	5.2727	0.1	1983.
26310	9.6049	5.3636	0.1	2006.9
26311	9.328	5.2727	0.1	1748.5
26312	9.4203	5.3636	0.1	1756.4
26313	9.1435	5.2727	0.1	1561.7
26314	9.2358	5.3636	0.1	1506.3
26315	9.0512	5.3636	0.1	1349.9
26316	8.9589	5.2727	0.1	1234.7
26317	23.723	5.4545	0.1	56.759
26318	23.815	5.5455	0.1	38.503
26319	23.908	5.4545	0.1	22.051
26320	23.539	5.4545	0.1	92.916
26321	23.631	5.5455	0.1	73.739
26322	23.354	5.4545	0.1	129.97
26323	23.446	5.5455	0.1	110.44
26324	23.17	5.4545	0.1	167.71
26325	23.262	5.5455	0.1	148.05
26326	22.985	5.4545	0.1	206.
26327	23.077	5.5455	0.1	186.3
26328	22.8	5.4545	0.1	244.69
26329	22.893	5.5455	0.1	224.98
26330	22.616	5.4545	0.1	283.71
26331	22.708	5.5455	0.1	264.
26332	22.431	5.4545	0.1	322.98
26333	22.524	5.5455	0.1	303.28
26334	22.247	5.4545	0.1	362.46
26335	22.339	5.5455	0.1	342.76
26336	22.062	5.4545	0.1	402.14
26337	22.154	5.5455	0.1	382.43
26338	21.878	5.4545	0.1	441.98
26339	21.97	5.5455	0.1	422.27
26340	21.693	5.4545	0.1	481.98
26341	21.785	5.5455	0.1	462.26
26342	21.509	5.4545	0.1	522.13
26343	21.601	5.5455	0.1	502.39
26344	21.324	5.4545	0.1	562.43
26345	21.416	5.5455	0.1	542.67
26346	21.139	5.4545	0.1	602.88
26347	21.232	5.5455	0.1	583.09
26348	20.955	5.4545	0.1	643.48
26349	21.047	5.5455	0.1	623.65
26350	20.77	5.4545	0.1	684.23
26351	20.863	5.5455	0.1	664.36
26352	20.586	5.4545	0.1	725.13
26353	20.678	5.5455	0.1	705.22
26354	20.401	5.4545	0.1	766.18
26355	20.493	5.5455	0.1	746.22
26356	20.217	5.4545	0.1	807.4
26357	20.309	5.5455	0.1	787.38
26358	20.032	5.4545	0.1	848.77
26359	20.124	5.5455	0.1	828.7
26360	19.848	5.4545	0.1	890.31
26361	19.94	5.5455	0.1	870.17
26362	19.663	5.4545	0.1	932.01
26363	19.755	5.5455	0.1	911.81
26364	19.478	5.4545	0.1	973.89
26365	19.571	5.5455	0.1	953.62
26366	19.294	5.4545	0.1	1015.9
26367	19.386	5.5455	0.1	995.6
26368	19.109	5.4545	0.1	1058.2
26369	19.202	5.5455	0.1	1037.7
26370	18.925	5.4545	0.1	1100.6
26371	19.017	5.5455	0.1	1080.1
26372	18.74	5.4545	0.1	1143.2
26373	18.833	5.5455	0.1	1122.6
26374	18.556	5.4545	0.1	1185.9
26375	18.648	5.5455	0.1	1165.3
26376	18.371	5.4545	0.1	1228.9
26377	18.463	5.5455	0.1	1208.2
26378	18.187	5.4545	0.1	1272.
26379	18.279	5.5455	0.1	1251.2
26380	18.002	5.4545	0.1	1315.4
26381	18.094	5.5455	0.1	1294.5
26382	17.817	5.4545	0.1	1358.9
26383	17.91	5.5455	0.1	1337.9
26384	17.633	5.4545	0.1	1402.6
26385	17.725	5.5455	0.1	1381.6
26386	17.448	5.4545	0.1	1446.6
26387	17.541	5.5455	0.1	1425.4
26388	17.264	5.4545	0.1	1490.7
26389	17.356	5.5455	0.1	1469.5
26390	17.079	5.4545	0.1	1535.
26391	17.172	5.5455	0.1	1513.7
26392	16.895	5.4545	0.1	1579.5
26393	16.987	5.5455	0.1	1558.1
26394	16.71	5.4545	0.1	1624.3
26395	16.802	5.5455	0.1	1602.8
26396	16.526	5.4545	0.1	1669.2
26397	16.618	5.5455	0.1	1647.6
26398	16.341	5.4545	0.1	1714.3
26399	16.433	5.5455	0.1	1692.7
26400	16.157	5.4545	0.1	1759.7
26401	16.249	5.5455	0.1	1737.9
26402	15.972	5.4545	0.1	1805.2
26403	16.064	5.5455	0.1	1783.4
26404	15.787	5.4545	0.1	1850.9
26405	15.88	5.5455	0.1	1829.
26406	15.603	5.4545	0.1	1896.9
26407	15.695	5.5455	0.1	1874.9
26408	15.418	5.4545	0.1	1943.
26409	15.511	5.5455	0.1	1920.9
26410	15.234	5.4545	0.1	1989.3
26411	15.326	5.5455	0.1	1967.2
26412	15.049	5.4545	0.1	2035.7
26413	15.141	5.5455	0.1	2013.6
26414	14.865	5.4545	0.1	2082.4
26415	14.957	5.5455	0.1	2060.1
26416	14.68	5.4545	0.1	2129.1
26417	14.772	5.5455	0.1	2106.8
26418	14.496	5.4545	0.1	2176.
26419	14.588	5.5455	0.1	2153.7
26420	14.311	5.4545	0.1	2222.9
26421	14.403	5.5455	0.1	2200.6
26422	14.126	5.4545	0.1	2269.9
26423	14.219	5.5455	0.1	2247.5
26424	13.942	5.4545	0.1	2316.8
26425	14.034	5.5455	0.1	2294.5
26426	13.757	5.4545	0.1	2363.7
26427	13.85	5.5455	0.1	2341.3
26428	13.573	5.4545	0.1	2410.3
26429	13.665	5.5455	0.1	2388.
26430	13.388	5.4545	0.1	2456.6
26431	13.48	5.5455	0.1	2434.4
26432	13.204	5.4545	0.1	2502.3
26433	13.296	5.5455	0.1	2480.3
26434	13.019	5.4545	0.1	2547.4
26435	13.111	5.5455	0.1	2525.5
26436	12.835	5.4545	0.1	2591.4
26437	12.927	5.5455	0.1	2569.9
26438	12.65	5.4545	0.1	2634.1
26439	12.742	5.5455	0.1	2612.9
26440	12.465	5.4545	0.1	2674.9
26441	12.558	5.5455	0.1	2654.3
26442	12.281	5.4545	0.1	2713.4
26443	12.373	5.5455	0.1	2693.5
26444	12.096	5.4545	0.1	2748.8
26445	12.189	5.5455	0.1	2729.8
26446	11.912	5.4545	0.1	2780.1
26447	12.004	5.5455	0.1	2762.3
26448	11.727	5.4545	0.1	2806.2
26449	11.82	5.5455	0.1	2790.
26450	11.543	5.4545	0.1	2825.6
26451	11.635	5.5455	0.1	2811.6
26452	11.358	5.4545	0.1	2836.7
26453	11.45	5.5455	0.1	2825.3
26454	11.174	5.4545	0.1	2837.1
26455	11.266	5.5455	0.1	2829.1
26456	10.989	5.4545	0.1	2824.1
26457	11.081	5.5455	0.1	2820.4
26458	10.804	5.4545	0.1	2794.6
26459	10.897	5.5455	0.1	2796.3
26460	10.62	5.4545	0.1	2744.6
26461	10.712	5.5455	0.1	2753.1
26462	10.435	5.4545	0.1	2669.7
26463	10.528	5.5455	0.1	2686.5
26464	10.251	5.4545	0.1	2564.9
26465	10.343	5.5455	0.1	2591.8
26466	10.066	5.4545	0.1	2425.1
26467	10.159	5.5455	0.1	2463.7
26468	9.8817	5.4545	0.1	2246.2
26469	9.974	5.5455	0.1	2297.2
26470	9.6972	5.4545	0.1	2026.2
26471	9.7894	5.5455	0.1	2088.7
26472	9.5126	5.4545	0.1	1769.7
26473	9.6049	5.5455	0.1	1837.7
26474	9.328	5.4545	0.1	1494.9
26475	9.4203	5.5455	0.1	1551.6
26476	9.1435	5.4545	0.1	1262.5
26477	9.2358	5.5455	0.1	1255.8
26478	9.0512	5.5455	0.1	1042.
26479	8.9589	5.4545	0.1	967.16
26480	23.723	5.6364	0.1	55.565
26481	23.815	5.7273	0.1	37.341
26482	23.908	5.6364	0.1	21.529
26483	23.539	5.6364	0.1	91.445
26484	23.631	5.7273	0.1	72.639
26485	23.354	5.6364	0.1	128.74
26486	23.446	5.7273	0.1	110.03
26487	23.17	5.6364	0.1	166.85
26488	23.262	5.7273	0.1	148.26
26489	22.985	5.6364	0.1	205.48
26490	23.077	5.7273	0.1	187.
26491	22.8	5.6364	0.1	244.47
26492	22.893	5.7273	0.1	226.06
26493	22.616	5.6364	0.1	283.73
26494	22.708	5.7273	0.1	265.38
26495	22.431	5.6364	0.1	323.2
26496	22.524	5.7273	0.1	304.89
26497	22.247	5.6364	0.1	362.86
26498	22.339	5.7273	0.1	344.57
26499	22.062	5.6364	0.1	402.68
26500	22.154	5.7273	0.1	384.4
26501	21.878	5.6364	0.1	442.65
26502	21.97	5.7273	0.1	424.37
26503	21.693	5.6364	0.1	482.77
26504	21.785	5.7273	0.1	464.47
26505	21.509	5.6364	0.1	523.02
26506	21.601	5.7273	0.1	504.7
26507	21.324	5.6364	0.1	563.41
26508	21.416	5.7273	0.1	545.05
26509	21.139	5.6364	0.1	603.94
26510	21.232	5.7273	0.1	585.54
26511	20.955	5.6364	0.1	644.61
26512	21.047	5.7273	0.1	626.16
26513	20.77	5.6364	0.1	685.42
26514	20.863	5.7273	0.1	666.92
26515	20.586	5.6364	0.1	726.38
26516	20.678	5.7273	0.1	707.81
26517	20.401	5.6364	0.1	767.48
26518	20.493	5.7273	0.1	748.85
26519	20.217	5.6364	0.1	808.74
26520	20.309	5.7273	0.1	790.04
26521	20.032	5.6364	0.1	850.16
26522	20.124	5.7273	0.1	831.38
26523	19.848	5.6364	0.1	891.73
26524	19.94	5.7273	0.1	872.87
26525	19.663	5.6364	0.1	933.47
26526	19.755	5.7273	0.1	914.53
26527	19.478	5.6364	0.1	975.38
26528	19.571	5.7273	0.1	956.34
26529	19.294	5.6364	0.1	1017.5
26530	19.386	5.7273	0.1	998.33
26531	19.109	5.6364	0.1	1059.7
26532	19.202	5.7273	0.1	1040.5
26533	18.925	5.6364	0.1	1102.1
26534	19.017	5.7273	0.1	1082.8
26535	18.74	5.6364	0.1	1144.8
26536	18.833	5.7273	0.1	1125.3
26537	18.556	5.6364	0.1	1187.6
26538	18.648	5.7273	0.1	1168.
26539	18.371	5.6364	0.1	1230.5
26540	18.463	5.7273	0.1	1210.9
26541	18.187	5.6364	0.1	1273.7
26542	18.279	5.7273	0.1	1254.
26543	18.002	5.6364	0.1	1317.1
26544	18.094	5.7273	0.1	1297.2
26545	17.817	5.6364	0.1	1360.6
26546	17.91	5.7273	0.1	1340.7
26547	17.633	5.6364	0.1	1404.4
26548	17.725	5.7273	0.1	1384.3
26549	17.448	5.6364	0.1	1448.4
26550	17.541	5.7273	0.1	1428.2
26551	17.264	5.6364	0.1	1492.5
26552	17.356	5.7273	0.1	1472.2
26553	17.079	5.6364	0.1	1536.9
26554	17.172	5.7273	0.1	1516.5
26555	16.895	5.6364	0.1	1581.4
26556	16.987	5.7273	0.1	1560.9
26557	16.71	5.6364	0.1	1626.2
26558	16.802	5.7273	0.1	1605.6
26559	16.526	5.6364	0.1	1671.2
26560	16.618	5.7273	0.1	1650.4
26561	16.341	5.6364	0.1	1716.3
26562	16.433	5.7273	0.1	1695.5
26563	16.157	5.6364	0.1	1761.7
26564	16.249	5.7273	0.1	1740.8
26565	15.972	5.6364	0.1	1807.3
26566	16.064	5.7273	0.1	1786.3
26567	15.787	5.6364	0.1	1853.
26568	15.88	5.7273	0.1	1831.9
26569	15.603	5.6364	0.1	1899.
26570	15.695	5.7273	0.1	1877.8
26571	15.418	5.6364	0.1	1945.2
26572	15.511	5.7273	0.1	1923.9
26573	15.234	5.6364	0.1	1991.5
26574	15.326	5.7273	0.1	1970.1
26575	15.049	5.6364	0.1	2038.
26576	15.141	5.7273	0.1	2016.5
26577	14.865	5.6364	0.1	2084.6
26578	14.957	5.7273	0.1	2063.1
26579	14.68	5.6364	0.1	2131.4
26580	14.772	5.7273	0.1	2109.8
26581	14.496	5.6364	0.1	2178.3
26582	14.588	5.7273	0.1	2156.6
26583	14.311	5.6364	0.1	2225.2
26584	14.403	5.7273	0.1	2203.5
26585	14.126	5.6364	0.1	2272.1
26586	14.219	5.7273	0.1	2250.4
26587	13.942	5.6364	0.1	2319.
26588	14.034	5.7273	0.1	2297.3
26589	13.757	5.6364	0.1	2365.7
26590	13.85	5.7273	0.1	2344.
26591	13.573	5.6364	0.1	2412.1
26592	13.665	5.7273	0.1	2390.6
26593	13.388	5.6364	0.1	2458.1
26594	13.48	5.7273	0.1	2436.7
26595	13.204	5.6364	0.1	2503.5
26596	13.296	5.7273	0.1	2482.3
26597	13.019	5.6364	0.1	2548.
26598	13.111	5.7273	0.1	2527.2
26599	12.835	5.6364	0.1	2591.4
26600	12.927	5.7273	0.1	2570.9
26601	12.65	5.6364	0.1	2633.2
26602	12.742	5.7273	0.1	2613.3
26603	12.465	5.6364	0.1	2672.9
26604	12.558	5.7273	0.1	2653.8
26605	12.281	5.6364	0.1	2709.9
26606	12.373	5.7273	0.1	2691.8
26607	12.096	5.6364	0.1	2743.4
26608	12.189	5.7273	0.1	2726.6
26609	11.912	5.6364	0.1	2772.3
26610	12.004	5.7273	0.1	2757.3
26611	11.727	5.6364	0.1	2795.4
26612	11.82	5.7273	0.1	2782.7
26613	11.543	5.6364	0.1	2811.2
26614	11.635	5.7273	0.1	2801.3
26615	11.358	5.6364	0.1	2817.6
26616	11.45	5.7273	0.1	2811.4
26617	11.174	5.6364	0.1	2812.3
26618	11.266	5.7273	0.1	2810.8
26619	10.989	5.6364	0.1	2792.5
26620	11.081	5.7273	0.1	2796.9
26621	10.804	5.6364	0.1	2754.6
26622	10.897	5.7273	0.1	2766.4
26623	10.62	5.6364	0.1	2694.7
26624	10.712	5.7273	0.1	2715.7
26625	10.435	5.6364	0.1	2608.1
26626	10.528	5.7273	0.1	2640.2
26627	10.251	5.6364	0.1	2489.8
26628	10.343	5.7273	0.1	2535.4
26629	10.066	5.6364	0.1	2334.6
26630	10.159	5.7273	0.1	2395.9
26631	9.8817	5.6364	0.1	2137.9
26632	9.974	5.7273	0.1	2216.8
26633	9.6972	5.6364	0.1	1897.1
26634	9.7894	5.7273	0.1	1994.
26635	9.5126	5.6364	0.1	1613.8
26636	9.6049	5.7273	0.1	1725.5
26637	9.328	5.6364	0.1	1299.5
26638	9.4203	5.7273	0.1	1414.1
26639	9.1435	5.6364	0.1	1004.2
26640	9.2358	5.7273	0.1	1072.4
26641	9.0512	5.7273	0.1	767.38
26642	8.9589	5.6364	0.1	711.8
26643	23.723	5.8182	0.1	55.026
26644	23.815	5.9091	0.1	34.605
26645	23.908	5.8182	0.1	20.592
26646	23.539	5.8182	0.1	91.922
26647	23.631	5.9091	0.1	69.339
26648	23.354	5.8182	0.1	130.18
26649	23.446	5.9091	0.1	106.11
26650	23.17	5.8182	0.1	168.96
26651	23.262	5.9091	0.1	143.8
26652	22.985	5.8182	0.1	208.06
26653	23.077	5.9091	0.1	182.09
26654	22.8	5.8182	0.1	247.4
26655	22.893	5.9091	0.1	220.8
26656	22.616	5.8182	0.1	286.93
26657	22.708	5.9091	0.1	259.84
26658	22.431	5.8182	0.1	326.62
26659	22.524	5.9091	0.1	299.15
26660	22.247	5.8182	0.1	366.44
26661	22.339	5.9091	0.1	338.68
26662	22.062	5.8182	0.1	406.39
26663	22.154	5.9091	0.1	378.41
26664	21.878	5.8182	0.1	446.47
26665	21.97	5.9091	0.1	418.31
26666	21.693	5.8182	0.1	486.67
26667	21.785	5.9091	0.1	458.38
26668	21.509	5.8182	0.1	526.99
26669	21.601	5.9091	0.1	498.61
26670	21.324	5.8182	0.1	567.43
26671	21.416	5.9091	0.1	538.99
26672	21.139	5.8182	0.1	608.
26673	21.232	5.9091	0.1	579.51
26674	20.955	5.8182	0.1	648.7
26675	21.047	5.9091	0.1	620.19
26676	20.77	5.8182	0.1	689.53
26677	20.863	5.9091	0.1	661.01
26678	20.586	5.8182	0.1	730.5
26679	20.678	5.9091	0.1	701.99
26680	20.401	5.8182	0.1	771.61
26681	20.493	5.9091	0.1	743.11
26682	20.217	5.8182	0.1	812.87
26683	20.309	5.9091	0.1	784.4
26684	20.032	5.8182	0.1	854.28
26685	20.124	5.9091	0.1	825.84
26686	19.848	5.8182	0.1	895.85
26687	19.94	5.9091	0.1	867.44
26688	19.663	5.8182	0.1	937.58
26689	19.755	5.9091	0.1	909.21
26690	19.478	5.8182	0.1	979.47
26691	19.571	5.9091	0.1	951.15
26692	19.294	5.8182	0.1	1021.5
26693	19.386	5.9091	0.1	993.26
26694	19.109	5.8182	0.1	1063.8
26695	19.202	5.9091	0.1	1035.5
26696	18.925	5.8182	0.1	1106.2
26697	19.017	5.9091	0.1	1078.
26698	18.74	5.8182	0.1	1148.8
26699	18.833	5.9091	0.1	1120.6
26700	18.556	5.8182	0.1	1191.5
26701	18.648	5.9091	0.1	1163.5
26702	18.371	5.8182	0.1	1234.5
26703	18.463	5.9091	0.1	1206.5
26704	18.187	5.8182	0.1	1277.7
26705	18.279	5.9091	0.1	1249.7
26706	18.002	5.8182	0.1	1321.
26707	18.094	5.9091	0.1	1293.1
26708	17.817	5.8182	0.1	1364.5
26709	17.91	5.9091	0.1	1336.7
26710	17.633	5.8182	0.1	1408.3
26711	17.725	5.9091	0.1	1380.5
26712	17.448	5.8182	0.1	1452.2
26713	17.541	5.9091	0.1	1424.5
26714	17.264	5.8182	0.1	1496.3
26715	17.356	5.9091	0.1	1468.7
26716	17.079	5.8182	0.1	1540.7
26717	17.172	5.9091	0.1	1513.1
26718	16.895	5.8182	0.1	1585.2
26719	16.987	5.9091	0.1	1557.7
26720	16.71	5.8182	0.1	1630.
26721	16.802	5.9091	0.1	1602.5
26722	16.526	5.8182	0.1	1674.9
26723	16.618	5.9091	0.1	1647.5
26724	16.341	5.8182	0.1	1720.1
26725	16.433	5.9091	0.1	1692.7
26726	16.157	5.8182	0.1	1765.5
26727	16.249	5.9091	0.1	1738.2
26728	15.972	5.8182	0.1	1811.
26729	16.064	5.9091	0.1	1783.8
26730	15.787	5.8182	0.1	1856.8
26731	15.88	5.9091	0.1	1829.7
26732	15.603	5.8182	0.1	1902.8
26733	15.695	5.9091	0.1	1875.7
26734	15.418	5.8182	0.1	1948.9
26735	15.511	5.9091	0.1	1922.
26736	15.234	5.8182	0.1	1995.2
26737	15.326	5.9091	0.1	1968.4
26738	15.049	5.8182	0.1	2041.7
26739	15.141	5.9091	0.1	2015.
26740	14.865	5.8182	0.1	2088.4
26741	14.957	5.9091	0.1	2061.8
26742	14.68	5.8182	0.1	2135.1
26743	14.772	5.9091	0.1	2108.7
26744	14.496	5.8182	0.1	2181.9
26745	14.588	5.9091	0.1	2155.6
26746	14.311	5.8182	0.1	2228.8
26747	14.403	5.9091	0.1	2202.7
26748	14.126	5.8182	0.1	2275.7
26749	14.219	5.9091	0.1	2249.7
26750	13.942	5.8182	0.1	2322.4
26751	14.034	5.9091	0.1	2296.7
26752	13.757	5.8182	0.1	2369.
26753	13.85	5.9091	0.1	2343.6
26754	13.573	5.8182	0.1	2415.2
26755	13.665	5.9091	0.1	2390.1
26756	13.388	5.8182	0.1	2461.
26757	13.48	5.9091	0.1	2436.3
26758	13.204	5.8182	0.1	2506.
26759	13.296	5.9091	0.1	2481.8
26760	13.019	5.8182	0.1	2550.1
26761	13.111	5.9091	0.1	2526.5
26762	12.835	5.8182	0.1	2592.9
26763	12.927	5.9091	0.1	2570.
26764	12.65	5.8182	0.1	2634.
26765	12.742	5.9091	0.1	2612.
26766	12.465	5.8182	0.1	2672.8
26767	12.558	5.9091	0.1	2651.9
26768	12.281	5.8182	0.1	2708.6
26769	12.373	5.9091	0.1	2689.2
26770	12.096	5.8182	0.1	2740.6
26771	12.189	5.9091	0.1	2723.
26772	11.912	5.8182	0.1	2767.7
26773	12.004	5.9091	0.1	2752.3
26774	11.727	5.8182	0.1	2788.6
26775	11.82	5.9091	0.1	2776.
26776	11.543	5.8182	0.1	2801.6
26777	11.635	5.9091	0.1	2792.5
26778	11.358	5.8182	0.1	2804.7
26779	11.45	5.9091	0.1	2800.
26780	11.174	5.8182	0.1	2795.4
26781	11.266	5.9091	0.1	2796.1
26782	10.989	5.8182	0.1	2770.8
26783	11.081	5.9091	0.1	2778.2
26784	10.804	5.8182	0.1	2727.3
26785	10.897	5.9091	0.1	2742.8
26786	10.62	5.8182	0.1	2660.9
26787	10.712	5.9091	0.1	2686.2
26788	10.435	5.8182	0.1	2567.1
26789	10.528	5.9091	0.1	2603.9
26790	10.251	5.8182	0.1	2440.9
26791	10.343	5.9091	0.1	2491.
26792	10.066	5.8182	0.1	2277.3
26793	10.159	5.9091	0.1	2342.3
26794	9.8817	5.8182	0.1	2071.7
26795	9.974	5.9091	0.1	2152.8
26796	9.6972	5.8182	0.1	1820.9
26797	9.7894	5.9091	0.1	1918.4
26798	9.5126	5.8182	0.1	1523.6
26799	9.6049	5.9091	0.1	1636.4
26800	9.328	5.8182	0.1	1182.2
26801	9.4203	5.9091	0.1	1306.9
26802	9.1435	5.8182	0.1	814.66
26803	9.2358	5.9091	0.1	932.31
26804	8.9589	5.8182	0.1	460.94
26805	9.0512	5.9091	0.1	528.94
26806	0.18125	0.27273	0.1	4164.
26807	0.27187	0.18182	0.1	4441.7
26808	9.0625e-002	0.18182	0.1	3182.
26809	0.18125	9.0909e-002	0.1	3666.9
26810	0.18125	0.45455	0.1	4832.
26811	0.27187	0.36364	0.1	4815.7
26812	9.0625e-002	0.36364	0.1	4547.7
26813	0.18125	0.63636	0.1	5454.1
26814	0.27187	0.54545	0.1	5314.2
26815	9.0625e-002	0.54545	0.1	5431.7
26816	0.18125	0.81818	0.1	5922.4
26817	0.27187	0.72727	0.1	5748.7
26818	9.0625e-002	0.72727	0.1	6025.4
26819	0.18125	1.	0.1	6273.5
26820	0.27187	0.90909	0.1	6102.4
26821	9.0625e-002	0.90909	0.1	6442.7
26822	0.18125	1.1818	0.1	6539.3
26823	0.27187	1.0909	0.1	6383.2
26824	9.0625e-002	1.0909	0.1	6747.8
26825	0.18125	1.3636	0.1	6743.8
26826	0.27187	1.2727	0.1	6605.5
26827	9.0625e-002	1.2727	0.1	6977.2
26828	0.18125	1.5455	0.1	6902.8
26829	0.27187	1.4545	0.1	6781.8
26830	9.0625e-002	1.4545	0.1	7153.
26831	0.18125	1.7273	0.1	7027.2
26832	0.27187	1.6364	0.1	6922.
26833	9.0625e-002	1.6364	0.1	7289.4
26834	0.18125	1.9091	0.1	7124.7
26835	0.27187	1.8182	0.1	7033.2
26836	9.0625e-002	1.8182	0.1	7395.7
26837	0.18125	2.0909	0.1	7200.4
26838	0.27187	2.	0.1	7120.8
26839	9.0625e-002	2.	0.1	7478.4
26840	0.18125	2.2727	0.1	7258.2
26841	0.27187	2.1818	0.1	7189.
26842	9.0625e-002	2.1818	0.1	7542.
26843	0.18125	2.4545	0.1	7300.8
26844	0.27187	2.3636	0.1	7240.5
26845	9.0625e-002	2.3636	0.1	7589.8
26846	0.18125	2.6364	0.1	7330.
26847	0.27187	2.5455	0.1	7277.5
26848	9.0625e-002	2.5455	0.1	7623.9
26849	0.18125	2.8182	0.1	7347.1
26850	0.27187	2.7273	0.1	7301.4
26851	9.0625e-002	2.7273	0.1	7645.9
26852	0.18125	3.	0.1	7352.7
26853	0.27187	2.9091	0.1	7313.2
26854	9.0625e-002	2.9091	0.1	7656.6
26855	0.18125	3.1818	0.1	7347.1
26856	0.27187	3.0909	0.1	7313.2
26857	9.0625e-002	3.0909	0.1	7656.6
26858	0.18125	3.3636	0.1	7330.
26859	0.27187	3.2727	0.1	7301.4
26860	9.0625e-002	3.2727	0.1	7645.9
26861	0.18125	3.5455	0.1	7300.8
26862	0.27187	3.4545	0.1	7277.5
26863	9.0625e-002	3.4545	0.1	7623.9
26864	0.18125	3.7273	0.1	7258.2
26865	0.27187	3.6364	0.1	7240.5
26866	9.0625e-002	3.6364	0.1	7589.8
26867	0.18125	3.9091	0.1	7200.4
26868	0.27187	3.8182	0.1	7189.
26869	9.0625e-002	3.8182	0.1	7542.
26870	0.18125	4.0909	0.1	7124.7
26871	0.27187	4.	0.1	7120.8
26872	9.0625e-002	4.	0.1	7478.4
26873	0.18125	4.2727	0.1	7027.2
26874	0.27187	4.1818	0.1	7033.2
26875	9.0625e-002	4.1818	0.1	7395.7
26876	0.18125	4.4545	0.1	6902.8
26877	0.27187	4.3636	0.1	6922.
26878	9.0625e-002	4.3636	0.1	7289.4
26879	0.18125	4.6364	0.1	6743.8
26880	0.27187	4.5455	0.1	6781.8
26881	9.0625e-002	4.5455	0.1	7153.
26882	0.18125	4.8182	0.1	6539.3
26883	0.27187	4.7273	0.1	6605.5
26884	9.0625e-002	4.7273	0.1	6977.2
26885	0.18125	5.	0.1	6273.5
26886	0.27187	4.9091	0.1	6383.2
26887	9.0625e-002	4.9091	0.1	6747.8
26888	0.18125	5.1818	0.1	5922.4
26889	0.27187	5.0909	0.1	6102.4
26890	9.0625e-002	5.0909	0.1	6442.7
26891	0.18125	5.3636	0.1	5454.1
26892	0.27187	5.2727	0.1	5748.7
26893	9.0625e-002	5.2727	0.1	6025.4
26894	0.18125	5.5455	0.1	4832.
26895	0.27187	5.4545	0.1	5314.2
26896	9.0625e-002	5.4545	0.1	5431.7
26897	0.18125	5.7273	0.1	4164.
26898	0.27187	5.6364	0.1	4815.7
26899	9.0625e-002	5.6364	0.1	4547.7
26900	0.27187	5.8182	0.1	4441.7
26901	9.0625e-002	5.8182	0.1	3182.
26902	0.18125	5.9091	0.1	3666.9
26903	0.3625	0.27273	0.1	5078.
26904	0.45312	0.18182	0.1	5260.9
26905	0.3625	9.0909e-002	0.1	4854.9
26906	0.3625	0.45455	0.1	5297.8
26907	0.45312	0.36364	0.1	5330.8
26908	0.3625	0.63636	0.1	5616.
26909	0.45312	0.54545	0.1	5540.9
26910	0.3625	0.81818	0.1	5935.3
26911	0.45312	0.72727	0.1	5792.3
26912	0.3625	1.	0.1	6216.7
26913	0.45312	0.90909	0.1	6038.9
26914	0.3625	1.1818	0.1	6452.3
26915	0.45312	1.0909	0.1	6260.6
26916	0.3625	1.3636	0.1	6645.4
26917	0.45312	1.2727	0.1	6451.1
26918	0.3625	1.5455	0.1	6802.2
26919	0.45312	1.4545	0.1	6611.
26920	0.3625	1.7273	0.1	6928.6
26921	0.45312	1.6364	0.1	6743.3
26922	0.3625	1.9091	0.1	7029.8
26923	0.45312	1.8182	0.1	6851.4
26924	0.3625	2.0909	0.1	7109.7
26925	0.45312	2.	0.1	6938.5
26926	0.3625	2.2727	0.1	7171.4
26927	0.45312	2.1818	0.1	7007.3
26928	0.3625	2.4545	0.1	7217.3
26929	0.45312	2.3636	0.1	7059.9
26930	0.3625	2.6364	0.1	7249.
26931	0.45312	2.5455	0.1	7098.1
26932	0.3625	2.8182	0.1	7267.6
26933	0.45312	2.7273	0.1	7122.9
26934	0.3625	3.	0.1	7273.7
26935	0.45312	2.9091	0.1	7135.1
26936	0.3625	3.1818	0.1	7267.6
26937	0.45312	3.0909	0.1	7135.1
26938	0.3625	3.3636	0.1	7249.
26939	0.45312	3.2727	0.1	7122.9
26940	0.3625	3.5455	0.1	7217.3
26941	0.45312	3.4545	0.1	7098.1
26942	0.3625	3.7273	0.1	7171.4
26943	0.45312	3.6364	0.1	7059.9
26944	0.3625	3.9091	0.1	7109.7
26945	0.45312	3.8182	0.1	7007.3
26946	0.3625	4.0909	0.1	7029.8
26947	0.45312	4.	0.1	6938.5
26948	0.3625	4.2727	0.1	6928.6
26949	0.45312	4.1818	0.1	6851.4
26950	0.3625	4.4545	0.1	6802.2
26951	0.45312	4.3636	0.1	6743.3
26952	0.3625	4.6364	0.1	6645.4
26953	0.45312	4.5455	0.1	6611.
26954	0.3625	4.8182	0.1	6452.3
26955	0.45312	4.7273	0.1	6451.1
26956	0.3625	5.	0.1	6216.7
26957	0.45312	4.9091	0.1	6260.6
26958	0.3625	5.1818	0.1	5935.3
26959	0.45312	5.0909	0.1	6038.9
26960	0.3625	5.3636	0.1	5616.
26961	0.45312	5.2727	0.1	5792.3
26962	0.3625	5.5455	0.1	5297.8
26963	0.45312	5.4545	0.1	5540.9
26964	0.3625	5.7273	0.1	5078.
26965	0.45312	5.6364	0.1	5330.8
26966	0.45312	5.8182	0.1	5260.9
26967	0.3625	5.9091	0.1	4854.9
26968	0.54375	0.27273	0.1	5511.9
26969	0.63437	0.18182	0.1	5656.9
26970	0.54375	9.0909e-002	0.1	5401.1
26971	0.54375	0.45455	0.1	5569.9
26972	0.63437	0.36364	0.1	5636.3
26973	0.54375	0.63636	0.1	5714.
26974	0.63437	0.54545	0.1	5716.
26975	0.54375	0.81818	0.1	5894.9
26976	0.63437	0.72727	0.1	5843.2
26977	0.54375	1.	0.1	6083.
26978	0.63437	0.90909	0.1	5993.2
26979	0.54375	1.1818	0.1	6259.9
26980	0.63437	1.0909	0.1	6146.6
26981	0.54375	1.3636	0.1	6417.2
26982	0.63437	1.2727	0.1	6291.4
26983	0.54375	1.5455	0.1	6552.5
26984	0.63437	1.4545	0.1	6421.4
26985	0.54375	1.7273	0.1	6666.3
26986	0.63437	1.6364	0.1	6534.6
26987	0.54375	1.9091	0.1	6760.3
26988	0.63437	1.8182	0.1	6630.5
26989	0.54375	2.0909	0.1	6836.2
26990	0.63437	2.	0.1	6710.1
26991	0.54375	2.2727	0.1	6895.9
26992	0.63437	2.1818	0.1	6774.2
26993	0.54375	2.4545	0.1	6940.7
26994	0.63437	2.3636	0.1	6824.1
26995	0.54375	2.6364	0.1	6972.
26996	0.63437	2.5455	0.1	6860.6
26997	0.54375	2.8182	0.1	6990.4
26998	0.63437	2.7273	0.1	6884.6
26999	0.54375	3.	0.1	6996.5
27000	0.63437	2.9091	0.1	6896.4
27001	0.54375	3.1818	0.1	6990.4
27002	0.63437	3.0909	0.1	6896.4
27003	0.54375	3.3636	0.1	6972.
27004	0.63437	3.2727	0.1	6884.6
27005	0.54375	3.5455	0.1	6940.7
27006	0.63437	3.4545	0.1	6860.6
27007	0.54375	3.7273	0.1	6895.9
27008	0.63437	3.6364	0.1	6824.1
27009	0.54375	3.9091	0.1	6836.2
27010	0.63437	3.8182	0.1	6774.2
27011	0.54375	4.0909	0.1	6760.3
27012	0.63437	4.	0.1	6710.1
27013	0.54375	4.2727	0.1	6666.3
27014	0.63437	4.1818	0.1	6630.5
27015	0.54375	4.4545	0.1	6552.5
27016	0.63437	4.3636	0.1	6534.6
27017	0.54375	4.6364	0.1	6417.2
27018	0.63437	4.5455	0.1	6421.4
27019	0.54375	4.8182	0.1	6259.9
27020	0.63437	4.7273	0.1	6291.4
27021	0.54375	5.	0.1	6083.
27022	0.63437	4.9091	0.1	6146.6
27023	0.54375	5.1818	0.1	5894.9
27024	0.63437	5.0909	0.1	5993.2
27025	0.54375	5.3636	0.1	5714.
27026	0.63437	5.2727	0.1	5843.2
27027	0.54375	5.5455	0.1	5569.9
27028	0.63437	5.4545	0.1	5716.
27029	0.54375	5.7273	0.1	5511.9
27030	0.63437	5.6364	0.1	5636.3
27031	0.63437	5.8182	0.1	5656.9
27032	0.54375	5.9091	0.1	5401.1
27033	0.725	0.27273	0.1	5781.3
27034	0.81563	0.18182	0.1	5879.8
27035	0.725	9.0909e-002	0.1	5714.4
27036	0.725	0.45455	0.1	5781.4
27037	0.81563	0.36364	0.1	5831.7
27038	0.725	0.63636	0.1	5843.3
27039	0.81563	0.54545	0.1	5854.4
27040	0.725	0.81818	0.1	5939.9
27041	0.81563	0.72727	0.1	5913.4
27042	0.725	1.	0.1	6055.9
27043	0.81563	0.90909	0.1	5997.7
27044	0.725	1.1818	0.1	6177.8
27045	0.81563	1.0909	0.1	6095.7
27046	0.725	1.3636	0.1	6295.6
27047	0.81563	1.2727	0.1	6197.2
27048	0.725	1.5455	0.1	6403.6
27049	0.81563	1.4545	0.1	6295.2
27050	0.725	1.7273	0.1	6498.9
27051	0.81563	1.6364	0.1	6385.2
27052	0.725	1.9091	0.1	6580.4
27053	0.81563	1.8182	0.1	6464.8
27054	0.725	2.0909	0.1	6648.1
27055	0.81563	2.	0.1	6533.
27056	0.725	2.2727	0.1	6702.5
27057	0.81563	2.1818	0.1	6589.3
27058	0.725	2.4545	0.1	6743.9
27059	0.81563	2.3636	0.1	6633.9
27060	0.725	2.6364	0.1	6773.1
27061	0.81563	2.5455	0.1	6667.
27062	0.725	2.8182	0.1	6790.5
27063	0.81563	2.7273	0.1	6688.9
27064	0.725	3.	0.1	6796.2
27065	0.81563	2.9091	0.1	6699.7
27066	0.725	3.1818	0.1	6790.5
27067	0.81563	3.0909	0.1	6699.7
27068	0.725	3.3636	0.1	6773.1
27069	0.81563	3.2727	0.1	6688.9
27070	0.725	3.5455	0.1	6743.9
27071	0.81563	3.4545	0.1	6667.
27072	0.725	3.7273	0.1	6702.5
27073	0.81563	3.6364	0.1	6633.9
27074	0.725	3.9091	0.1	6648.1
27075	0.81563	3.8182	0.1	6589.3
27076	0.725	4.0909	0.1	6580.4
27077	0.81563	4.	0.1	6533.
27078	0.725	4.2727	0.1	6498.9
27079	0.81563	4.1818	0.1	6464.8
27080	0.725	4.4545	0.1	6403.6
27081	0.81563	4.3636	0.1	6385.2
27082	0.725	4.6364	0.1	6295.6
27083	0.81563	4.5455	0.1	6295.2
27084	0.725	4.8182	0.1	6177.8
27085	0.81563	4.7273	0.1	6197.2
27086	0.725	5.	0.1	6055.9
27087	0.81563	4.9091	0.1	6095.7
27088	0.725	5.1818	0.1	5939.9
27089	0.81563	5.0909	0.1	5997.7
27090	0.725	5.3636	0.1	5843.3
27091	0.81563	5.2727	0.1	5913.4
27092	0.725	5.5455	0.1	5781.4
27093	0.81563	5.4545	0.1	5854.4
27094	0.725	5.7273	0.1	5781.3
27095	0.81563	5.6364	0.1	5831.7
27096	0.81563	5.8182	0.1	5879.8
27097	0.725	5.9091	0.1	5714.4
27098	0.90625	0.27273	0.1	5930.7
27099	0.99687	0.18182	0.1	5999.7
27100	0.90625	9.0909e-002	0.1	5889.7
27101	0.90625	0.45455	0.1	5904.9
27102	0.99687	0.36364	0.1	5942.4
27103	0.90625	0.63636	0.1	5923.9
27104	0.99687	0.54545	0.1	5937.2
27105	0.90625	0.81818	0.1	5970.2
27106	0.99687	0.72727	0.1	5958.3
27107	0.90625	1.	0.1	6036.4
27108	0.99687	0.90909	0.1	6000.7
27109	0.90625	1.1818	0.1	6114.3
27110	0.99687	1.0909	0.1	6058.3
27111	0.90625	1.3636	0.1	6196.3
27112	0.99687	1.2727	0.1	6124.5
27113	0.90625	1.5455	0.1	6276.6
27114	0.99687	1.4545	0.1	6193.4
27115	0.90625	1.7273	0.1	6351.
27116	0.99687	1.6364	0.1	6260.4
27117	0.90625	1.9091	0.1	6417.3
27118	0.99687	1.8182	0.1	6322.5
27119	0.90625	2.0909	0.1	6474.
27120	0.99687	2.	0.1	6377.4
27121	0.90625	2.2727	0.1	6520.6
27122	0.99687	2.1818	0.1	6424.
27123	0.90625	2.4545	0.1	6556.8
27124	0.99687	2.3636	0.1	6461.7
27125	0.90625	2.6364	0.1	6582.6
27126	0.99687	2.5455	0.1	6490.1
27127	0.90625	2.8182	0.1	6598.
27128	0.99687	2.7273	0.1	6509.1
27129	0.90625	3.	0.1	6603.1
27130	0.99687	2.9091	0.1	6518.5
27131	0.90625	3.1818	0.1	6598.
27132	0.99687	3.0909	0.1	6518.5
27133	0.90625	3.3636	0.1	6582.6
27134	0.99687	3.2727	0.1	6509.1
27135	0.90625	3.5455	0.1	6556.8
27136	0.99687	3.4545	0.1	6490.1
27137	0.90625	3.7273	0.1	6520.6
27138	0.99687	3.6364	0.1	6461.7
27139	0.90625	3.9091	0.1	6474.
27140	0.99687	3.8182	0.1	6424.
27141	0.90625	4.0909	0.1	6417.3
27142	0.99687	4.	0.1	6377.4
27143	0.90625	4.2727	0.1	6351.
27144	0.99687	4.1818	0.1	6322.5
27145	0.90625	4.4545	0.1	6276.6
27146	0.99687	4.3636	0.1	6260.4
27147	0.90625	4.6364	0.1	6196.3
27148	0.99687	4.5455	0.1	6193.4
27149	0.90625	4.8182	0.1	6114.3
27150	0.99687	4.7273	0.1	6124.5
27151	0.90625	5.	0.1	6036.4
27152	0.99687	4.9091	0.1	6058.3
27153	0.90625	5.1818	0.1	5970.2
27154	0.99687	5.0909	0.1	6000.7
27155	0.90625	5.3636	0.1	5923.9
27156	0.99687	5.2727	0.1	5958.3
27157	0.90625	5.5455	0.1	5904.9
27158	0.99687	5.4545	0.1	5937.2
27159	0.90625	5.7273	0.1	5930.7
27160	0.99687	5.6364	0.1	5942.4
27161	0.99687	5.8182	0.1	5999.7
27162	0.90625	5.9091	0.1	5889.7
27163	1.0875	0.27273	0.1	6011.9
27164	1.1781	0.18182	0.1	6058.5
27165	1.0875	9.0909e-002	0.1	5986.6
27166	1.0875	0.45455	0.1	5975.2
27167	1.1781	0.36364	0.1	5999.8
27168	1.0875	0.63636	0.1	5971.5
27169	1.1781	0.54545	0.1	5980.6
27170	1.0875	0.81818	0.1	5988.3
27171	1.1781	0.72727	0.1	5980.3
27172	1.0875	1.	0.1	6021.9
27173	1.1781	0.90909	0.1	5996.7
27174	1.0875	1.1818	0.1	6067.8
27175	1.1781	1.0909	0.1	6026.6
27176	1.0875	1.3636	0.1	6121.
27177	1.1781	1.2727	0.1	6066.1
27178	1.0875	1.5455	0.1	6176.8
27179	1.1781	1.4545	0.1	6111.1
27180	1.0875	1.7273	0.1	6231.5
27181	1.1781	1.6364	0.1	6157.8
27182	1.0875	1.9091	0.1	6282.3
27183	1.1781	1.8182	0.1	6203.2
27184	1.0875	2.0909	0.1	6327.2
27185	1.1781	2.	0.1	6245.
27186	1.0875	2.2727	0.1	6364.9
27187	1.1781	2.1818	0.1	6281.5
27188	1.0875	2.4545	0.1	6394.8
27189	1.1781	2.3636	0.1	6311.6
27190	1.0875	2.6364	0.1	6416.4
27191	1.1781	2.5455	0.1	6334.7
27192	1.0875	2.8182	0.1	6429.4
27193	1.1781	2.7273	0.1	6350.3
27194	1.0875	3.	0.1	6433.8
27195	1.1781	2.9091	0.1	6358.1
27196	1.0875	3.1818	0.1	6429.4
27197	1.1781	3.0909	0.1	6358.1
27198	1.0875	3.3636	0.1	6416.4
27199	1.1781	3.2727	0.1	6350.3
27200	1.0875	3.5455	0.1	6394.8
27201	1.1781	3.4545	0.1	6334.7
27202	1.0875	3.7273	0.1	6364.9
27203	1.1781	3.6364	0.1	6311.6
27204	1.0875	3.9091	0.1	6327.2
27205	1.1781	3.8182	0.1	6281.5
27206	1.0875	4.0909	0.1	6282.3
27207	1.1781	4.	0.1	6245.
27208	1.0875	4.2727	0.1	6231.5
27209	1.1781	4.1818	0.1	6203.2
27210	1.0875	4.4545	0.1	6176.8
27211	1.1781	4.3636	0.1	6157.8
27212	1.0875	4.6364	0.1	6121.
27213	1.1781	4.5455	0.1	6111.1
27214	1.0875	4.8182	0.1	6067.8
27215	1.1781	4.7273	0.1	6066.1
27216	1.0875	5.	0.1	6021.9
27217	1.1781	4.9091	0.1	6026.6
27218	1.0875	5.1818	0.1	5988.3
27219	1.1781	5.0909	0.1	5996.7
27220	1.0875	5.3636	0.1	5971.5
27221	1.1781	5.2727	0.1	5980.3
27222	1.0875	5.5455	0.1	5975.2
27223	1.1781	5.4545	0.1	5980.6
27224	1.0875	5.7273	0.1	6011.9
27225	1.1781	5.6364	0.1	5999.8
27226	1.1781	5.8182	0.1	6058.5
27227	1.0875	5.9091	0.1	5986.6
27228	1.2687	0.27273	0.1	6046.9
27229	1.3594	0.18182	0.1	6077.4
27230	1.2687	9.0909e-002	0.1	6032.6
27231	1.2687	0.45455	0.1	6005.8
27232	1.3594	0.36364	0.1	6020.4
27233	1.2687	0.63636	0.1	5989.6
27234	1.3594	0.54545	0.1	5993.9
27235	1.2687	0.81818	0.1	5988.6
27236	1.3594	0.72727	0.1	5981.2
27237	1.2687	1.	0.1	6000.9
27238	1.3594	0.90909	0.1	5981.2
27239	1.2687	1.1818	0.1	6024.4
27240	1.3594	1.0909	0.1	5992.5
27241	1.2687	1.3636	0.1	6055.7
27242	1.3594	1.2727	0.1	6012.7
27243	1.2687	1.5455	0.1	6091.6
27244	1.3594	1.4545	0.1	6039.1
27245	1.2687	1.7273	0.1	6129.1
27246	1.3594	1.6364	0.1	6069.1
27247	1.2687	1.9091	0.1	6165.6
27248	1.3594	1.8182	0.1	6099.9
27249	1.2687	2.0909	0.1	6199.
27250	1.3594	2.	0.1	6129.6
27251	1.2687	2.2727	0.1	6227.9
27252	1.3594	2.1818	0.1	6156.4
27253	1.2687	2.4545	0.1	6251.2
27254	1.3594	2.3636	0.1	6179.2
27255	1.2687	2.6364	0.1	6268.3
27256	1.3594	2.5455	0.1	6196.9
27257	1.2687	2.8182	0.1	6278.8
27258	1.3594	2.7273	0.1	6209.
27259	1.2687	3.	0.1	6282.3
27260	1.3594	2.9091	0.1	6215.1
27261	1.2687	3.1818	0.1	6278.8
27262	1.3594	3.0909	0.1	6215.1
27263	1.2687	3.3636	0.1	6268.3
27264	1.3594	3.2727	0.1	6209.
27265	1.2687	3.5455	0.1	6251.2
27266	1.3594	3.4545	0.1	6196.9
27267	1.2687	3.7273	0.1	6227.9
27268	1.3594	3.6364	0.1	6179.2
27269	1.2687	3.9091	0.1	6199.
27270	1.3594	3.8182	0.1	6156.4
27271	1.2687	4.0909	0.1	6165.6
27272	1.3594	4.	0.1	6129.6
27273	1.2687	4.2727	0.1	6129.1
27274	1.3594	4.1818	0.1	6099.9
27275	1.2687	4.4545	0.1	6091.6
27276	1.3594	4.3636	0.1	6069.1
27277	1.2687	4.6364	0.1	6055.7
27278	1.3594	4.5455	0.1	6039.1
27279	1.2687	4.8182	0.1	6024.4
27280	1.3594	4.7273	0.1	6012.7
27281	1.2687	5.	0.1	6000.9
27282	1.3594	4.9091	0.1	5992.5
27283	1.2687	5.1818	0.1	5988.6
27284	1.3594	5.0909	0.1	5981.2
27285	1.2687	5.3636	0.1	5989.6
27286	1.3594	5.2727	0.1	5981.2
27287	1.2687	5.5455	0.1	6005.8
27288	1.3594	5.4545	0.1	5993.9
27289	1.2687	5.7273	0.1	6046.9
27290	1.3594	5.6364	0.1	6020.4
27291	1.3594	5.8182	0.1	6077.4
27292	1.2687	5.9091	0.1	6032.6
27293	1.45	0.27273	0.1	6051.2
27294	1.5406	0.18182	0.1	6069.5
27295	1.45	9.0909e-002	0.1	6044.7
27296	1.45	0.45455	0.1	6009.
27297	1.5406	0.36364	0.1	6015.5
27298	1.45	0.63636	0.1	5985.8
27299	1.5406	0.54545	0.1	5985.5
27300	1.45	0.81818	0.1	5974.
27301	1.5406	0.72727	0.1	5965.5
27302	1.45	1.	0.1	5972.6
27303	1.5406	0.90909	0.1	5955.3
27304	1.45	1.1818	0.1	5980.4
27305	1.5406	1.0909	0.1	5954.
27306	1.45	1.3636	0.1	5995.7
27307	1.5406	1.2727	0.1	5960.5
27308	1.45	1.5455	0.1	6016.1
27309	1.5406	1.4545	0.1	5973.1
27310	1.45	1.7273	0.1	6039.5
27311	1.5406	1.6364	0.1	5989.7
27312	1.45	1.9091	0.1	6063.6
27313	1.5406	1.8182	0.1	6008.6
27314	1.45	2.0909	0.1	6086.8
27315	1.5406	2.	0.1	6027.9
27316	1.45	2.2727	0.1	6107.4
27317	1.5406	2.1818	0.1	6046.1
27318	1.45	2.4545	0.1	6124.5
27319	1.5406	2.3636	0.1	6062.
27320	1.45	2.6364	0.1	6137.3
27321	1.5406	2.5455	0.1	6074.7
27322	1.45	2.8182	0.1	6145.1
27323	1.5406	2.7273	0.1	6083.5
27324	1.45	3.	0.1	6147.8
27325	1.5406	2.9091	0.1	6088.
27326	1.45	3.1818	0.1	6145.1
27327	1.5406	3.0909	0.1	6088.
27328	1.45	3.3636	0.1	6137.3
27329	1.5406	3.2727	0.1	6083.5
27330	1.45	3.5455	0.1	6124.5
27331	1.5406	3.4545	0.1	6074.7
27332	1.45	3.7273	0.1	6107.4
27333	1.5406	3.6364	0.1	6062.
27334	1.45	3.9091	0.1	6086.8
27335	1.5406	3.8182	0.1	6046.1
27336	1.45	4.0909	0.1	6063.6
27337	1.5406	4.	0.1	6027.9
27338	1.45	4.2727	0.1	6039.5
27339	1.5406	4.1818	0.1	6008.6
27340	1.45	4.4545	0.1	6016.1
27341	1.5406	4.3636	0.1	5989.7
27342	1.45	4.6364	0.1	5995.7
27343	1.5406	4.5455	0.1	5973.1
27344	1.45	4.8182	0.1	5980.4
27345	1.5406	4.7273	0.1	5960.5
27346	1.45	5.	0.1	5972.6
27347	1.5406	4.9091	0.1	5954.
27348	1.45	5.1818	0.1	5974.
27349	1.5406	5.0909	0.1	5955.3
27350	1.45	5.3636	0.1	5985.8
27351	1.5406	5.2727	0.1	5965.5
27352	1.45	5.5455	0.1	6009.
27353	1.5406	5.4545	0.1	5985.5
27354	1.45	5.7273	0.1	6051.2
27355	1.5406	5.6364	0.1	6015.5
27356	1.5406	5.8182	0.1	6069.5
27357	1.45	5.9091	0.1	6044.7
27358	1.6313	0.27273	0.1	6034.1
27359	1.7219	0.18182	0.1	6043.2
27360	1.6313	9.0909e-002	0.1	6033.5
27361	1.6313	0.45455	0.1	5992.3
27362	1.7219	0.36364	0.1	5992.5
27363	1.6313	0.63636	0.1	5965.4
27364	1.7219	0.54545	0.1	5961.
27365	1.6313	0.81818	0.1	5947.
27366	1.7219	0.72727	0.1	5937.
27367	1.6313	1.	0.1	5936.7
27368	1.7219	0.90909	0.1	5920.3
27369	1.6313	1.1818	0.1	5933.9
27370	1.7219	1.0909	0.1	5910.7
27371	1.6313	1.3636	0.1	5937.6
27372	1.7219	1.2727	0.1	5907.6
27373	1.6313	1.5455	0.1	5946.3
27374	1.7219	1.4545	0.1	5910.
27375	1.6313	1.7273	0.1	5958.5
27376	1.7219	1.6364	0.1	5916.6
27377	1.6313	1.9091	0.1	5972.6
27378	1.7219	1.8182	0.1	5925.9
27379	1.6313	2.0909	0.1	5987.
27380	1.7219	2.	0.1	5936.7
27381	1.6313	2.2727	0.1	6000.4
27382	1.7219	2.1818	0.1	5947.6
27383	1.6313	2.4545	0.1	6011.9
27384	1.7219	2.3636	0.1	5957.6
27385	1.6313	2.6364	0.1	6020.7
27386	1.7219	2.5455	0.1	5965.8
27387	1.6313	2.8182	0.1	6026.1
27388	1.7219	2.7273	0.1	5971.6
27389	1.6313	3.	0.1	6028.
27390	1.7219	2.9091	0.1	5974.6
27391	1.6313	3.1818	0.1	6026.1
27392	1.7219	3.0909	0.1	5974.6
27393	1.6313	3.3636	0.1	6020.7
27394	1.7219	3.2727	0.1	5971.6
27395	1.6313	3.5455	0.1	6011.9
27396	1.7219	3.4545	0.1	5965.8
27397	1.6313	3.7273	0.1	6000.4
27398	1.7219	3.6364	0.1	5957.6
27399	1.6313	3.9091	0.1	5987.
27400	1.7219	3.8182	0.1	5947.6
27401	1.6313	4.0909	0.1	5972.6
27402	1.7219	4.	0.1	5936.7
27403	1.6313	4.2727	0.1	5958.5
27404	1.7219	4.1818	0.1	5925.9
27405	1.6313	4.4545	0.1	5946.3
27406	1.7219	4.3636	0.1	5916.6
27407	1.6313	4.6364	0.1	5937.6
27408	1.7219	4.5455	0.1	5910.
27409	1.6313	4.8182	0.1	5933.9
27410	1.7219	4.7273	0.1	5907.6
27411	1.6313	5.	0.1	5936.7
27412	1.7219	4.9091	0.1	5910.7
27413	1.6313	5.1818	0.1	5947.
27414	1.7219	5.0909	0.1	5920.3
27415	1.6313	5.3636	0.1	5965.4
27416	1.7219	5.2727	0.1	5937.
27417	1.6313	5.5455	0.1	5992.3
27418	1.7219	5.4545	0.1	5961.
27419	1.6313	5.7273	0.1	6034.1
27420	1.7219	5.6364	0.1	5992.5
27421	1.7219	5.8182	0.1	6043.2
27422	1.6313	5.9091	0.1	6033.5
27423	1.8125	0.27273	0.1	6001.9
27424	1.9031	0.18182	0.1	6003.9
27425	1.8125	9.0909e-002	0.1	6005.8
27426	1.8125	0.45455	0.1	5961.5
27427	1.9031	0.36364	0.1	5956.7
27428	1.8125	0.63636	0.1	5932.8
27429	1.9031	0.54545	0.1	5924.8
27430	1.8125	0.81818	0.1	5910.4
27431	1.9031	0.72727	0.1	5898.6
27432	1.8125	1.	0.1	5894.3
27433	1.9031	0.90909	0.1	5878.
27434	1.8125	1.1818	0.1	5884.4
27435	1.9031	1.0909	0.1	5863.
27436	1.8125	1.3636	0.1	5879.9
27437	1.9031	1.2727	0.1	5853.4
27438	1.8125	1.5455	0.1	5880.
27439	1.9031	1.4545	0.1	5848.5
27440	1.8125	1.7273	0.1	5883.7
27441	1.9031	1.6364	0.1	5847.5
27442	1.8125	1.9091	0.1	5889.7
27443	1.9031	1.8182	0.1	5849.6
27444	1.8125	2.0909	0.1	5897.
27445	1.9031	2.	0.1	5853.5
27446	1.8125	2.2727	0.1	5904.4
27447	1.9031	2.1818	0.1	5858.5
27448	1.8125	2.4545	0.1	5911.1
27449	1.9031	2.3636	0.1	5863.6
27450	1.8125	2.6364	0.1	5916.4
27451	1.9031	2.5455	0.1	5868.
27452	1.8125	2.8182	0.1	5919.8
27453	1.9031	2.7273	0.1	5871.3
27454	1.8125	3.	0.1	5921.
27455	1.9031	2.9091	0.1	5873.
27456	1.8125	3.1818	0.1	5919.8
27457	1.9031	3.0909	0.1	5873.
27458	1.8125	3.3636	0.1	5916.4
27459	1.9031	3.2727	0.1	5871.3
27460	1.8125	3.5455	0.1	5911.1
27461	1.9031	3.4545	0.1	5868.
27462	1.8125	3.7273	0.1	5904.4
27463	1.9031	3.6364	0.1	5863.6
27464	1.8125	3.9091	0.1	5897.
27465	1.9031	3.8182	0.1	5858.5
27466	1.8125	4.0909	0.1	5889.7
27467	1.9031	4.	0.1	5853.5
27468	1.8125	4.2727	0.1	5883.7
27469	1.9031	4.1818	0.1	5849.6
27470	1.8125	4.4545	0.1	5880.
27471	1.9031	4.3636	0.1	5847.5
27472	1.8125	4.6364	0.1	5879.9
27473	1.9031	4.5455	0.1	5848.5
27474	1.8125	4.8182	0.1	5884.4
27475	1.9031	4.7273	0.1	5853.4
27476	1.8125	5.	0.1	5894.3
27477	1.9031	4.9091	0.1	5863.
27478	1.8125	5.1818	0.1	5910.4
27479	1.9031	5.0909	0.1	5878.
27480	1.8125	5.3636	0.1	5932.8
27481	1.9031	5.2727	0.1	5898.6
27482	1.8125	5.5455	0.1	5961.5
27483	1.9031	5.4545	0.1	5924.8
27484	1.8125	5.7273	0.1	6001.9
27485	1.9031	5.6364	0.1	5956.7
27486	1.9031	5.8182	0.1	6003.9
27487	1.8125	5.9091	0.1	6005.8
27488	1.9937	0.27273	0.1	5958.9
27489	2.0844	0.18182	0.1	5955.4
27490	1.9937	9.0909e-002	0.1	5966.2
27491	1.9937	0.45455	0.1	5920.3
27492	2.0844	0.36364	0.1	5911.6
27493	1.9937	0.63636	0.1	5891.
27494	2.0844	0.54545	0.1	5880.2
27495	1.9937	0.81818	0.1	5866.4
27496	2.0844	0.72727	0.1	5853.
27497	1.9937	1.	0.1	5846.8
27498	2.0844	0.90909	0.1	5830.2
27499	1.9937	1.1818	0.1	5832.
27500	2.0844	1.0909	0.1	5811.7
27501	1.9937	1.3636	0.1	5821.9
27502	2.0844	1.2727	0.1	5797.7
27503	1.9937	1.5455	0.1	5815.8
27504	2.0844	1.4545	0.1	5787.7
27505	1.9937	1.7273	0.1	5813.2
27506	2.0844	1.6364	0.1	5781.3
27507	1.9937	1.9091	0.1	5813.1
27508	2.0844	1.8182	0.1	5777.9
27509	1.9937	2.0909	0.1	5814.7
27510	2.0844	2.	0.1	5776.6
27511	1.9937	2.2727	0.1	5817.3
27512	2.0844	2.1818	0.1	5776.9
27513	1.9937	2.4545	0.1	5820.1
27514	2.0844	2.3636	0.1	5778.1
27515	1.9937	2.6364	0.1	5822.5
27516	2.0844	2.5455	0.1	5779.4
27517	1.9937	2.8182	0.1	5824.2
27518	2.0844	2.7273	0.1	5780.6
27519	1.9937	3.	0.1	5824.7
27520	2.0844	2.9091	0.1	5781.3
27521	1.9937	3.1818	0.1	5824.2
27522	2.0844	3.0909	0.1	5781.3
27523	1.9937	3.3636	0.1	5822.5
27524	2.0844	3.2727	0.1	5780.6
27525	1.9937	3.5455	0.1	5820.1
27526	2.0844	3.4545	0.1	5779.4
27527	1.9937	3.7273	0.1	5817.3
27528	2.0844	3.6364	0.1	5778.1
27529	1.9937	3.9091	0.1	5814.7
27530	2.0844	3.8182	0.1	5776.9
27531	1.9937	4.0909	0.1	5813.1
27532	2.0844	4.	0.1	5776.6
27533	1.9937	4.2727	0.1	5813.2
27534	2.0844	4.1818	0.1	5777.9
27535	1.9937	4.4545	0.1	5815.8
27536	2.0844	4.3636	0.1	5781.3
27537	1.9937	4.6364	0.1	5821.9
27538	2.0844	4.5455	0.1	5787.7
27539	1.9937	4.8182	0.1	5832.
27540	2.0844	4.7273	0.1	5797.7
27541	1.9937	5.	0.1	5846.8
27542	2.0844	4.9091	0.1	5811.7
27543	1.9937	5.1818	0.1	5866.4
27544	2.0844	5.0909	0.1	5830.2
27545	1.9937	5.3636	0.1	5891.
27546	2.0844	5.2727	0.1	5853.
27547	1.9937	5.5455	0.1	5920.3
27548	2.0844	5.4545	0.1	5880.2
27549	1.9937	5.7273	0.1	5958.9
27550	2.0844	5.6364	0.1	5911.6
27551	2.0844	5.8182	0.1	5955.4
27552	1.9937	5.9091	0.1	5966.2
27553	2.175	0.27273	0.1	5908.3
27554	2.2656	0.18182	0.1	5900.4
27555	2.175	9.0909e-002	0.1	5918.2
27556	2.175	0.45455	0.1	5871.7
27557	2.2656	0.36364	0.1	5859.9
27558	2.175	0.63636	0.1	5842.5
27559	2.2656	0.54545	0.1	5829.4
27560	2.175	0.81818	0.1	5816.9
27561	2.2656	0.72727	0.1	5802.
27562	2.175	1.	0.1	5795.2
27563	2.2656	0.90909	0.1	5778.1
27564	2.175	1.1818	0.1	5777.4
27565	2.2656	1.0909	0.1	5757.6
27566	2.175	1.3636	0.1	5763.5
27567	2.2656	1.2727	0.1	5740.7
27568	2.175	1.5455	0.1	5753.1
27569	2.2656	1.4545	0.1	5727.3
27570	2.175	1.7273	0.1	5745.8
27571	2.2656	1.6364	0.1	5717.1
27572	2.175	1.9091	0.1	5741.2
27573	2.2656	1.8182	0.1	5709.7
27574	2.175	2.0909	0.1	5738.6
27575	2.2656	2.	0.1	5704.6
27576	2.175	2.2727	0.1	5737.4
27577	2.2656	2.1818	0.1	5701.4
27578	2.175	2.4545	0.1	5737.1
27579	2.2656	2.3636	0.1	5699.4
27580	2.175	2.6364	0.1	5737.2
27581	2.2656	2.5455	0.1	5698.4
27582	2.175	2.8182	0.1	5737.4
27583	2.2656	2.7273	0.1	5698.
27584	2.175	3.	0.1	5737.5
27585	2.2656	2.9091	0.1	5697.8
27586	2.175	3.1818	0.1	5737.4
27587	2.2656	3.0909	0.1	5697.8
27588	2.175	3.3636	0.1	5737.2
27589	2.2656	3.2727	0.1	5698.
27590	2.175	3.5455	0.1	5737.1
27591	2.2656	3.4545	0.1	5698.4
27592	2.175	3.7273	0.1	5737.4
27593	2.2656	3.6364	0.1	5699.4
27594	2.175	3.9091	0.1	5738.6
27595	2.2656	3.8182	0.1	5701.4
27596	2.175	4.0909	0.1	5741.2
27597	2.2656	4.	0.1	5704.6
27598	2.175	4.2727	0.1	5745.8
27599	2.2656	4.1818	0.1	5709.7
27600	2.175	4.4545	0.1	5753.1
27601	2.2656	4.3636	0.1	5717.1
27602	2.175	4.6364	0.1	5763.5
27603	2.2656	4.5455	0.1	5727.3
27604	2.175	4.8182	0.1	5777.4
27605	2.2656	4.7273	0.1	5740.7
27606	2.175	5.	0.1	5795.2
27607	2.2656	4.9091	0.1	5757.6
27608	2.175	5.1818	0.1	5816.9
27609	2.2656	5.0909	0.1	5778.1
27610	2.175	5.3636	0.1	5842.5
27611	2.2656	5.2727	0.1	5802.
27612	2.175	5.5455	0.1	5871.7
27613	2.2656	5.4545	0.1	5829.4
27614	2.175	5.7273	0.1	5908.3
27615	2.2656	5.6364	0.1	5859.9
27616	2.2656	5.8182	0.1	5900.4
27617	2.175	5.9091	0.1	5918.2
27618	2.3563	0.27273	0.1	5852.3
27619	2.4469	0.18182	0.1	5840.9
27620	2.3563	9.0909e-002	0.1	5864.1
27621	2.3563	0.45455	0.1	5817.8
27622	2.4469	0.36364	0.1	5803.5
27623	2.3563	0.63636	0.1	5789.1
27624	2.4469	0.54545	0.1	5774.1
27625	2.3563	0.81818	0.1	5763.4
27626	2.4469	0.72727	0.1	5747.2
27627	2.3563	1.	0.1	5740.6
27628	2.4469	0.90909	0.1	5722.8
27629	2.3563	1.1818	0.1	5721.
27630	2.4469	1.0909	0.1	5701.3
27631	2.3563	1.3636	0.1	5704.6
27632	2.4469	1.2727	0.1	5682.8
27633	2.3563	1.5455	0.1	5691.3
27634	2.4469	1.4545	0.1	5667.1
27635	2.3563	1.7273	0.1	5680.8
27636	2.4469	1.6364	0.1	5654.4
27637	2.3563	1.9091	0.1	5672.9
27638	2.4469	1.8182	0.1	5644.2
27639	2.3563	2.0909	0.1	5667.2
27640	2.4469	2.	0.1	5636.4
27641	2.3563	2.2727	0.1	5663.2
27642	2.4469	2.1818	0.1	5630.5
27643	2.3563	2.4545	0.1	5660.5
27644	2.4469	2.3636	0.1	5626.4
27645	2.3563	2.6364	0.1	5658.9
27646	2.4469	2.5455	0.1	5623.6
27647	2.3563	2.8182	0.1	5658.
27648	2.4469	2.7273	0.1	5621.8
27649	2.3563	3.	0.1	5657.8
27650	2.4469	2.9091	0.1	5621.
27651	2.3563	3.1818	0.1	5658.
27652	2.4469	3.0909	0.1	5621.
27653	2.3563	3.3636	0.1	5658.9
27654	2.4469	3.2727	0.1	5621.8
27655	2.3563	3.5455	0.1	5660.5
27656	2.4469	3.4545	0.1	5623.6
27657	2.3563	3.7273	0.1	5663.2
27658	2.4469	3.6364	0.1	5626.4
27659	2.3563	3.9091	0.1	5667.2
27660	2.4469	3.8182	0.1	5630.5
27661	2.3563	4.0909	0.1	5672.9
27662	2.4469	4.	0.1	5636.4
27663	2.3563	4.2727	0.1	5680.8
27664	2.4469	4.1818	0.1	5644.2
27665	2.3563	4.4545	0.1	5691.3
27666	2.4469	4.3636	0.1	5654.4
27667	2.3563	4.6364	0.1	5704.6
27668	2.4469	4.5455	0.1	5667.1
27669	2.3563	4.8182	0.1	5721.
27670	2.4469	4.7273	0.1	5682.8
27671	2.3563	5.	0.1	5740.6
27672	2.4469	4.9091	0.1	5701.3
27673	2.3563	5.1818	0.1	5763.4
27674	2.4469	5.0909	0.1	5722.8
27675	2.3563	5.3636	0.1	5789.1
27676	2.4469	5.2727	0.1	5747.2
27677	2.3563	5.5455	0.1	5817.8
27678	2.4469	5.4545	0.1	5774.1
27679	2.3563	5.7273	0.1	5852.3
27680	2.4469	5.6364	0.1	5803.5
27681	2.4469	5.8182	0.1	5840.9
27682	2.3563	5.9091	0.1	5864.1
27683	2.5375	0.27273	0.1	5792.3
27684	2.6281	0.18182	0.1	5778.2
27685	2.5375	9.0909e-002	0.1	5805.5
27686	2.5375	0.45455	0.1	5760.
27687	2.6281	0.36364	0.1	5743.6
27688	2.5375	0.63636	0.1	5732.3
27689	2.6281	0.54545	0.1	5715.6
27690	2.5375	0.81818	0.1	5706.8
27691	2.6281	0.72727	0.1	5689.4
27692	2.5375	1.	0.1	5683.7
27693	2.6281	0.90909	0.1	5665.3
27694	2.5375	1.1818	0.1	5663.2
27695	2.6281	1.0909	0.1	5643.5
27696	2.5375	1.3636	0.1	5645.4
27697	2.6281	1.2727	0.1	5624.1
27698	2.5375	1.5455	0.1	5630.2
27699	2.6281	1.4545	0.1	5607.2
27700	2.5375	1.7273	0.1	5617.6
27701	2.6281	1.6364	0.1	5592.8
27702	2.5375	1.9091	0.1	5607.5
27703	2.6281	1.8182	0.1	5580.8
27704	2.5375	2.0909	0.1	5599.6
27705	2.6281	2.	0.1	5571.2
27706	2.5375	2.2727	0.1	5593.5
27707	2.6281	2.1818	0.1	5563.5
27708	2.5375	2.4545	0.1	5589.2
27709	2.6281	2.3636	0.1	5557.8
27710	2.5375	2.6364	0.1	5586.3
27711	2.6281	2.5455	0.1	5553.7
27712	2.5375	2.8182	0.1	5584.6
27713	2.6281	2.7273	0.1	5551.
27714	2.5375	3.	0.1	5584.
27715	2.6281	2.9091	0.1	5549.7
27716	2.5375	3.1818	0.1	5584.6
27717	2.6281	3.0909	0.1	5549.7
27718	2.5375	3.3636	0.1	5586.3
27719	2.6281	3.2727	0.1	5551.
27720	2.5375	3.5455	0.1	5589.2
27721	2.6281	3.4545	0.1	5553.7
27722	2.5375	3.7273	0.1	5593.5
27723	2.6281	3.6364	0.1	5557.8
27724	2.5375	3.9091	0.1	5599.6
27725	2.6281	3.8182	0.1	5563.5
27726	2.5375	4.0909	0.1	5607.5
27727	2.6281	4.	0.1	5571.2
27728	2.5375	4.2727	0.1	5617.6
27729	2.6281	4.1818	0.1	5580.8
27730	2.5375	4.4545	0.1	5630.2
27731	2.6281	4.3636	0.1	5592.8
27732	2.5375	4.6364	0.1	5645.4
27733	2.6281	4.5455	0.1	5607.2
27734	2.5375	4.8182	0.1	5663.2
27735	2.6281	4.7273	0.1	5624.1
27736	2.5375	5.	0.1	5683.7
27737	2.6281	4.9091	0.1	5643.5
27738	2.5375	5.1818	0.1	5706.8
27739	2.6281	5.0909	0.1	5665.3
27740	2.5375	5.3636	0.1	5732.3
27741	2.6281	5.2727	0.1	5689.4
27742	2.5375	5.5455	0.1	5760.
27743	2.6281	5.4545	0.1	5715.6
27744	2.5375	5.7273	0.1	5792.3
27745	2.6281	5.6364	0.1	5743.6
27746	2.6281	5.8182	0.1	5778.2
27747	2.5375	5.9091	0.1	5805.5
27748	2.7188	0.27273	0.1	5729.7
27749	2.8094	0.18182	0.1	5713.3
27750	2.7188	9.0909e-002	0.1	5743.9
27751	2.7188	0.45455	0.1	5699.5
27752	2.8094	0.36364	0.1	5681.5
27753	2.7188	0.63636	0.1	5672.9
27754	2.8094	0.54545	0.1	5654.9
27755	2.7188	0.81818	0.1	5648.1
27756	2.8094	0.72727	0.1	5629.7
27757	2.7188	1.	0.1	5625.2
27758	2.8094	0.90909	0.1	5606.2
27759	2.7188	1.1818	0.1	5604.5
27760	2.8094	1.0909	0.1	5584.6
27761	2.7188	1.3636	0.1	5586.
27762	2.8094	1.2727	0.1	5564.9
27763	2.7188	1.5455	0.1	5569.8
27764	2.8094	1.4545	0.1	5547.5
27765	2.7188	1.7273	0.1	5555.9
27766	2.8094	1.6364	0.1	5532.2
27767	2.7188	1.9091	0.1	5544.4
27768	2.8094	1.8182	0.1	5519.2
27769	2.7188	2.0909	0.1	5535.
27770	2.8094	2.	0.1	5508.3
27771	2.7188	2.2727	0.1	5527.6
27772	2.8094	2.1818	0.1	5499.6
27773	2.7188	2.4545	0.1	5522.1
27774	2.8094	2.3636	0.1	5492.8
27775	2.7188	2.6364	0.1	5518.2
27776	2.8094	2.5455	0.1	5487.8
27777	2.7188	2.8182	0.1	5516.
27778	2.8094	2.7273	0.1	5484.5
27779	2.7188	3.	0.1	5515.2
27780	2.8094	2.9091	0.1	5482.9
27781	2.7188	3.1818	0.1	5516.
27782	2.8094	3.0909	0.1	5482.9
27783	2.7188	3.3636	0.1	5518.2
27784	2.8094	3.2727	0.1	5484.5
27785	2.7188	3.5455	0.1	5522.1
27786	2.8094	3.4545	0.1	5487.8
27787	2.7188	3.7273	0.1	5527.6
27788	2.8094	3.6364	0.1	5492.8
27789	2.7188	3.9091	0.1	5535.
27790	2.8094	3.8182	0.1	5499.6
27791	2.7188	4.0909	0.1	5544.4
27792	2.8094	4.	0.1	5508.3
27793	2.7188	4.2727	0.1	5555.9
27794	2.8094	4.1818	0.1	5519.2
27795	2.7188	4.4545	0.1	5569.8
27796	2.8094	4.3636	0.1	5532.2
27797	2.7188	4.6364	0.1	5586.
27798	2.8094	4.5455	0.1	5547.5
27799	2.7188	4.8182	0.1	5604.5
27800	2.8094	4.7273	0.1	5564.9
27801	2.7188	5.	0.1	5625.2
27802	2.8094	4.9091	0.1	5584.6
27803	2.7188	5.1818	0.1	5648.1
27804	2.8094	5.0909	0.1	5606.2
27805	2.7188	5.3636	0.1	5672.9
27806	2.8094	5.2727	0.1	5629.7
27807	2.7188	5.5455	0.1	5699.5
27808	2.8094	5.4545	0.1	5654.9
27809	2.7188	5.7273	0.1	5729.7
27810	2.8094	5.6364	0.1	5681.5
27811	2.8094	5.8182	0.1	5713.3
27812	2.7188	5.9091	0.1	5743.9
27813	2.9	0.27273	0.1	5665.3
27814	2.9906	0.18182	0.1	5647.
27815	2.9	9.0909e-002	0.1	5680.
27816	2.9	0.45455	0.1	5637.1
27817	2.9906	0.36364	0.1	5617.7
27818	2.9	0.63636	0.1	5611.9
27819	2.9906	0.54545	0.1	5592.6
27820	2.9	0.81818	0.1	5588.
27821	2.9906	0.72727	0.1	5568.7
27822	2.9	1.	0.1	5565.7
27823	2.9906	0.90909	0.1	5546.1
27824	2.9	1.1818	0.1	5545.1
27825	2.9906	1.0909	0.1	5525.
27826	2.9	1.3636	0.1	5526.5
27827	2.9906	1.2727	0.1	5505.6
27828	2.9	1.5455	0.1	5509.9
27829	2.9906	1.4545	0.1	5488.
27830	2.9	1.7273	0.1	5495.4
27831	2.9906	1.6364	0.1	5472.5
27832	2.9	1.9091	0.1	5483.1
27833	2.9906	1.8182	0.1	5458.9
27834	2.9	2.0909	0.1	5472.8
27835	2.9906	2.	0.1	5447.5
27836	2.9	2.2727	0.1	5464.6
27837	2.9906	2.1818	0.1	5438.
27838	2.9	2.4545	0.1	5458.3
27839	2.9906	2.3636	0.1	5430.6
27840	2.9	2.6364	0.1	5453.9
27841	2.9906	2.5455	0.1	5425.1
27842	2.9	2.8182	0.1	5451.3
27843	2.9906	2.7273	0.1	5421.4
27844	2.9	3.	0.1	5450.4
27845	2.9906	2.9091	0.1	5419.6
27846	2.9	3.1818	0.1	5451.3
27847	2.9906	3.0909	0.1	5419.6
27848	2.9	3.3636	0.1	5453.9
27849	2.9906	3.2727	0.1	5421.4
27850	2.9	3.5455	0.1	5458.3
27851	2.9906	3.4545	0.1	5425.1
27852	2.9	3.7273	0.1	5464.6
27853	2.9906	3.6364	0.1	5430.6
27854	2.9	3.9091	0.1	5472.8
27855	2.9906	3.8182	0.1	5438.
27856	2.9	4.0909	0.1	5483.1
27857	2.9906	4.	0.1	5447.5
27858	2.9	4.2727	0.1	5495.4
27859	2.9906	4.1818	0.1	5458.9
27860	2.9	4.4545	0.1	5509.9
27861	2.9906	4.3636	0.1	5472.5
27862	2.9	4.6364	0.1	5526.5
27863	2.9906	4.5455	0.1	5488.
27864	2.9	4.8182	0.1	5545.1
27865	2.9906	4.7273	0.1	5505.6
27866	2.9	5.	0.1	5565.7
27867	2.9906	4.9091	0.1	5525.
27868	2.9	5.1818	0.1	5588.
27869	2.9906	5.0909	0.1	5546.1
27870	2.9	5.3636	0.1	5611.9
27871	2.9906	5.2727	0.1	5568.7
27872	2.9	5.5455	0.1	5637.1
27873	2.9906	5.4545	0.1	5592.6
27874	2.9	5.7273	0.1	5665.3
27875	2.9906	5.6364	0.1	5617.7
27876	2.9906	5.8182	0.1	5647.
27877	2.9	5.9091	0.1	5680.
27878	3.0812	0.27273	0.1	5599.6
27879	3.1719	0.18182	0.1	5579.8
27880	3.0812	9.0909e-002	0.1	5614.6
27881	3.0812	0.45455	0.1	5573.4
27882	3.1719	0.36364	0.1	5552.9
27883	3.0812	0.63636	0.1	5549.6
27884	3.1719	0.54545	0.1	5529.4
27885	3.0812	0.81818	0.1	5526.9
27886	3.1719	0.72727	0.1	5506.7
27887	3.0812	1.	0.1	5505.4
27888	3.1719	0.90909	0.1	5485.2
27889	3.0812	1.1818	0.1	5485.4
27890	3.1719	1.0909	0.1	5464.9
27891	3.0812	1.3636	0.1	5467.1
27892	3.1719	1.2727	0.1	5446.1
27893	3.0812	1.5455	0.1	5450.6
27894	3.1719	1.4545	0.1	5428.9
27895	3.0812	1.7273	0.1	5435.9
27896	3.1719	1.6364	0.1	5413.4
27897	3.0812	1.9091	0.1	5423.3
27898	3.1719	1.8182	0.1	5399.8
27899	3.0812	2.0909	0.1	5412.6
27900	3.1719	2.	0.1	5388.2
27901	3.0812	2.2727	0.1	5403.9
27902	3.1719	2.1818	0.1	5378.5
27903	3.0812	2.4545	0.1	5397.2
27904	3.1719	2.3636	0.1	5370.8
27905	3.0812	2.6364	0.1	5392.5
27906	3.1719	2.5455	0.1	5365.
27907	3.0812	2.8182	0.1	5389.7
27908	3.1719	2.7273	0.1	5361.1
27909	3.0812	3.	0.1	5388.7
27910	3.1719	2.9091	0.1	5359.2
27911	3.0812	3.1818	0.1	5389.7
27912	3.1719	3.0909	0.1	5359.2
27913	3.0812	3.3636	0.1	5392.5
27914	3.1719	3.2727	0.1	5361.1
27915	3.0812	3.5455	0.1	5397.2
27916	3.1719	3.4545	0.1	5365.
27917	3.0812	3.7273	0.1	5403.9
27918	3.1719	3.6364	0.1	5370.8
27919	3.0812	3.9091	0.1	5412.6
27920	3.1719	3.8182	0.1	5378.5
27921	3.0812	4.0909	0.1	5423.3
27922	3.1719	4.	0.1	5388.2
27923	3.0812	4.2727	0.1	5435.9
27924	3.1719	4.1818	0.1	5399.8
27925	3.0812	4.4545	0.1	5450.6
27926	3.1719	4.3636	0.1	5413.4
27927	3.0812	4.6364	0.1	5467.1
27928	3.1719	4.5455	0.1	5428.9
27929	3.0812	4.8182	0.1	5485.4
27930	3.1719	4.7273	0.1	5446.1
27931	3.0812	5.	0.1	5505.4
27932	3.1719	4.9091	0.1	5464.9
27933	3.0812	5.1818	0.1	5526.9
27934	3.1719	5.0909	0.1	5485.2
27935	3.0812	5.3636	0.1	5549.6
27936	3.1719	5.2727	0.1	5506.7
27937	3.0812	5.5455	0.1	5573.4
27938	3.1719	5.4545	0.1	5529.4
27939	3.0812	5.7273	0.1	5599.6
27940	3.1719	5.6364	0.1	5552.9
27941	3.1719	5.8182	0.1	5579.8
27942	3.0812	5.9091	0.1	5614.6
27943	3.2625	0.27273	0.1	5533.2
27944	3.3531	0.18182	0.1	5512.
27945	3.2625	9.0909e-002	0.1	5548.1
27946	3.2625	0.45455	0.1	5508.9
27947	3.3531	0.36364	0.1	5487.3
27948	3.2625	0.63636	0.1	5486.6
27949	3.3531	0.54545	0.1	5465.4
27950	3.2625	0.81818	0.1	5465.1
27951	3.3531	0.72727	0.1	5444.2
27952	3.2625	1.	0.1	5444.8
27953	3.3531	0.90909	0.1	5423.9
27954	3.2625	1.1818	0.1	5425.6
27955	3.3531	1.0909	0.1	5404.6
27956	3.2625	1.3636	0.1	5407.9
27957	3.3531	1.2727	0.1	5386.6
27958	3.2625	1.5455	0.1	5391.7
27959	3.3531	1.4545	0.1	5370.
27960	3.2625	1.7273	0.1	5377.3
27961	3.3531	1.6364	0.1	5355.
27962	3.2625	1.9091	0.1	5364.7
27963	3.3531	1.8182	0.1	5341.7
27964	3.2625	2.0909	0.1	5354.
27965	3.3531	2.	0.1	5330.2
27966	3.2625	2.2727	0.1	5345.2
27967	3.3531	2.1818	0.1	5320.6
27968	3.2625	2.4545	0.1	5338.4
27969	3.3531	2.3636	0.1	5312.8
27970	3.2625	2.6364	0.1	5333.5
27971	3.3531	2.5455	0.1	5307.
27972	3.2625	2.8182	0.1	5330.6
27973	3.3531	2.7273	0.1	5303.1
27974	3.2625	3.	0.1	5329.6
27975	3.3531	2.9091	0.1	5301.1
27976	3.2625	3.1818	0.1	5330.6
27977	3.3531	3.0909	0.1	5301.1
27978	3.2625	3.3636	0.1	5333.5
27979	3.3531	3.2727	0.1	5303.1
27980	3.2625	3.5455	0.1	5338.4
27981	3.3531	3.4545	0.1	5307.
27982	3.2625	3.7273	0.1	5345.2
27983	3.3531	3.6364	0.1	5312.8
27984	3.2625	3.9091	0.1	5354.
27985	3.3531	3.8182	0.1	5320.6
27986	3.2625	4.0909	0.1	5364.7
27987	3.3531	4.	0.1	5330.2
27988	3.2625	4.2727	0.1	5377.3
27989	3.3531	4.1818	0.1	5341.7
27990	3.2625	4.4545	0.1	5391.7
27991	3.3531	4.3636	0.1	5355.
27992	3.2625	4.6364	0.1	5407.9
27993	3.3531	4.5455	0.1	5370.
27994	3.2625	4.8182	0.1	5425.6
27995	3.3531	4.7273	0.1	5386.6
27996	3.2625	5.	0.1	5444.8
27997	3.3531	4.9091	0.1	5404.6
27998	3.2625	5.1818	0.1	5465.2
27999	3.3531	5.0909	0.1	5423.9
28000	3.2625	5.3636	0.1	5486.6
28001	3.3531	5.2727	0.1	5444.2
28002	3.2625	5.5455	0.1	5508.9
28003	3.3531	5.4545	0.1	5465.4
28004	3.2625	5.7273	0.1	5533.2
28005	3.3531	5.6364	0.1	5487.3
28006	3.3531	5.8182	0.1	5512.
28007	3.2625	5.9091	0.1	5548.1
28008	3.4437	0.27273	0.1	5466.3
28009	3.5344	0.18182	0.1	5443.9
28010	3.4437	9.0909e-002	0.1	5480.9
28011	3.4437	0.45455	0.1	5443.9
28012	3.5344	0.36364	0.1	5421.3
28013	3.4437	0.63636	0.1	5423.1
28014	3.5344	0.54545	0.1	5401.1
28015	3.4437	0.81818	0.1	5403.
28016	3.5344	0.72727	0.1	5381.3
28017	3.4437	1.	0.1	5383.8
28018	3.5344	0.90909	0.1	5362.3
28019	3.4437	1.1818	0.1	5365.7
28020	3.5344	1.0909	0.1	5344.3
28021	3.4437	1.3636	0.1	5348.8
28022	3.5344	1.2727	0.1	5327.3
28023	3.4437	1.5455	0.1	5333.4
28024	3.5344	1.4545	0.1	5311.6
28025	3.4437	1.7273	0.1	5319.4
28026	3.5344	1.6364	0.1	5297.2
28027	3.4437	1.9091	0.1	5307.2
28028	3.5344	1.8182	0.1	5284.5
28029	3.4437	2.0909	0.1	5296.7
28030	3.5344	2.	0.1	5273.3
28031	3.4437	2.2727	0.1	5288.1
28032	3.5344	2.1818	0.1	5264.
28033	3.4437	2.4545	0.1	5281.3
28034	3.5344	2.3636	0.1	5256.4
28035	3.4437	2.6364	0.1	5276.4
28036	3.5344	2.5455	0.1	5250.7
28037	3.4437	2.8182	0.1	5273.5
28038	3.5344	2.7273	0.1	5246.9
28039	3.4437	3.	0.1	5272.5
28040	3.5344	2.9091	0.1	5244.9
28041	3.4437	3.1818	0.1	5273.5
28042	3.5344	3.0909	0.1	5244.9
28043	3.4437	3.3636	0.1	5276.4
28044	3.5344	3.2727	0.1	5246.9
28045	3.4437	3.5455	0.1	5281.3
28046	3.5344	3.4545	0.1	5250.7
28047	3.4437	3.7273	0.1	5288.1
28048	3.5344	3.6364	0.1	5256.4
28049	3.4437	3.9091	0.1	5296.7
28050	3.5344	3.8182	0.1	5264.
28051	3.4437	4.0909	0.1	5307.2
28052	3.5344	4.	0.1	5273.3
28053	3.4437	4.2727	0.1	5319.4
28054	3.5344	4.1818	0.1	5284.5
28055	3.4437	4.4545	0.1	5333.4
28056	3.5344	4.3636	0.1	5297.2
28057	3.4437	4.6364	0.1	5348.8
28058	3.5344	4.5455	0.1	5311.6
28059	3.4437	4.8182	0.1	5365.7
28060	3.5344	4.7273	0.1	5327.3
28061	3.4437	5.	0.1	5383.8
28062	3.5344	4.9091	0.1	5344.3
28063	3.4437	5.1818	0.1	5403.
28064	3.5344	5.0909	0.1	5362.3
28065	3.4437	5.3636	0.1	5423.1
28066	3.5344	5.2727	0.1	5381.3
28067	3.4437	5.5455	0.1	5443.9
28068	3.5344	5.4545	0.1	5401.1
28069	3.4437	5.7273	0.1	5466.3
28070	3.5344	5.6364	0.1	5421.3
28071	3.5344	5.8182	0.1	5443.9
28072	3.4437	5.9091	0.1	5480.9
28073	3.625	0.27273	0.1	5399.1
28074	3.7156	0.18182	0.1	5375.6
28075	3.625	9.0909e-002	0.1	5413.3
28076	3.625	0.45455	0.1	5378.6
28077	3.7156	0.36364	0.1	5355.1
28078	3.625	0.63636	0.1	5359.3
28079	3.7156	0.54545	0.1	5336.4
28080	3.625	0.81818	0.1	5340.7
28081	3.7156	0.72727	0.1	5318.2
28082	3.625	1.	0.1	5322.8
28083	3.7156	0.90909	0.1	5300.7
28084	3.625	1.1818	0.1	5305.9
28085	3.7156	1.0909	0.1	5283.9
28086	3.625	1.3636	0.1	5290.1
28087	3.7156	1.2727	0.1	5268.1
28088	3.625	1.5455	0.1	5275.5
28089	3.7156	1.4545	0.1	5253.4
28090	3.625	1.7273	0.1	5262.3
28091	3.7156	1.6364	0.1	5240.
28092	3.625	1.9091	0.1	5250.6
28093	3.7156	1.8182	0.1	5228.
28094	3.625	2.0909	0.1	5240.5
28095	3.7156	2.	0.1	5217.4
28096	3.625	2.2727	0.1	5232.2
28097	3.7156	2.1818	0.1	5208.5
28098	3.625	2.4545	0.1	5225.7
28099	3.7156	2.3636	0.1	5201.3
28100	3.625	2.6364	0.1	5221.
28101	3.7156	2.5455	0.1	5195.8
28102	3.625	2.8182	0.1	5218.2
28103	3.7156	2.7273	0.1	5192.2
28104	3.625	3.	0.1	5217.2
28105	3.7156	2.9091	0.1	5190.3
28106	3.625	3.1818	0.1	5218.2
28107	3.7156	3.0909	0.1	5190.3
28108	3.625	3.3636	0.1	5221.
28109	3.7156	3.2727	0.1	5192.2
28110	3.625	3.5455	0.1	5225.7
28111	3.7156	3.4545	0.1	5195.8
28112	3.625	3.7273	0.1	5232.2
28113	3.7156	3.6364	0.1	5201.3
28114	3.625	3.9091	0.1	5240.5
28115	3.7156	3.8182	0.1	5208.5
28116	3.625	4.0909	0.1	5250.6
28117	3.7156	4.	0.1	5217.4
28118	3.625	4.2727	0.1	5262.3
28119	3.7156	4.1818	0.1	5228.
28120	3.625	4.4545	0.1	5275.5
28121	3.7156	4.3636	0.1	5240.
28122	3.625	4.6364	0.1	5290.1
28123	3.7156	4.5455	0.1	5253.4
28124	3.625	4.8182	0.1	5305.9
28125	3.7156	4.7273	0.1	5268.1
28126	3.625	5.	0.1	5322.8
28127	3.7156	4.9091	0.1	5283.9
28128	3.625	5.1818	0.1	5340.7
28129	3.7156	5.0909	0.1	5300.7
28130	3.625	5.3636	0.1	5359.3
28131	3.7156	5.2727	0.1	5318.2
28132	3.625	5.5455	0.1	5378.6
28133	3.7156	5.4545	0.1	5336.4
28134	3.625	5.7273	0.1	5399.1
28135	3.7156	5.6364	0.1	5355.1
28136	3.7156	5.8182	0.1	5375.6
28137	3.625	5.9091	0.1	5413.3
28138	3.8063	0.27273	0.1	5331.7
28139	3.8969	0.18182	0.1	5307.1
28140	3.8063	9.0909e-002	0.1	5345.2
28141	3.8063	0.45455	0.1	5313.
28142	3.8969	0.36364	0.1	5288.5
28143	3.8063	0.63636	0.1	5295.4
28144	3.8969	0.54545	0.1	5271.5
28145	3.8063	0.81818	0.1	5278.3
28146	3.8969	0.72727	0.1	5255.
28147	3.8063	1.	0.1	5261.8
28148	3.8969	0.90909	0.1	5239.
28149	3.8063	1.1818	0.1	5246.2
28150	3.8969	1.0909	0.1	5223.6
28151	3.8063	1.3636	0.1	5231.5
28152	3.8969	1.2727	0.1	5209.2
28153	3.8063	1.5455	0.1	5218.
28154	3.8969	1.4545	0.1	5195.7
28155	3.8063	1.7273	0.1	5205.7
28156	3.8969	1.6364	0.1	5183.3
28157	3.8063	1.9091	0.1	5194.8
28158	3.8969	1.8182	0.1	5172.2
28159	3.8063	2.0909	0.1	5185.4
28160	3.8969	2.	0.1	5162.4
28161	3.8063	2.2727	0.1	5177.5
28162	3.8969	2.1818	0.1	5154.1
28163	3.8063	2.4545	0.1	5171.4
28164	3.8969	2.3636	0.1	5147.4
28165	3.8063	2.6364	0.1	5166.9
28166	3.8969	2.5455	0.1	5142.3
28167	3.8063	2.8182	0.1	5164.3
28168	3.8969	2.7273	0.1	5138.9
28169	3.8063	3.	0.1	5163.4
28170	3.8969	2.9091	0.1	5137.1
28171	3.8063	3.1818	0.1	5164.3
28172	3.8969	3.0909	0.1	5137.1
28173	3.8063	3.3636	0.1	5166.9
28174	3.8969	3.2727	0.1	5138.9
28175	3.8063	3.5455	0.1	5171.4
28176	3.8969	3.4545	0.1	5142.3
28177	3.8063	3.7273	0.1	5177.5
28178	3.8969	3.6364	0.1	5147.4
28179	3.8063	3.9091	0.1	5185.4
28180	3.8969	3.8182	0.1	5154.1
28181	3.8063	4.0909	0.1	5194.8
28182	3.8969	4.	0.1	5162.4
28183	3.8063	4.2727	0.1	5205.7
28184	3.8969	4.1818	0.1	5172.2
28185	3.8063	4.4545	0.1	5218.
28186	3.8969	4.3636	0.1	5183.3
28187	3.8063	4.6364	0.1	5231.5
28188	3.8969	4.5455	0.1	5195.7
28189	3.8063	4.8182	0.1	5246.2
28190	3.8969	4.7273	0.1	5209.2
28191	3.8063	5.	0.1	5261.8
28192	3.8969	4.9091	0.1	5223.6
28193	3.8063	5.1818	0.1	5278.3
28194	3.8969	5.0909	0.1	5239.
28195	3.8063	5.3636	0.1	5295.4
28196	3.8969	5.2727	0.1	5255.
28197	3.8063	5.5455	0.1	5313.
28198	3.8969	5.4545	0.1	5271.5
28199	3.8063	5.7273	0.1	5331.7
28200	3.8969	5.6364	0.1	5288.5
28201	3.8969	5.8182	0.1	5307.1
28202	3.8063	5.9091	0.1	5345.2
28203	3.9875	0.27273	0.1	5264.
28204	4.0781	0.18182	0.1	5238.4
28205	3.9875	9.0909e-002	0.1	5276.8
28206	3.9875	0.45455	0.1	5247.2
28207	4.0781	0.36364	0.1	5221.8
28208	3.9875	0.63636	0.1	5231.2
28209	4.0781	0.54545	0.1	5206.5
28210	3.9875	0.81818	0.1	5215.7
28211	4.0781	0.72727	0.1	5191.5
28212	3.9875	1.	0.1	5200.8
28213	4.0781	0.90909	0.1	5177.2
28214	3.9875	1.1818	0.1	5186.6
28215	4.0781	1.0909	0.1	5163.4
28216	3.9875	1.3636	0.1	5173.3
28217	4.0781	1.2727	0.1	5150.4
28218	3.9875	1.5455	0.1	5161.
28219	4.0781	1.4545	0.1	5138.2
28220	3.9875	1.7273	0.1	5149.7
28221	4.0781	1.6364	0.1	5127.1
28222	3.9875	1.9091	0.1	5139.8
28223	4.0781	1.8182	0.1	5117.
28224	3.9875	2.0909	0.1	5131.1
28225	4.0781	2.	0.1	5108.2
28226	3.9875	2.2727	0.1	5123.9
28227	4.0781	2.1818	0.1	5100.7
28228	3.9875	2.4545	0.1	5118.2
28229	4.0781	2.3636	0.1	5094.6
28230	3.9875	2.6364	0.1	5114.1
28231	4.0781	2.5455	0.1	5089.9
28232	3.9875	2.8182	0.1	5111.7
28233	4.0781	2.7273	0.1	5086.8
28234	3.9875	3.	0.1	5110.8
28235	4.0781	2.9091	0.1	5085.2
28236	3.9875	3.1818	0.1	5111.7
28237	4.0781	3.0909	0.1	5085.2
28238	3.9875	3.3636	0.1	5114.1
28239	4.0781	3.2727	0.1	5086.8
28240	3.9875	3.5455	0.1	5118.2
28241	4.0781	3.4545	0.1	5089.9
28242	3.9875	3.7273	0.1	5123.9
28243	4.0781	3.6364	0.1	5094.6
28244	3.9875	3.9091	0.1	5131.1
28245	4.0781	3.8182	0.1	5100.7
28246	3.9875	4.0909	0.1	5139.8
28247	4.0781	4.	0.1	5108.2
28248	3.9875	4.2727	0.1	5149.7
28249	4.0781	4.1818	0.1	5117.
28250	3.9875	4.4545	0.1	5161.
28251	4.0781	4.3636	0.1	5127.1
28252	3.9875	4.6364	0.1	5173.3
28253	4.0781	4.5455	0.1	5138.2
28254	3.9875	4.8182	0.1	5186.6
28255	4.0781	4.7273	0.1	5150.4
28256	3.9875	5.	0.1	5200.8
28257	4.0781	4.9091	0.1	5163.4
28258	3.9875	5.1818	0.1	5215.7
28259	4.0781	5.0909	0.1	5177.2
28260	3.9875	5.3636	0.1	5231.2
28261	4.0781	5.2727	0.1	5191.5
28262	3.9875	5.5455	0.1	5247.2
28263	4.0781	5.4545	0.1	5206.5
28264	3.9875	5.7273	0.1	5264.
28265	4.0781	5.6364	0.1	5221.8
28266	4.0781	5.8182	0.1	5238.4
28267	3.9875	5.9091	0.1	5276.8
28268	4.1687	0.27273	0.1	5196.2
28269	4.2594	0.18182	0.1	5169.4
28270	4.1687	9.0909e-002	0.1	5208.
28271	4.1687	0.45455	0.1	5181.1
28272	4.2594	0.36364	0.1	5154.6
28273	4.1687	0.63636	0.1	5166.8
28274	4.2594	0.54545	0.1	5141.1
28275	4.1687	0.81818	0.1	5153.
28276	4.2594	0.72727	0.1	5127.9
28277	4.1687	1.	0.1	5139.8
28278	4.2594	0.90909	0.1	5115.3
28279	4.1687	1.1818	0.1	5127.2
28280	4.2594	1.0909	0.1	5103.2
28281	4.1687	1.3636	0.1	5115.3
28282	4.2594	1.2727	0.1	5091.8
28283	4.1687	1.5455	0.1	5104.4
28284	4.2594	1.4545	0.1	5081.2
28285	4.1687	1.7273	0.1	5094.4
28286	4.2594	1.6364	0.1	5071.4
28287	4.1687	1.9091	0.1	5085.5
28288	4.2594	1.8182	0.1	5062.6
28289	4.1687	2.0909	0.1	5077.7
28290	4.2594	2.	0.1	5054.8
28291	4.1687	2.2727	0.1	5071.3
28292	4.2594	2.1818	0.1	5048.2
28293	4.1687	2.4545	0.1	5066.2
28294	4.2594	2.3636	0.1	5042.8
28295	4.1687	2.6364	0.1	5062.5
28296	4.2594	2.5455	0.1	5038.7
28297	4.1687	2.8182	0.1	5060.3
28298	4.2594	2.7273	0.1	5036.
28299	4.1687	3.	0.1	5059.6
28300	4.2594	2.9091	0.1	5034.6
28301	4.1687	3.1818	0.1	5060.3
28302	4.2594	3.0909	0.1	5034.6
28303	4.1687	3.3636	0.1	5062.5
28304	4.2594	3.2727	0.1	5036.
28305	4.1687	3.5455	0.1	5066.2
28306	4.2594	3.4545	0.1	5038.7
28307	4.1687	3.7273	0.1	5071.3
28308	4.2594	3.6364	0.1	5042.8
28309	4.1687	3.9091	0.1	5077.7
28310	4.2594	3.8182	0.1	5048.2
28311	4.1687	4.0909	0.1	5085.5
28312	4.2594	4.	0.1	5054.8
28313	4.1687	4.2727	0.1	5094.4
28314	4.2594	4.1818	0.1	5062.6
28315	4.1687	4.4545	0.1	5104.4
28316	4.2594	4.3636	0.1	5071.4
28317	4.1687	4.6364	0.1	5115.3
28318	4.2594	4.5455	0.1	5081.2
28319	4.1687	4.8182	0.1	5127.2
28320	4.2594	4.7273	0.1	5091.8
28321	4.1687	5.	0.1	5139.8
28322	4.2594	4.9091	0.1	5103.2
28323	4.1687	5.1818	0.1	5153.
28324	4.2594	5.0909	0.1	5115.3
28325	4.1687	5.3636	0.1	5166.8
28326	4.2594	5.2727	0.1	5127.9
28327	4.1687	5.5455	0.1	5181.1
28328	4.2594	5.4545	0.1	5141.1
28329	4.1687	5.7273	0.1	5196.2
28330	4.2594	5.6364	0.1	5154.6
28331	4.2594	5.8182	0.1	5169.4
28332	4.1687	5.9091	0.1	5208.
28333	4.35	0.27273	0.1	5127.9
28334	4.4406	0.18182	0.1	5099.8
28335	4.35	9.0909e-002	0.1	5138.6
28336	4.35	0.45455	0.1	5114.6
28337	4.4406	0.36364	0.1	5087.
28338	4.35	0.63636	0.1	5102.2
28339	4.4406	0.54545	0.1	5075.2
28340	4.35	0.81818	0.1	5090.2
28341	4.4406	0.72727	0.1	5064.
28342	4.35	1.	0.1	5078.7
28343	4.4406	0.90909	0.1	5053.2
28344	4.35	1.1818	0.1	5067.8
28345	4.4406	1.0909	0.1	5043.
28346	4.35	1.3636	0.1	5057.6
28347	4.4406	1.2727	0.1	5033.4
28348	4.35	1.5455	0.1	5048.2
28349	4.4406	1.4545	0.1	5024.4
28350	4.35	1.7273	0.1	5039.6
28351	4.4406	1.6364	0.1	5016.2
28352	4.35	1.9091	0.1	5031.9
28353	4.4406	1.8182	0.1	5008.8
28354	4.35	2.0909	0.1	5025.3
28355	4.4406	2.	0.1	5002.3
28356	4.35	2.2727	0.1	5019.7
28357	4.4406	2.1818	0.1	4996.7
28358	4.35	2.4545	0.1	5015.3
28359	4.4406	2.3636	0.1	4992.2
28360	4.35	2.6364	0.1	5012.2
28361	4.4406	2.5455	0.1	4988.8
28362	4.35	2.8182	0.1	5010.3
28363	4.4406	2.7273	0.1	4986.5
28364	4.35	3.	0.1	5009.6
28365	4.4406	2.9091	0.1	4985.4
28366	4.35	3.1818	0.1	5010.3
28367	4.4406	3.0909	0.1	4985.4
28368	4.35	3.3636	0.1	5012.2
28369	4.4406	3.2727	0.1	4986.5
28370	4.35	3.5455	0.1	5015.3
28371	4.4406	3.4545	0.1	4988.8
28372	4.35	3.7273	0.1	5019.7
28373	4.4406	3.6364	0.1	4992.2
28374	4.35	3.9091	0.1	5025.3
28375	4.4406	3.8182	0.1	4996.7
28376	4.35	4.0909	0.1	5031.9
28377	4.4406	4.	0.1	5002.3
28378	4.35	4.2727	0.1	5039.6
28379	4.4406	4.1818	0.1	5008.8
28380	4.35	4.4545	0.1	5048.2
28381	4.4406	4.3636	0.1	5016.2
28382	4.35	4.6364	0.1	5057.6
28383	4.4406	4.5455	0.1	5024.4
28384	4.35	4.8182	0.1	5067.8
28385	4.4406	4.7273	0.1	5033.4
28386	4.35	5.	0.1	5078.7
28387	4.4406	4.9091	0.1	5043.
28388	4.35	5.1818	0.1	5090.2
28389	4.4406	5.0909	0.1	5053.2
28390	4.35	5.3636	0.1	5102.2
28391	4.4406	5.2727	0.1	5064.
28392	4.35	5.5455	0.1	5114.6
28393	4.4406	5.4545	0.1	5075.2
28394	4.35	5.7273	0.1	5127.9
28395	4.4406	5.6364	0.1	5087.
28396	4.4406	5.8182	0.1	5099.8
28397	4.35	5.9091	0.1	5138.6
28398	4.5313	0.27273	0.1	5058.9
28399	4.6219	0.18182	0.1	5029.4
28400	4.5313	9.0909e-002	0.1	5068.5
28401	4.5313	0.45455	0.1	5047.6
28402	4.6219	0.36364	0.1	5018.5
28403	4.5313	0.63636	0.1	5037.1
28404	4.6219	0.54545	0.1	5008.8
28405	4.5313	0.81818	0.1	5027.
28406	4.6219	0.72727	0.1	4999.5
28407	4.5313	1.	0.1	5017.5
28408	4.6219	0.90909	0.1	4990.8
28409	4.5313	1.1818	0.1	5008.5
28410	4.6219	1.0909	0.1	4982.6
28411	4.5313	1.3636	0.1	5000.1
28412	4.6219	1.2727	0.1	4975.
28413	4.5313	1.5455	0.1	4992.4
28414	4.6219	1.4545	0.1	4968.
28415	4.5313	1.7273	0.1	4985.4
28416	4.6219	1.6364	0.1	4961.5
28417	4.5313	1.9091	0.1	4979.2
28418	4.6219	1.8182	0.1	4955.8
28419	4.5313	2.0909	0.1	4973.8
28420	4.6219	2.	0.1	4950.7
28421	4.5313	2.2727	0.1	4969.3
28422	4.6219	2.1818	0.1	4946.4
28423	4.5313	2.4545	0.1	4965.7
28424	4.6219	2.3636	0.1	4942.9
28425	4.5313	2.6364	0.1	4963.1
28426	4.6219	2.5455	0.1	4940.3
28427	4.5313	2.8182	0.1	4961.6
28428	4.6219	2.7273	0.1	4938.5
28429	4.5313	3.	0.1	4961.1
28430	4.6219	2.9091	0.1	4937.6
28431	4.5313	3.1818	0.1	4961.6
28432	4.6219	3.0909	0.1	4937.6
28433	4.5313	3.3636	0.1	4963.1
28434	4.6219	3.2727	0.1	4938.5
28435	4.5313	3.5455	0.1	4965.7
28436	4.6219	3.4545	0.1	4940.3
28437	4.5313	3.7273	0.1	4969.3
28438	4.6219	3.6364	0.1	4942.9
28439	4.5313	3.9091	0.1	4973.8
28440	4.6219	3.8182	0.1	4946.4
28441	4.5313	4.0909	0.1	4979.2
28442	4.6219	4.	0.1	4950.7
28443	4.5313	4.2727	0.1	4985.4
28444	4.6219	4.1818	0.1	4955.8
28445	4.5313	4.4545	0.1	4992.4
28446	4.6219	4.3636	0.1	4961.5
28447	4.5313	4.6364	0.1	5000.1
28448	4.6219	4.5455	0.1	4968.
28449	4.5313	4.8182	0.1	5008.5
28450	4.6219	4.7273	0.1	4975.
28451	4.5313	5.	0.1	5017.5
28452	4.6219	4.9091	0.1	4982.6
28453	4.5313	5.1818	0.1	5027.
28454	4.6219	5.0909	0.1	4990.8
28455	4.5313	5.3636	0.1	5037.1
28456	4.6219	5.2727	0.1	4999.5
28457	4.5313	5.5455	0.1	5047.6
28458	4.6219	5.4545	0.1	5008.8
28459	4.5313	5.7273	0.1	5058.9
28460	4.6219	5.6364	0.1	5018.5
28461	4.6219	5.8182	0.1	5029.4
28462	4.5313	5.9091	0.1	5068.5
28463	4.7125	0.27273	0.1	4989.
28464	4.8031	0.18182	0.1	4957.8
28465	4.7125	9.0909e-002	0.1	4997.2
28466	4.7125	0.45455	0.1	4979.7
28467	4.8031	0.36364	0.1	4949.
28468	4.7125	0.63636	0.1	4971.2
28469	4.8031	0.54545	0.1	4941.3
28470	4.7125	0.81818	0.1	4963.3
28471	4.8031	0.72727	0.1	4934.3
28472	4.7125	1.	0.1	4956.
28473	4.8031	0.90909	0.1	4927.9
28474	4.7125	1.1818	0.1	4949.1
28475	4.8031	1.0909	0.1	4922.
28476	4.7125	1.3636	0.1	4942.8
28477	4.8031	1.2727	0.1	4916.6
28478	4.7125	1.5455	0.1	4937.1
28479	4.8031	1.4545	0.1	4911.8
28480	4.7125	1.7273	0.1	4931.9
28481	4.8031	1.6364	0.1	4907.4
28482	4.7125	1.9091	0.1	4927.3
28483	4.8031	1.8182	0.1	4903.6
28484	4.7125	2.0909	0.1	4923.4
28485	4.8031	2.	0.1	4900.2
28486	4.7125	2.2727	0.1	4920.1
28487	4.8031	2.1818	0.1	4897.4
28488	4.7125	2.4545	0.1	4917.5
28489	4.8031	2.3636	0.1	4895.2
28490	4.7125	2.6364	0.1	4915.7
28491	4.8031	2.5455	0.1	4893.4
28492	4.7125	2.8182	0.1	4914.5
28493	4.8031	2.7273	0.1	4892.3
28494	4.7125	3.	0.1	4914.2
28495	4.8031	2.9091	0.1	4891.7
28496	4.7125	3.1818	0.1	4914.5
28497	4.8031	3.0909	0.1	4891.7
28498	4.7125	3.3636	0.1	4915.7
28499	4.8031	3.2727	0.1	4892.3
28500	4.7125	3.5455	0.1	4917.5
28501	4.8031	3.4545	0.1	4893.4
28502	4.7125	3.7273	0.1	4920.1
28503	4.8031	3.6364	0.1	4895.2
28504	4.7125	3.9091	0.1	4923.4
28505	4.8031	3.8182	0.1	4897.4
28506	4.7125	4.0909	0.1	4927.3
28507	4.8031	4.	0.1	4900.2
28508	4.7125	4.2727	0.1	4931.9
28509	4.8031	4.1818	0.1	4903.6
28510	4.7125	4.4545	0.1	4937.1
28511	4.8031	4.3636	0.1	4907.4
28512	4.7125	4.6364	0.1	4942.8
28513	4.8031	4.5455	0.1	4911.8
28514	4.7125	4.8182	0.1	4949.1
28515	4.8031	4.7273	0.1	4916.6
28516	4.7125	5.	0.1	4956.
28517	4.8031	4.9091	0.1	4922.
28518	4.7125	5.1818	0.1	4963.3
28519	4.8031	5.0909	0.1	4927.9
28520	4.7125	5.3636	0.1	4971.2
28521	4.8031	5.2727	0.1	4934.3
28522	4.7125	5.5455	0.1	4979.7
28523	4.8031	5.4545	0.1	4941.3
28524	4.7125	5.7273	0.1	4989.
28525	4.8031	5.6364	0.1	4949.
28526	4.8031	5.8182	0.1	4957.8
28527	4.7125	5.9091	0.1	4997.2
28528	4.8938	0.27273	0.1	4917.8
28529	4.9844	0.18182	0.1	4884.6
28530	4.8938	9.0909e-002	0.1	4924.4
28531	4.8938	0.45455	0.1	4910.6
28532	4.9844	0.36364	0.1	4877.9
28533	4.8938	0.63636	0.1	4904.4
28534	4.9844	0.54545	0.1	4872.6
28535	4.8938	0.81818	0.1	4898.9
28536	4.9844	0.72727	0.1	4868.
28537	4.8938	1.	0.1	4893.9
28538	4.9844	0.90909	0.1	4864.2
28539	4.8938	1.1818	0.1	4889.5
28540	4.9844	1.0909	0.1	4860.9
28541	4.8938	1.3636	0.1	4885.6
28542	4.9844	1.2727	0.1	4858.2
28543	4.8938	1.5455	0.1	4882.2
28544	4.9844	1.4545	0.1	4855.9
28545	4.8938	1.7273	0.1	4879.1
28546	4.9844	1.6364	0.1	4854.
28547	4.8938	1.9091	0.1	4876.5
28548	4.9844	1.8182	0.1	4852.4
28549	4.8938	2.0909	0.1	4874.3
28550	4.9844	2.	0.1	4851.1
28551	4.8938	2.2727	0.1	4872.5
28552	4.9844	2.1818	0.1	4850.
28553	4.8938	2.4545	0.1	4871.1
28554	4.9844	2.3636	0.1	4849.2
28555	4.8938	2.6364	0.1	4870.
28556	4.9844	2.5455	0.1	4848.6
28557	4.8938	2.8182	0.1	4869.4
28558	4.9844	2.7273	0.1	4848.2
28559	4.8938	3.	0.1	4869.2
28560	4.9844	2.9091	0.1	4848.
28561	4.8938	3.1818	0.1	4869.4
28562	4.9844	3.0909	0.1	4848.
28563	4.8938	3.3636	0.1	4870.
28564	4.9844	3.2727	0.1	4848.2
28565	4.8938	3.5455	0.1	4871.1
28566	4.9844	3.4545	0.1	4848.6
28567	4.8938	3.7273	0.1	4872.5
28568	4.9844	3.6364	0.1	4849.2
28569	4.8938	3.9091	0.1	4874.3
28570	4.9844	3.8182	0.1	4850.
28571	4.8938	4.0909	0.1	4876.5
28572	4.9844	4.	0.1	4851.1
28573	4.8938	4.2727	0.1	4879.1
28574	4.9844	4.1818	0.1	4852.4
28575	4.8938	4.4545	0.1	4882.2
28576	4.9844	4.3636	0.1	4854.
28577	4.8938	4.6364	0.1	4885.6
28578	4.9844	4.5455	0.1	4855.9
28579	4.8938	4.8182	0.1	4889.5
28580	4.9844	4.7273	0.1	4858.2
28581	4.8938	5.	0.1	4893.9
28582	4.9844	4.9091	0.1	4860.9
28583	4.8938	5.1818	0.1	4898.9
28584	4.9844	5.0909	0.1	4864.2
28585	4.8938	5.3636	0.1	4904.4
28586	4.9844	5.2727	0.1	4868.
28587	4.8938	5.5455	0.1	4910.6
28588	4.9844	5.4545	0.1	4872.6
28589	4.8938	5.7273	0.1	4917.8
28590	4.9844	5.6364	0.1	4877.9
28591	4.9844	5.8182	0.1	4884.6
28592	4.8938	5.9091	0.1	4924.4
28593	5.075	0.27273	0.1	4844.7
28594	5.1656	0.18182	0.1	4809.
28595	5.075	9.0909e-002	0.1	4849.6
28596	5.075	0.45455	0.1	4839.9
28597	5.1656	0.36364	0.1	4804.7
28598	5.075	0.63636	0.1	4836.2
28599	5.1656	0.54545	0.1	4802.
28600	5.075	0.81818	0.1	4833.3
28601	5.1656	0.72727	0.1	4800.2
28602	5.075	1.	0.1	4831.2
28603	5.1656	0.90909	0.1	4799.3
28604	5.075	1.1818	0.1	4829.6
28605	5.1656	1.0909	0.1	4799.2
28606	5.075	1.3636	0.1	4828.5
28607	5.1656	1.2727	0.1	4799.5
28608	5.075	1.5455	0.1	4827.7
28609	5.1656	1.4545	0.1	4800.2
28610	5.075	1.7273	0.1	4827.2
28611	5.1656	1.6364	0.1	4801.2
28612	5.075	1.9091	0.1	4826.9
28613	5.1656	1.8182	0.1	4802.3
28614	5.075	2.0909	0.1	4826.8
28615	5.1656	2.	0.1	4803.4
28616	5.075	2.2727	0.1	4826.7
28617	5.1656	2.1818	0.1	4804.5
28618	5.075	2.4545	0.1	4826.7
28619	5.1656	2.3636	0.1	4805.5
28620	5.075	2.6364	0.1	4826.7
28621	5.1656	2.5455	0.1	4806.2
28622	5.075	2.8182	0.1	4826.7
28623	5.1656	2.7273	0.1	4806.8
28624	5.075	3.	0.1	4826.8
28625	5.1656	2.9091	0.1	4807.1
28626	5.075	3.1818	0.1	4826.7
28627	5.1656	3.0909	0.1	4807.1
28628	5.075	3.3636	0.1	4826.7
28629	5.1656	3.2727	0.1	4806.8
28630	5.075	3.5455	0.1	4826.7
28631	5.1656	3.4545	0.1	4806.2
28632	5.075	3.7273	0.1	4826.7
28633	5.1656	3.6364	0.1	4805.5
28634	5.075	3.9091	0.1	4826.8
28635	5.1656	3.8182	0.1	4804.5
28636	5.075	4.0909	0.1	4826.9
28637	5.1656	4.	0.1	4803.4
28638	5.075	4.2727	0.1	4827.2
28639	5.1656	4.1818	0.1	4802.3
28640	5.075	4.4545	0.1	4827.7
28641	5.1656	4.3636	0.1	4801.2
28642	5.075	4.6364	0.1	4828.5
28643	5.1656	4.5455	0.1	4800.2
28644	5.075	4.8182	0.1	4829.6
28645	5.1656	4.7273	0.1	4799.5
28646	5.075	5.	0.1	4831.2
28647	5.1656	4.9091	0.1	4799.2
28648	5.075	5.1818	0.1	4833.3
28649	5.1656	5.0909	0.1	4799.3
28650	5.075	5.3636	0.1	4836.2
28651	5.1656	5.2727	0.1	4800.2
28652	5.075	5.5455	0.1	4839.9
28653	5.1656	5.4545	0.1	4802.
28654	5.075	5.7273	0.1	4844.7
28655	5.1656	5.6364	0.1	4804.7
28656	5.1656	5.8182	0.1	4809.
28657	5.075	5.9091	0.1	4849.6
28658	5.2562	0.27273	0.1	4769.1
28659	5.3469	0.18182	0.1	4730.4
28660	5.2562	9.0909e-002	0.1	4772.
28661	5.2562	0.45455	0.1	4766.8
28662	5.3469	0.36364	0.1	4728.8
28663	5.2562	0.63636	0.1	4766.
28664	5.3469	0.54545	0.1	4728.9
28665	5.2562	0.81818	0.1	4766.2
28666	5.3469	0.72727	0.1	4730.4
28667	5.2562	1.	0.1	4767.3
28668	5.3469	0.90909	0.1	4733.
28669	5.2562	1.1818	0.1	4769.1
28670	5.3469	1.0909	0.1	4736.4
28671	5.2562	1.3636	0.1	4771.3
28672	5.3469	1.2727	0.1	4740.4
28673	5.2562	1.5455	0.1	4773.7
28674	5.3469	1.4545	0.1	4744.7
28675	5.2562	1.7273	0.1	4776.3
28676	5.3469	1.6364	0.1	4749.2
28677	5.2562	1.9091	0.1	4778.8
28678	5.3469	1.8182	0.1	4753.6
28679	5.2562	2.0909	0.1	4781.2
28680	5.3469	2.	0.1	4757.7
28681	5.2562	2.2727	0.1	4783.3
28682	5.3469	2.1818	0.1	4761.4
28683	5.2562	2.4545	0.1	4785.
28684	5.3469	2.3636	0.1	4764.6
28685	5.2562	2.6364	0.1	4786.3
28686	5.3469	2.5455	0.1	4767.
28687	5.2562	2.8182	0.1	4787.1
28688	5.3469	2.7273	0.1	4768.7
28689	5.2562	3.	0.1	4787.3
28690	5.3469	2.9091	0.1	4769.6
28691	5.2562	3.1818	0.1	4787.1
28692	5.3469	3.0909	0.1	4769.6
28693	5.2562	3.3636	0.1	4786.3
28694	5.3469	3.2727	0.1	4768.7
28695	5.2562	3.5455	0.1	4785.
28696	5.3469	3.4545	0.1	4767.
28697	5.2562	3.7273	0.1	4783.3
28698	5.3469	3.6364	0.1	4764.6
28699	5.2562	3.9091	0.1	4781.2
28700	5.3469	3.8182	0.1	4761.4
28701	5.2562	4.0909	0.1	4778.8
28702	5.3469	4.	0.1	4757.7
28703	5.2562	4.2727	0.1	4776.3
28704	5.3469	4.1818	0.1	4753.6
28705	5.2562	4.4545	0.1	4773.7
28706	5.3469	4.3636	0.1	4749.2
28707	5.2562	4.6364	0.1	4771.3
28708	5.3469	4.5455	0.1	4744.7
28709	5.2562	4.8182	0.1	4769.1
28710	5.3469	4.7273	0.1	4740.4
28711	5.2562	5.	0.1	4767.3
28712	5.3469	4.9091	0.1	4736.4
28713	5.2562	5.1818	0.1	4766.2
28714	5.3469	5.0909	0.1	4733.
28715	5.2562	5.3636	0.1	4766.
28716	5.3469	5.2727	0.1	4730.4
28717	5.2562	5.5455	0.1	4766.8
28718	5.3469	5.4545	0.1	4728.9
28719	5.2562	5.7273	0.1	4769.1
28720	5.3469	5.6364	0.1	4728.8
28721	5.3469	5.8182	0.1	4730.4
28722	5.2562	5.9091	0.1	4772.
28723	5.4375	0.27273	0.1	4690.1
28724	5.5281	0.18182	0.1	4647.9
28725	5.4375	9.0909e-002	0.1	4690.9
28726	5.4375	0.45455	0.1	4690.8
28727	5.5281	0.36364	0.1	4649.1
28728	5.4375	0.63636	0.1	4693.3
28729	5.5281	0.54545	0.1	4652.6
28730	5.4375	0.81818	0.1	4697.1
28731	5.5281	0.72727	0.1	4657.8
28732	5.4375	1.	0.1	4702.
28733	5.5281	0.90909	0.1	4664.5
28734	5.4375	1.1818	0.1	4707.7
28735	5.5281	1.0909	0.1	4672.2
28736	5.4375	1.3636	0.1	4713.9
28737	5.5281	1.2727	0.1	4680.6
28738	5.4375	1.5455	0.1	4720.2
28739	5.5281	1.4545	0.1	4689.4
28740	5.4375	1.7273	0.1	4726.5
28741	5.5281	1.6364	0.1	4698.1
28742	5.4375	1.9091	0.1	4732.5
28743	5.5281	1.8182	0.1	4706.6
28744	5.4375	2.0909	0.1	4738.
28745	5.5281	2.	0.1	4714.4
28746	5.4375	2.2727	0.1	4742.7
28747	5.5281	2.1818	0.1	4721.4
28748	5.4375	2.4545	0.1	4746.6
28749	5.5281	2.3636	0.1	4727.2
28750	5.4375	2.6364	0.1	4749.5
28751	5.5281	2.5455	0.1	4731.8
28752	5.4375	2.8182	0.1	4751.2
28753	5.5281	2.7273	0.1	4734.9
28754	5.4375	3.	0.1	4751.8
28755	5.5281	2.9091	0.1	4736.5
28756	5.4375	3.1818	0.1	4751.2
28757	5.5281	3.0909	0.1	4736.5
28758	5.4375	3.3636	0.1	4749.5
28759	5.5281	3.2727	0.1	4734.9
28760	5.4375	3.5455	0.1	4746.6
28761	5.5281	3.4545	0.1	4731.8
28762	5.4375	3.7273	0.1	4742.7
28763	5.5281	3.6364	0.1	4727.2
28764	5.4375	3.9091	0.1	4738.
28765	5.5281	3.8182	0.1	4721.4
28766	5.4375	4.0909	0.1	4732.5
28767	5.5281	4.	0.1	4714.4
28768	5.4375	4.2727	0.1	4726.5
28769	5.5281	4.1818	0.1	4706.6
28770	5.4375	4.4545	0.1	4720.2
28771	5.5281	4.3636	0.1	4698.1
28772	5.4375	4.6364	0.1	4713.9
28773	5.5281	4.5455	0.1	4689.4
28774	5.4375	4.8182	0.1	4707.7
28775	5.5281	4.7273	0.1	4680.6
28776	5.4375	5.	0.1	4702.
28777	5.5281	4.9091	0.1	4672.2
28778	5.4375	5.1818	0.1	4697.1
28779	5.5281	5.0909	0.1	4664.5
28780	5.4375	5.3636	0.1	4693.3
28781	5.5281	5.2727	0.1	4657.8
28782	5.4375	5.5455	0.1	4690.8
28783	5.5281	5.4545	0.1	4652.6
28784	5.4375	5.7273	0.1	4690.1
28785	5.5281	5.6364	0.1	4649.1
28786	5.5281	5.8182	0.1	4647.9
28787	5.4375	5.9091	0.1	4690.9
28788	5.6188	0.27273	0.1	4606.8
28789	5.7094	0.18182	0.1	4560.1
28790	5.6188	9.0909e-002	0.1	4605.1
28791	5.6188	0.45455	0.1	4610.9
28792	5.7094	0.36364	0.1	4564.7
28793	5.6188	0.63636	0.1	4617.1
28794	5.7094	0.54545	0.1	4572.
28795	5.6188	0.81818	0.1	4625.2
28796	5.7094	0.72727	0.1	4581.7
28797	5.6188	1.	0.1	4634.7
28798	5.7094	0.90909	0.1	4593.2
28799	5.6188	1.1818	0.1	4645.1
28800	5.7094	1.0909	0.1	4606.1
28801	5.6188	1.3636	0.1	4656.1
28802	5.7094	1.2727	0.1	4619.9
28803	5.6188	1.5455	0.1	4667.3
28804	5.7094	1.4545	0.1	4634.1
28805	5.6188	1.7273	0.1	4678.2
28806	5.7094	1.6364	0.1	4648.1
28807	5.6188	1.9091	0.1	4688.5
28808	5.7094	1.8182	0.1	4661.6
28809	5.6188	2.0909	0.1	4697.8
28810	5.7094	2.	0.1	4674.
28811	5.6188	2.2727	0.1	4705.9
28812	5.7094	2.1818	0.1	4685.1
28813	5.6188	2.4545	0.1	4712.4
28814	5.7094	2.3636	0.1	4694.4
28815	5.6188	2.6364	0.1	4717.3
28816	5.7094	2.5455	0.1	4701.6
28817	5.6188	2.8182	0.1	4720.2
28818	5.7094	2.7273	0.1	4706.6
28819	5.6188	3.	0.1	4721.2
28820	5.7094	2.9091	0.1	4709.1
28821	5.6188	3.1818	0.1	4720.2
28822	5.7094	3.0909	0.1	4709.1
28823	5.6188	3.3636	0.1	4717.3
28824	5.7094	3.2727	0.1	4706.6
28825	5.6188	3.5455	0.1	4712.4
28826	5.7094	3.4545	0.1	4701.6
28827	5.6188	3.7273	0.1	4705.9
28828	5.7094	3.6364	0.1	4694.4
28829	5.6188	3.9091	0.1	4697.8
28830	5.7094	3.8182	0.1	4685.1
28831	5.6188	4.0909	0.1	4688.5
28832	5.7094	4.	0.1	4674.
28833	5.6188	4.2727	0.1	4678.2
28834	5.7094	4.1818	0.1	4661.6
28835	5.6188	4.4545	0.1	4667.3
28836	5.7094	4.3636	0.1	4648.1
28837	5.6188	4.6364	0.1	4656.1
28838	5.7094	4.5455	0.1	4634.1
28839	5.6188	4.8182	0.1	4645.1
28840	5.7094	4.7273	0.1	4619.9
28841	5.6188	5.	0.1	4634.7
28842	5.7094	4.9091	0.1	4606.1
28843	5.6188	5.1818	0.1	4625.2
28844	5.7094	5.0909	0.1	4593.2
28845	5.6188	5.3636	0.1	4617.1
28846	5.7094	5.2727	0.1	4581.7
28847	5.6188	5.5455	0.1	4610.9
28848	5.7094	5.4545	0.1	4572.
28849	5.6188	5.7273	0.1	4606.8
28850	5.7094	5.6364	0.1	4564.7
28851	5.7094	5.8182	0.1	4560.1
28852	5.6188	5.9091	0.1	4605.1
28853	5.8	0.27273	0.1	4518.
28854	5.8906	0.18182	0.1	4465.8
28855	5.8	9.0909e-002	0.1	4513.4
28856	5.8	0.45455	0.1	4525.8
28857	5.8906	0.36364	0.1	4474.1
28858	5.8	0.63636	0.1	4536.6
28859	5.8906	0.54545	0.1	4486.
28860	5.8	0.81818	0.1	4549.7
28861	5.8906	0.72727	0.1	4500.9
28862	5.8	1.	0.1	4564.7
28863	5.8906	0.90909	0.1	4518.3
28864	5.8	1.1818	0.1	4580.9
28865	5.8906	1.0909	0.1	4537.5
28866	5.8	1.3636	0.1	4597.9
28867	5.8906	1.2727	0.1	4557.9
28868	5.8	1.5455	0.1	4614.9
28869	5.8906	1.4545	0.1	4578.7
28870	5.8	1.7273	0.1	4631.5
28871	5.8906	1.6364	0.1	4599.4
28872	5.8	1.9091	0.1	4647.2
28873	5.8906	1.8182	0.1	4619.1
28874	5.8	2.0909	0.1	4661.3
28875	5.8906	2.	0.1	4637.4
28876	5.8	2.2727	0.1	4673.6
28877	5.8906	2.1818	0.1	4653.6
28878	5.8	2.4545	0.1	4683.6
28879	5.8906	2.3636	0.1	4667.2
28880	5.8	2.6364	0.1	4690.9
28881	5.8906	2.5455	0.1	4677.9
28882	5.8	2.8182	0.1	4695.4
28883	5.8906	2.7273	0.1	4685.2
28884	5.8	3.	0.1	4697.
28885	5.8906	2.9091	0.1	4688.9
28886	5.8	3.1818	0.1	4695.4
28887	5.8906	3.0909	0.1	4688.9
28888	5.8	3.3636	0.1	4690.9
28889	5.8906	3.2727	0.1	4685.2
28890	5.8	3.5455	0.1	4683.6
28891	5.8906	3.4545	0.1	4677.9
28892	5.8	3.7273	0.1	4673.6
28893	5.8906	3.6364	0.1	4667.2
28894	5.8	3.9091	0.1	4661.3
28895	5.8906	3.8182	0.1	4653.6
28896	5.8	4.0909	0.1	4647.2
28897	5.8906	4.	0.1	4637.4
28898	5.8	4.2727	0.1	4631.5
28899	5.8906	4.1818	0.1	4619.1
28900	5.8	4.4545	0.1	4614.9
28901	5.8906	4.3636	0.1	4599.4
28902	5.8	4.6364	0.1	4597.9
28903	5.8906	4.5455	0.1	4578.7
28904	5.8	4.8182	0.1	4580.9
28905	5.8906	4.7273	0.1	4557.9
28906	5.8	5.	0.1	4564.7
28907	5.8906	4.9091	0.1	4537.5
28908	5.8	5.1818	0.1	4549.7
28909	5.8906	5.0909	0.1	4518.3
28910	5.8	5.3636	0.1	4536.6
28911	5.8906	5.2727	0.1	4500.9
28912	5.8	5.5455	0.1	4525.8
28913	5.8906	5.4545	0.1	4486.
28914	5.8	5.7273	0.1	4518.
28915	5.8906	5.6364	0.1	4474.1
28916	5.8906	5.8182	0.1	4465.8
28917	5.8	5.9091	0.1	4513.4
28918	5.9812	0.27273	0.1	4422.
28919	6.0719	0.18182	0.1	4363.2
28920	5.9812	9.0909e-002	0.1	4414.2
28921	5.9812	0.45455	0.1	4434.3
28922	6.0719	0.36364	0.1	4375.8
28923	5.9812	0.63636	0.1	4450.3
28924	6.0719	0.54545	0.1	4393.
28925	5.9812	0.81818	0.1	4469.5
28926	6.0719	0.72727	0.1	4414.2
28927	5.9812	1.	0.1	4491.2
28928	6.0719	0.90909	0.1	4438.6
28929	5.9812	1.1818	0.1	4514.5
28930	6.0719	1.0909	0.1	4465.6
28931	5.9812	1.3636	0.1	4538.8
28932	6.0719	1.2727	0.1	4494.1
28933	5.9812	1.5455	0.1	4563.2
28934	6.0719	1.4545	0.1	4523.3
28935	5.9812	1.7273	0.1	4587.
28936	6.0719	1.6364	0.1	4552.1
28937	5.9812	1.9091	0.1	4609.4
28938	6.0719	1.8182	0.1	4579.8
28939	5.9812	2.0909	0.1	4629.6
28940	6.0719	2.	0.1	4605.4
28941	5.9812	2.2727	0.1	4647.2
28942	6.0719	2.1818	0.1	4628.2
28943	5.9812	2.4545	0.1	4661.5
28944	6.0719	2.3636	0.1	4647.3
28945	5.9812	2.6364	0.1	4672.1
28946	6.0719	2.5455	0.1	4662.3
28947	5.9812	2.8182	0.1	4678.6
28948	6.0719	2.7273	0.1	4672.6
28949	5.9812	3.	0.1	4680.8
28950	6.0719	2.9091	0.1	4677.9
28951	5.9812	3.1818	0.1	4678.6
28952	6.0719	3.0909	0.1	4677.9
28953	5.9812	3.3636	0.1	4672.1
28954	6.0719	3.2727	0.1	4672.6
28955	5.9812	3.5455	0.1	4661.5
28956	6.0719	3.4545	0.1	4662.3
28957	5.9812	3.7273	0.1	4647.2
28958	6.0719	3.6364	0.1	4647.3
28959	5.9812	3.9091	0.1	4629.6
28960	6.0719	3.8182	0.1	4628.2
28961	5.9812	4.0909	0.1	4609.4
28962	6.0719	4.	0.1	4605.4
28963	5.9812	4.2727	0.1	4587.
28964	6.0719	4.1818	0.1	4579.8
28965	5.9812	4.4545	0.1	4563.2
28966	6.0719	4.3636	0.1	4552.1
28967	5.9812	4.6364	0.1	4538.8
28968	6.0719	4.5455	0.1	4523.3
28969	5.9812	4.8182	0.1	4514.5
28970	6.0719	4.7273	0.1	4494.1
28971	5.9812	5.	0.1	4491.2
28972	6.0719	4.9091	0.1	4465.6
28973	5.9812	5.1818	0.1	4469.5
28974	6.0719	5.0909	0.1	4438.6
28975	5.9812	5.3636	0.1	4450.3
28976	6.0719	5.2727	0.1	4414.2
28977	5.9812	5.5455	0.1	4434.3
28978	6.0719	5.4545	0.1	4393.
28979	5.9812	5.7273	0.1	4422.
28980	6.0719	5.6364	0.1	4375.8
28981	6.0719	5.8182	0.1	4363.2
28982	5.9812	5.9091	0.1	4414.2
28983	6.1625	0.27273	0.1	4317.1
28984	6.2531	0.18182	0.1	4250.2
28985	6.1625	9.0909e-002	0.1	4305.5
28986	6.1625	0.45455	0.1	4334.6
28987	6.2531	0.36364	0.1	4267.8
28988	6.1625	0.63636	0.1	4356.9
28989	6.2531	0.54545	0.1	4291.2
28990	6.1625	0.81818	0.1	4383.3
28991	6.2531	0.72727	0.1	4319.9
28992	6.1625	1.	0.1	4413.1
28993	6.2531	0.90909	0.1	4352.9
28994	6.1625	1.1818	0.1	4445.2
28995	6.2531	1.0909	0.1	4389.3
28996	6.1625	1.3636	0.1	4478.6
28997	6.2531	1.2727	0.1	4427.9
28998	6.1625	1.5455	0.1	4512.2
28999	6.2531	1.4545	0.1	4467.5
29000	6.1625	1.7273	0.1	4545.
29001	6.2531	1.6364	0.1	4506.7
29002	6.1625	1.9091	0.1	4575.9
29003	6.2531	1.8182	0.1	4544.4
29004	6.1625	2.0909	0.1	4603.9
29005	6.2531	2.	0.1	4579.3
29006	6.1625	2.2727	0.1	4628.3
29007	6.2531	2.1818	0.1	4610.4
29008	6.1625	2.4545	0.1	4648.1
29009	6.2531	2.3636	0.1	4636.7
29010	6.1625	2.6364	0.1	4662.9
29011	6.2531	2.5455	0.1	4657.3
29012	6.1625	2.8182	0.1	4671.9
29013	6.2531	2.7273	0.1	4671.5
29014	6.1625	3.	0.1	4675.
29015	6.2531	2.9091	0.1	4678.7
29016	6.1625	3.1818	0.1	4671.9
29017	6.2531	3.0909	0.1	4678.7
29018	6.1625	3.3636	0.1	4662.9
29019	6.2531	3.2727	0.1	4671.5
29020	6.1625	3.5455	0.1	4648.1
29021	6.2531	3.4545	0.1	4657.3
29022	6.1625	3.7273	0.1	4628.3
29023	6.2531	3.6364	0.1	4636.7
29024	6.1625	3.9091	0.1	4603.9
29025	6.2531	3.8182	0.1	4610.4
29026	6.1625	4.0909	0.1	4575.9
29027	6.2531	4.	0.1	4579.3
29028	6.1625	4.2727	0.1	4545.
29029	6.2531	4.1818	0.1	4544.4
29030	6.1625	4.4545	0.1	4512.2
29031	6.2531	4.3636	0.1	4506.7
29032	6.1625	4.6364	0.1	4478.6
29033	6.2531	4.5455	0.1	4467.5
29034	6.1625	4.8182	0.1	4445.2
29035	6.2531	4.7273	0.1	4427.9
29036	6.1625	5.	0.1	4413.1
29037	6.2531	4.9091	0.1	4389.3
29038	6.1625	5.1818	0.1	4383.3
29039	6.2531	5.0909	0.1	4352.9
29040	6.1625	5.3636	0.1	4356.9
29041	6.2531	5.2727	0.1	4319.9
29042	6.1625	5.5455	0.1	4334.6
29043	6.2531	5.4545	0.1	4291.2
29044	6.1625	5.7273	0.1	4317.1
29045	6.2531	5.6364	0.1	4267.8
29046	6.2531	5.8182	0.1	4250.2
29047	6.1625	5.9091	0.1	4305.5
29048	6.3438	0.27273	0.1	4200.9
29049	6.4344	0.18182	0.1	4124.3
29050	6.3438	9.0909e-002	0.1	4185.1
29051	6.3438	0.45455	0.1	4224.4
29052	6.4344	0.36364	0.1	4147.5
29053	6.3438	0.63636	0.1	4254.2
29054	6.4344	0.54545	0.1	4178.3
29055	6.3438	0.81818	0.1	4289.5
29056	6.4344	0.72727	0.1	4215.9
29057	6.3438	1.	0.1	4329.2
29058	6.4344	0.90909	0.1	4259.4
29059	6.3438	1.1818	0.1	4372.1
29060	6.4344	1.0909	0.1	4307.5
29061	6.3438	1.3636	0.1	4416.9
29062	6.4344	1.2727	0.1	4358.7
29063	6.3438	1.5455	0.1	4462.
29064	6.4344	1.4545	0.1	4411.2
29065	6.3438	1.7273	0.1	4506.2
29066	6.4344	1.6364	0.1	4463.5
29067	6.3438	1.9091	0.1	4547.9
29068	6.4344	1.8182	0.1	4513.9
29069	6.3438	2.0909	0.1	4585.8
29070	6.4344	2.	0.1	4560.7
29071	6.3438	2.2727	0.1	4618.8
29072	6.4344	2.1818	0.1	4602.5
29073	6.3438	2.4545	0.1	4645.8
29074	6.4344	2.3636	0.1	4637.9
29075	6.3438	2.6364	0.1	4665.9
29076	6.4344	2.5455	0.1	4665.7
29077	6.3438	2.8182	0.1	4678.2
29078	6.4344	2.7273	0.1	4684.9
29079	6.3438	3.	0.1	4682.4
29080	6.4344	2.9091	0.1	4694.6
29081	6.3438	3.1818	0.1	4678.2
29082	6.4344	3.0909	0.1	4694.6
29083	6.3438	3.3636	0.1	4665.9
29084	6.4344	3.2727	0.1	4684.9
29085	6.3438	3.5455	0.1	4645.8
29086	6.4344	3.4545	0.1	4665.7
29087	6.3438	3.7273	0.1	4618.8
29088	6.4344	3.6364	0.1	4637.9
29089	6.3438	3.9091	0.1	4585.8
29090	6.4344	3.8182	0.1	4602.5
29091	6.3438	4.0909	0.1	4547.9
29092	6.4344	4.	0.1	4560.7
29093	6.3438	4.2727	0.1	4506.2
29094	6.4344	4.1818	0.1	4513.9
29095	6.3438	4.4545	0.1	4462.
29096	6.4344	4.3636	0.1	4463.5
29097	6.3438	4.6364	0.1	4416.9
29098	6.4344	4.5455	0.1	4411.2
29099	6.3438	4.8182	0.1	4372.1
29100	6.4344	4.7273	0.1	4358.7
29101	6.3438	5.	0.1	4329.2
29102	6.4344	4.9091	0.1	4307.5
29103	6.3438	5.1818	0.1	4289.5
29104	6.4344	5.0909	0.1	4259.4
29105	6.3438	5.3636	0.1	4254.2
29106	6.4344	5.2727	0.1	4215.9
29107	6.3438	5.5455	0.1	4224.4
29108	6.4344	5.4545	0.1	4178.3
29109	6.3438	5.7273	0.1	4200.9
29110	6.4344	5.6364	0.1	4147.5
29111	6.4344	5.8182	0.1	4124.3
29112	6.3438	5.9091	0.1	4185.1
29113	6.525	0.27273	0.1	4070.9
29114	6.6156	0.18182	0.1	3982.5
29115	6.525	9.0909e-002	0.1	4050.1
29116	6.525	0.45455	0.1	4101.4
29117	6.6156	0.36364	0.1	4012.2
29118	6.525	0.63636	0.1	4140.
29119	6.6156	0.54545	0.1	4051.5
29120	6.525	0.81818	0.1	4186.
29121	6.6156	0.72727	0.1	4099.9
29122	6.525	1.	0.1	4237.9
29123	6.6156	0.90909	0.1	4156.1
29124	6.525	1.1818	0.1	4294.2
29125	6.6156	1.0909	0.1	4218.6
29126	6.525	1.3636	0.1	4353.2
29127	6.6156	1.2727	0.1	4285.5
29128	6.525	1.5455	0.1	4412.9
29129	6.6156	1.4545	0.1	4354.4
29130	6.525	1.7273	0.1	4471.4
29131	6.6156	1.6364	0.1	4423.2
29132	6.525	1.9091	0.1	4526.8
29133	6.6156	1.8182	0.1	4489.6
29134	6.525	2.0909	0.1	4577.4
29135	6.6156	2.	0.1	4551.6
29136	6.525	2.2727	0.1	4621.5
29137	6.6156	2.1818	0.1	4607.
29138	6.525	2.4545	0.1	4657.7
29139	6.6156	2.3636	0.1	4654.1
29140	6.525	2.6364	0.1	4684.6
29141	6.6156	2.5455	0.1	4691.3
29142	6.525	2.8182	0.1	4701.2
29143	6.6156	2.7273	0.1	4716.9
29144	6.525	3.	0.1	4706.9
29145	6.6156	2.9091	0.1	4730.
29146	6.525	3.1818	0.1	4701.2
29147	6.6156	3.0909	0.1	4730.
29148	6.525	3.3636	0.1	4684.6
29149	6.6156	3.2727	0.1	4716.9
29150	6.525	3.5455	0.1	4657.7
29151	6.6156	3.4545	0.1	4691.3
29152	6.525	3.7273	0.1	4621.5
29153	6.6156	3.6364	0.1	4654.1
29154	6.525	3.9091	0.1	4577.4
29155	6.6156	3.8182	0.1	4607.
29156	6.525	4.0909	0.1	4526.8
29157	6.6156	4.	0.1	4551.6
29158	6.525	4.2727	0.1	4471.4
29159	6.6156	4.1818	0.1	4489.6
29160	6.525	4.4545	0.1	4412.9
29161	6.6156	4.3636	0.1	4423.2
29162	6.525	4.6364	0.1	4353.2
29163	6.6156	4.5455	0.1	4354.4
29164	6.525	4.8182	0.1	4294.2
29165	6.6156	4.7273	0.1	4285.5
29166	6.525	5.	0.1	4237.9
29167	6.6156	4.9091	0.1	4218.6
29168	6.525	5.1818	0.1	4186.
29169	6.6156	5.0909	0.1	4156.1
29170	6.525	5.3636	0.1	4140.
29171	6.6156	5.2727	0.1	4099.9
29172	6.525	5.5455	0.1	4101.4
29173	6.6156	5.4545	0.1	4051.5
29174	6.525	5.7273	0.1	4070.9
29175	6.6156	5.6364	0.1	4012.2
29176	6.6156	5.8182	0.1	3982.5
29177	6.525	5.9091	0.1	4050.1
29178	6.7063	0.27273	0.1	3923.9
29179	6.7969	0.18182	0.1	3821.5
29180	6.7063	9.0909e-002	0.1	3897.2
29181	6.7063	0.45455	0.1	3962.4
29182	6.7969	0.36364	0.1	3858.4
29183	6.7063	0.63636	0.1	4011.5
29184	6.7969	0.54545	0.1	3907.7
29185	6.7063	0.81818	0.1	4070.3
29186	6.7969	0.72727	0.1	3968.9
29187	6.7063	1.	0.1	4137.2
29188	6.7969	0.90909	0.1	4040.6
29189	6.7063	1.1818	0.1	4210.2
29190	6.7969	1.0909	0.1	4120.9
29191	6.7063	1.3636	0.1	4286.9
29192	6.7969	1.2727	0.1	4207.2
29193	6.7063	1.5455	0.1	4364.9
29194	6.7969	1.4545	0.1	4296.8
29195	6.7063	1.7273	0.1	4441.6
29196	6.7969	1.6364	0.1	4386.5
29197	6.7063	1.9091	0.1	4514.5
29198	6.7969	1.8182	0.1	4473.4
29199	6.7063	2.0909	0.1	4581.3
29200	6.7969	2.	0.1	4554.7
29201	6.7063	2.2727	0.1	4639.7
29202	6.7969	2.1818	0.1	4627.6
29203	6.7063	2.4545	0.1	4687.7
29204	6.7969	2.3636	0.1	4689.8
29205	6.7063	2.6364	0.1	4723.5
29206	6.7969	2.5455	0.1	4739.
29207	6.7063	2.8182	0.1	4745.7
29208	6.7969	2.7273	0.1	4773.
29209	6.7063	3.	0.1	4753.2
29210	6.7969	2.9091	0.1	4790.4
29211	6.7063	3.1818	0.1	4745.7
29212	6.7969	3.0909	0.1	4790.4
29213	6.7063	3.3636	0.1	4723.5
29214	6.7969	3.2727	0.1	4773.
29215	6.7063	3.5455	0.1	4687.7
29216	6.7969	3.4545	0.1	4739.
29217	6.7063	3.7273	0.1	4639.7
29218	6.7969	3.6364	0.1	4689.8
29219	6.7063	3.9091	0.1	4581.3
29220	6.7969	3.8182	0.1	4627.6
29221	6.7063	4.0909	0.1	4514.5
29222	6.7969	4.	0.1	4554.7
29223	6.7063	4.2727	0.1	4441.6
29224	6.7969	4.1818	0.1	4473.4
29225	6.7063	4.4545	0.1	4364.9
29226	6.7969	4.3636	0.1	4386.5
29227	6.7063	4.6364	0.1	4286.9
29228	6.7969	4.5455	0.1	4296.8
29229	6.7063	4.8182	0.1	4210.2
29230	6.7969	4.7273	0.1	4207.2
29231	6.7063	5.	0.1	4137.2
29232	6.7969	4.9091	0.1	4120.9
29233	6.7063	5.1818	0.1	4070.3
29234	6.7969	5.0909	0.1	4040.6
29235	6.7063	5.3636	0.1	4011.5
29236	6.7969	5.2727	0.1	3968.9
29237	6.7063	5.5455	0.1	3962.4
29238	6.7969	5.4545	0.1	3907.7
29239	6.7063	5.7273	0.1	3923.9
29240	6.7969	5.6364	0.1	3858.4
29241	6.7969	5.8182	0.1	3821.5
29242	6.7063	5.9091	0.1	3897.2
29243	6.8875	0.27273	0.1	3756.1
29244	6.9781	0.18182	0.1	3637.3
29245	6.8875	9.0909e-002	0.1	3722.8
29246	6.8875	0.45455	0.1	3803.8
29247	6.9781	0.36364	0.1	3682.1
29248	6.8875	0.63636	0.1	3865.3
29249	6.9781	0.54545	0.1	3743.
29250	6.8875	0.81818	0.1	3939.6
29251	6.9781	0.72727	0.1	3819.4
29252	6.8875	1.	0.1	4024.8
29253	6.9781	0.90909	0.1	3909.9
29254	6.8875	1.1818	0.1	4118.4
29255	6.9781	1.0909	0.1	4012.
29256	6.8875	1.3636	0.1	4217.5
29257	6.9781	1.2727	0.1	4122.8
29258	6.8875	1.5455	0.1	4318.7
29259	6.9781	1.4545	0.1	4238.4
29260	6.8875	1.7273	0.1	4418.6
29261	6.9781	1.6364	0.1	4354.6
29262	6.8875	1.9091	0.1	4513.7
29263	6.9781	1.8182	0.1	4467.7
29264	6.8875	2.0909	0.1	4601.1
29265	6.9781	2.	0.1	4573.6
29266	6.8875	2.2727	0.1	4677.8
29267	6.9781	2.1818	0.1	4669.1
29268	6.8875	2.4545	0.1	4741.1
29269	6.9781	2.3636	0.1	4750.6
29270	6.8875	2.6364	0.1	4788.4
29271	6.9781	2.5455	0.1	4815.2
29272	6.8875	2.8182	0.1	4817.7
29273	6.9781	2.7273	0.1	4860.
29274	6.8875	3.	0.1	4827.6
29275	6.9781	2.9091	0.1	4882.9
29276	6.8875	3.1818	0.1	4817.7
29277	6.9781	3.0909	0.1	4882.9
29278	6.8875	3.3636	0.1	4788.4
29279	6.9781	3.2727	0.1	4860.
29280	6.8875	3.5455	0.1	4741.1
29281	6.9781	3.4545	0.1	4815.2
29282	6.8875	3.7273	0.1	4677.8
29283	6.9781	3.6364	0.1	4750.6
29284	6.8875	3.9091	0.1	4601.1
29285	6.9781	3.8182	0.1	4669.1
29286	6.8875	4.0909	0.1	4513.7
29287	6.9781	4.	0.1	4573.6
29288	6.8875	4.2727	0.1	4418.6
29289	6.9781	4.1818	0.1	4467.7
29290	6.8875	4.4545	0.1	4318.7
29291	6.9781	4.3636	0.1	4354.6
29292	6.8875	4.6364	0.1	4217.5
29293	6.9781	4.5455	0.1	4238.4
29294	6.8875	4.8182	0.1	4118.4
29295	6.9781	4.7273	0.1	4122.8
29296	6.8875	5.	0.1	4024.8
29297	6.9781	4.9091	0.1	4012.
29298	6.8875	5.1818	0.1	3939.6
29299	6.9781	5.0909	0.1	3909.9
29300	6.8875	5.3636	0.1	3865.3
29301	6.9781	5.2727	0.1	3819.4
29302	6.8875	5.5455	0.1	3803.8
29303	6.9781	5.4545	0.1	3743.
29304	6.8875	5.7273	0.1	3756.1
29305	6.9781	5.6364	0.1	3682.1
29306	6.9781	5.8182	0.1	3637.3
29307	6.8875	5.9091	0.1	3722.8
29308	7.0687	0.27273	0.1	3563.5
29309	7.1594	0.18182	0.1	3425.8
29310	7.0687	9.0909e-002	0.1	3522.6
29311	7.0687	0.45455	0.1	3621.6
29312	7.1594	0.36364	0.1	3479.2
29313	7.0687	0.63636	0.1	3697.6
29314	7.1594	0.54545	0.1	3553.2
29315	7.0687	0.81818	0.1	3790.4
29316	7.1594	0.72727	0.1	3647.5
29317	7.0687	1.	0.1	3897.9
29318	7.1594	0.90909	0.1	3760.5
29319	7.0687	1.1818	0.1	4017.2
29320	7.1594	1.0909	0.1	3889.5
29321	7.0687	1.3636	0.1	4144.4
29322	7.1594	1.2727	0.1	4030.7
29323	7.0687	1.5455	0.1	4274.9
29324	7.1594	1.4545	0.1	4179.2
29325	7.0687	1.7273	0.1	4404.3
29326	7.1594	1.6364	0.1	4329.4
29327	7.0687	1.9091	0.1	4527.9
29328	7.1594	1.8182	0.1	4475.9
29329	7.0687	2.0909	0.1	4641.8
29330	7.1594	2.	0.1	4613.6
29331	7.0687	2.2727	0.1	4741.9
29332	7.1594	2.1818	0.1	4737.8
29333	7.0687	2.4545	0.1	4824.7
29334	7.1594	2.3636	0.1	4844.1
29335	7.0687	2.6364	0.1	4886.6
29336	7.1594	2.5455	0.1	4928.3
29337	7.0687	2.8182	0.1	4925.
29338	7.1594	2.7273	0.1	4986.7
29339	7.0687	3.	0.1	4938.1
29340	7.1594	2.9091	0.1	5016.6
29341	7.0687	3.1818	0.1	4925.
29342	7.1594	3.0909	0.1	5016.6
29343	7.0687	3.3636	0.1	4886.6
29344	7.1594	3.2727	0.1	4986.7
29345	7.0687	3.5455	0.1	4824.7
29346	7.1594	3.4545	0.1	4928.3
29347	7.0687	3.7273	0.1	4741.9
29348	7.1594	3.6364	0.1	4844.1
29349	7.0687	3.9091	0.1	4641.8
29350	7.1594	3.8182	0.1	4737.8
29351	7.0687	4.0909	0.1	4527.9
29352	7.1594	4.	0.1	4613.6
29353	7.0687	4.2727	0.1	4404.3
29354	7.1594	4.1818	0.1	4475.9
29355	7.0687	4.4545	0.1	4274.9
29356	7.1594	4.3636	0.1	4329.4
29357	7.0687	4.6364	0.1	4144.4
29358	7.1594	4.5455	0.1	4179.2
29359	7.0687	4.8182	0.1	4017.2
29360	7.1594	4.7273	0.1	4030.7
29361	7.0687	5.	0.1	3897.9
29362	7.1594	4.9091	0.1	3889.5
29363	7.0687	5.1818	0.1	3790.4
29364	7.1594	5.0909	0.1	3760.5
29365	7.0687	5.3636	0.1	3697.6
29366	7.1594	5.2727	0.1	3647.5
29367	7.0687	5.5455	0.1	3621.6
29368	7.1594	5.4545	0.1	3553.2
29369	7.0687	5.7273	0.1	3563.5
29370	7.1594	5.6364	0.1	3479.2
29371	7.1594	5.8182	0.1	3425.8
29372	7.0687	5.9091	0.1	3522.6
29373	7.25	0.27273	0.1	3341.7
29374	7.3406	0.18182	0.1	3182.5
29375	7.25	9.0909e-002	0.1	3292.1
29376	7.25	0.45455	0.1	3411.3
29377	7.3406	0.36364	0.1	3244.9
29378	7.25	0.63636	0.1	3503.9
29379	7.3406	0.54545	0.1	3333.7
29380	7.25	0.81818	0.1	3618.7
29381	7.3406	0.72727	0.1	3448.7
29382	7.25	1.	0.1	3753.5
29383	7.3406	0.90909	0.1	3588.6
29384	7.25	1.1818	0.1	3904.5
29385	7.3406	1.0909	0.1	3750.4
29386	7.25	1.3636	0.1	4066.9
29387	7.3406	1.2727	0.1	3929.5
29388	7.25	1.5455	0.1	4234.8
29389	7.3406	1.4545	0.1	4119.6
29390	7.25	1.7273	0.1	4401.9
29391	7.3406	1.6364	0.1	4313.4
29392	7.25	1.9091	0.1	4562.2
29393	7.3406	1.8182	0.1	4503.2
29394	7.25	2.0909	0.1	4710.1
29395	7.3406	2.	0.1	4682.
29396	7.25	2.2727	0.1	4840.2
29397	7.3406	2.1818	0.1	4843.2
29398	7.25	2.4545	0.1	4947.7
29399	7.3406	2.3636	0.1	4980.9
29400	7.25	2.6364	0.1	5028.1
29401	7.3406	2.5455	0.1	5089.6
29402	7.25	2.8182	0.1	5077.9
29403	7.3406	2.7273	0.1	5164.5
29404	7.25	3.	0.1	5094.7
29405	7.3406	2.9091	0.1	5202.8
29406	7.25	3.1818	0.1	5077.9
29407	7.3406	3.0909	0.1	5202.8
29408	7.25	3.3636	0.1	5028.1
29409	7.3406	3.2727	0.1	5164.5
29410	7.25	3.5455	0.1	4947.7
29411	7.3406	3.4545	0.1	5089.6
29412	7.25	3.7273	0.1	4840.2
29413	7.3406	3.6364	0.1	4980.9
29414	7.25	3.9091	0.1	4710.1
29415	7.3406	3.8182	0.1	4843.2
29416	7.25	4.0909	0.1	4562.2
29417	7.3406	4.	0.1	4682.
29418	7.25	4.2727	0.1	4401.9
29419	7.3406	4.1818	0.1	4503.2
29420	7.25	4.4545	0.1	4234.8
29421	7.3406	4.3636	0.1	4313.4
29422	7.25	4.6364	0.1	4066.9
29423	7.3406	4.5455	0.1	4119.6
29424	7.25	4.8182	0.1	3904.5
29425	7.3406	4.7273	0.1	3929.5
29426	7.25	5.	0.1	3753.5
29427	7.3406	4.9091	0.1	3750.4
29428	7.25	5.1818	0.1	3618.7
29429	7.3406	5.0909	0.1	3588.6
29430	7.25	5.3636	0.1	3503.9
29431	7.3406	5.2727	0.1	3448.7
29432	7.25	5.5455	0.1	3411.3
29433	7.3406	5.4545	0.1	3333.7
29434	7.25	5.7273	0.1	3341.7
29435	7.3406	5.6364	0.1	3244.9
29436	7.3406	5.8182	0.1	3182.5
29437	7.25	5.9091	0.1	3292.1
29438	7.4313	0.27273	0.1	3086.2
29439	7.5219	0.18182	0.1	2903.4
29440	7.4313	9.0909e-002	0.1	3026.9
29441	7.4313	0.45455	0.1	3168.1
29442	7.5219	0.36364	0.1	2974.9
29443	7.4313	0.63636	0.1	3279.9
29444	7.5219	0.54545	0.1	3080.1
29445	7.4313	0.81818	0.1	3420.5
29446	7.5219	0.72727	0.1	3218.9
29447	7.4313	1.	0.1	3587.9
29448	7.5219	0.90909	0.1	3390.3
29449	7.4313	1.1818	0.1	3777.9
29450	7.5219	1.0909	0.1	3591.4
29451	7.4313	1.3636	0.1	3984.6
29452	7.5219	1.2727	0.1	3817.3
29453	7.4313	1.5455	0.1	4200.2
29454	7.5219	1.4545	0.1	4060.3
29455	7.4313	1.7273	0.1	4416.2
29456	7.5219	1.6364	0.1	4310.6
29457	7.4313	1.9091	0.1	4624.
29458	7.5219	1.8182	0.1	4557.3
29459	7.4313	2.0909	0.1	4815.8
29460	7.5219	2.	0.1	4789.9
29461	7.4313	2.2727	0.1	4984.2
29462	7.5219	2.1818	0.1	4999.
29463	7.4313	2.4545	0.1	5122.6
29464	7.5219	2.3636	0.1	5176.1
29465	7.4313	2.6364	0.1	5225.5
29466	7.5219	2.5455	0.1	5314.
29467	7.4313	2.8182	0.1	5288.7
29468	7.5219	2.7273	0.1	5407.8
29469	7.4313	3.	0.1	5310.
29470	7.5219	2.9091	0.1	5455.
29471	7.4313	3.1818	0.1	5288.7
29472	7.5219	3.0909	0.1	5455.
29473	7.4313	3.3636	0.1	5225.5
29474	7.5219	3.2727	0.1	5407.8
29475	7.4313	3.5455	0.1	5122.6
29476	7.5219	3.4545	0.1	5314.
29477	7.4313	3.7273	0.1	4984.2
29478	7.5219	3.6364	0.1	5176.1
29479	7.4313	3.9091	0.1	4815.8
29480	7.5219	3.8182	0.1	4999.
29481	7.4313	4.0909	0.1	4624.
29482	7.5219	4.	0.1	4789.9
29483	7.4313	4.2727	0.1	4416.2
29484	7.5219	4.1818	0.1	4557.3
29485	7.4313	4.4545	0.1	4200.2
29486	7.5219	4.3636	0.1	4310.6
29487	7.4313	4.6364	0.1	3984.6
29488	7.5219	4.5455	0.1	4060.3
29489	7.4313	4.8182	0.1	3777.9
29490	7.5219	4.7273	0.1	3817.3
29491	7.4313	5.	0.1	3587.9
29492	7.5219	4.9091	0.1	3591.4
29493	7.4313	5.1818	0.1	3420.5
29494	7.5219	5.0909	0.1	3390.3
29495	7.4313	5.3636	0.1	3279.9
29496	7.5219	5.2727	0.1	3218.9
29497	7.4313	5.5455	0.1	3168.1
29498	7.5219	5.4545	0.1	3080.1
29499	7.4313	5.7273	0.1	3086.2
29500	7.5219	5.6364	0.1	2974.9
29501	7.5219	5.8182	0.1	2903.4
29502	7.4313	5.9091	0.1	3026.9
29503	7.6125	0.27273	0.1	2792.8
29504	7.7031	0.18182	0.1	2585.
29505	7.6125	9.0909e-002	0.1	2722.8
29506	7.6125	0.45455	0.1	2888.1
29507	7.7031	0.36364	0.1	2665.6
29508	7.6125	0.63636	0.1	3021.4
29509	7.7031	0.54545	0.1	2789.1
29510	7.6125	0.81818	0.1	3192.
29511	7.7031	0.72727	0.1	2954.8
29512	7.6125	1.	0.1	3397.9
29513	7.7031	0.90909	0.1	3162.4
29514	7.6125	1.1818	0.1	3635.2
29515	7.7031	1.0909	0.1	3409.6
29516	7.6125	1.3636	0.1	3897.1
29517	7.7031	1.2727	0.1	3692.1
29518	7.6125	1.5455	0.1	4174.1
29519	7.7031	1.4545	0.1	4002.2
29520	7.6125	1.7273	0.1	4454.3
29521	7.7031	1.6364	0.1	4327.
29522	7.6125	1.9091	0.1	4724.9
29523	7.7031	1.8182	0.1	4650.4
29524	7.6125	2.0909	0.1	4974.1
29525	7.7031	2.	0.1	4955.6
29526	7.6125	2.2727	0.1	5191.2
29527	7.7031	2.1818	0.1	5227.2
29528	7.6125	2.4545	0.1	5367.1
29529	7.7031	2.3636	0.1	5452.5
29530	7.6125	2.6364	0.1	5495.4
29531	7.7031	2.5455	0.1	5622.3
29532	7.6125	2.8182	0.1	5572.7
29533	7.7031	2.7273	0.1	5733.4
29534	7.6125	3.	0.1	5598.4
29535	7.7031	2.9091	0.1	5787.7
29536	7.6125	3.1818	0.1	5572.7
29537	7.7031	3.0909	0.1	5787.7
29538	7.6125	3.3636	0.1	5495.4
29539	7.7031	3.2727	0.1	5733.4
29540	7.6125	3.5455	0.1	5367.1
29541	7.7031	3.4545	0.1	5622.3
29542	7.6125	3.7273	0.1	5191.2
29543	7.7031	3.6364	0.1	5452.5
29544	7.6125	3.9091	0.1	4974.1
29545	7.7031	3.8182	0.1	5227.2
29546	7.6125	4.0909	0.1	4724.9
29547	7.7031	4.	0.1	4955.6
29548	7.6125	4.2727	0.1	4454.3
29549	7.7031	4.1818	0.1	4650.4
29550	7.6125	4.4545	0.1	4174.1
29551	7.7031	4.3636	0.1	4327.
29552	7.6125	4.6364	0.1	3897.1
29553	7.7031	4.5455	0.1	4002.2
29554	7.6125	4.8182	0.1	3635.2
29555	7.7031	4.7273	0.1	3692.1
29556	7.6125	5.	0.1	3397.9
29557	7.7031	4.9091	0.1	3409.6
29558	7.6125	5.1818	0.1	3192.
29559	7.7031	5.0909	0.1	3162.4
29560	7.6125	5.3636	0.1	3021.4
29561	7.7031	5.2727	0.1	2954.8
29562	7.6125	5.5455	0.1	2888.1
29563	7.7031	5.4545	0.1	2789.1
29564	7.6125	5.7273	0.1	2792.8
29565	7.7031	5.6364	0.1	2665.6
29566	7.7031	5.8182	0.1	2585.
29567	7.6125	5.9091	0.1	2722.8
29568	7.7937	0.27273	0.1	2458.9
29569	7.8844	0.18182	0.1	2225.5
29570	7.7937	9.0909e-002	0.1	2376.9
29571	7.7937	0.45455	0.1	2568.7
29572	7.8844	0.36364	0.1	2316.
29573	7.7937	0.63636	0.1	2726.5
29574	7.8844	0.54545	0.1	2460.6
29575	7.7937	0.81818	0.1	2931.
29576	7.8844	0.72727	0.1	2656.9
29577	7.7937	1.	0.1	3181.2
29578	7.8844	0.90909	0.1	2904.5
29579	7.7937	1.1818	0.1	3474.1
29580	7.8844	1.0909	0.1	3202.9
29581	7.7937	1.3636	0.1	3804.2
29582	7.8844	1.2727	0.1	3551.3
29583	7.7937	1.5455	0.1	4160.7
29584	7.8844	1.4545	0.1	3944.9
29585	7.7937	1.7273	0.1	4527.1
29586	7.8844	1.6364	0.1	4370.4
29587	7.7937	1.9091	0.1	4883.5
29588	7.8844	1.8182	0.1	4802.3
29589	7.7937	2.0909	0.1	5209.9
29590	7.8844	2.	0.1	5210.3
29591	7.7937	2.2727	0.1	5488.7
29592	7.8844	2.1818	0.1	5565.9
29593	7.7937	2.4545	0.1	5706.8
29594	7.8844	2.3636	0.1	5846.6
29595	7.7937	2.6364	0.1	5858.6
29596	7.8844	2.5455	0.1	6042.3
29597	7.7937	2.8182	0.1	5946.2
29598	7.8844	2.7273	0.1	6159.4
29599	7.7937	3.	0.1	5974.5
29600	7.8844	2.9091	0.1	6212.7
29601	7.7937	3.1818	0.1	5946.2
29602	7.8844	3.0909	0.1	6212.7
29603	7.7937	3.3636	0.1	5858.6
29604	7.8844	3.2727	0.1	6159.4
29605	7.7937	3.5455	0.1	5706.8
29606	7.8844	3.4545	0.1	6042.3
29607	7.7937	3.7273	0.1	5488.7
29608	7.8844	3.6364	0.1	5846.6
29609	7.7937	3.9091	0.1	5209.9
29610	7.8844	3.8182	0.1	5565.9
29611	7.7937	4.0909	0.1	4883.5
29612	7.8844	4.	0.1	5210.3
29613	7.7937	4.2727	0.1	4527.1
29614	7.8844	4.1818	0.1	4802.3
29615	7.7937	4.4545	0.1	4160.7
29616	7.8844	4.3636	0.1	4370.4
29617	7.7937	4.6364	0.1	3804.2
29618	7.8844	4.5455	0.1	3944.9
29619	7.7937	4.8182	0.1	3474.1
29620	7.8844	4.7273	0.1	3551.3
29621	7.7937	5.	0.1	3181.2
29622	7.8844	4.9091	0.1	3202.9
29623	7.7937	5.1818	0.1	2931.
29624	7.8844	5.0909	0.1	2904.5
29625	7.7937	5.3636	0.1	2726.5
29626	7.8844	5.2727	0.1	2656.9
29627	7.7937	5.5455	0.1	2568.7
29628	7.8844	5.4545	0.1	2460.6
29629	7.7937	5.7273	0.1	2458.9
29630	7.8844	5.6364	0.1	2316.
29631	7.8844	5.8182	0.1	2225.5
29632	7.7937	5.9091	0.1	2376.9
29633	7.975	0.27273	0.1	2084.2
29634	8.0656	0.18182	0.1	1825.5
29635	7.975	9.0909e-002	0.1	1988.1
29636	7.975	0.45455	0.1	2211.4
29637	8.0656	0.36364	0.1	1929.7
29638	7.975	0.63636	0.1	2397.8
29639	8.0656	0.54545	0.1	2101.6
29640	7.975	0.81818	0.1	2640.2
29641	8.0656	0.72727	0.1	2333.1
29642	7.975	1.	0.1	2938.1
29643	8.0656	0.90909	0.1	2622.2
29644	7.975	1.1818	0.1	3292.8
29645	8.0656	1.0909	0.1	2972.2
29646	7.975	1.3636	0.1	3703.8
29647	8.0656	1.2727	0.1	3390.3
29648	7.975	1.5455	0.1	4163.9
29649	8.0656	1.4545	0.1	3884.4
29650	7.975	1.7273	0.1	4651.6
29651	8.0656	1.6364	0.1	4447.4
29652	7.975	1.9091	0.1	5132.2
29653	8.0656	1.8182	0.1	5046.5
29654	7.975	2.0909	0.1	5567.4
29655	8.0656	2.	0.1	5618.3
29656	7.975	2.2727	0.1	5923.2
29657	8.0656	2.1818	0.1	6088.4
29658	7.975	2.4545	0.1	6179.9
29659	8.0656	2.3636	0.1	6421.
29660	7.975	2.6364	0.1	6339.8
29661	8.0656	2.5455	0.1	6609.2
29662	7.975	2.8182	0.1	6422.2
29663	8.0656	2.7273	0.1	6697.
29664	7.975	3.	0.1	6447.
29665	8.0656	2.9091	0.1	6729.2
29666	7.975	3.1818	0.1	6422.2
29667	8.0656	3.0909	0.1	6729.2
29668	7.975	3.3636	0.1	6339.8
29669	8.0656	3.2727	0.1	6697.
29670	7.975	3.5455	0.1	6179.9
29671	8.0656	3.4545	0.1	6609.2
29672	7.975	3.7273	0.1	5923.2
29673	8.0656	3.6364	0.1	6421.
29674	7.975	3.9091	0.1	5567.4
29675	8.0656	3.8182	0.1	6088.4
29676	7.975	4.0909	0.1	5132.2
29677	8.0656	4.	0.1	5618.3
29678	7.975	4.2727	0.1	4651.6
29679	8.0656	4.1818	0.1	5046.5
29680	7.975	4.4545	0.1	4163.9
29681	8.0656	4.3636	0.1	4447.4
29682	7.975	4.6364	0.1	3703.8
29683	8.0656	4.5455	0.1	3884.4
29684	7.975	4.8182	0.1	3292.8
29685	8.0656	4.7273	0.1	3390.3
29686	7.975	5.	0.1	2938.1
29687	8.0656	4.9091	0.1	2972.2
29688	7.975	5.1818	0.1	2640.2
29689	8.0656	5.0909	0.1	2622.2
29690	7.975	5.3636	0.1	2397.8
29691	8.0656	5.2727	0.1	2333.1
29692	7.975	5.5455	0.1	2211.4
29693	8.0656	5.4545	0.1	2101.6
29694	7.975	5.7273	0.1	2084.2
29695	8.0656	5.6364	0.1	1929.7
29696	8.0656	5.8182	0.1	1825.5
29697	7.975	5.9091	0.1	1988.1
29698	8.1563	0.27273	0.1	1673.6
29699	8.2469	0.18182	0.1	1389.1
29700	8.1563	9.0909e-002	0.1	1557.9
29701	8.1563	0.45455	0.1	1826.7
29702	8.2469	0.36364	0.1	1521.2
29703	8.1563	0.63636	0.1	2049.
29704	8.2469	0.54545	0.1	1734.1
29705	8.1563	0.81818	0.1	2331.6
29706	8.2469	0.72727	0.1	2005.9
29707	8.1563	1.	0.1	2675.7
29708	8.2469	0.90909	0.1	2333.4
29709	8.1563	1.1818	0.1	3090.5
29710	8.2469	1.0909	0.1	2725.8
29711	8.1563	1.3636	0.1	3591.
29712	8.2469	1.2727	0.1	3204.2
29713	8.1563	1.5455	0.1	4184.
29714	8.2469	1.4545	0.1	3799.3
29715	8.1563	1.7273	0.1	4851.2
29716	8.2469	1.6364	0.1	4552.7
29717	8.1563	1.9091	0.1	5535.6
29718	8.2469	1.8182	0.1	5449.3
29719	8.1563	2.0909	0.1	6138.6
29720	8.2469	2.	0.1	6307.7
29721	8.1563	2.2727	0.1	6582.8
29722	8.2469	2.1818	0.1	6974.
29723	8.1563	2.4545	0.1	6844.9
29724	8.2469	2.3636	0.1	7282.4
29725	8.1563	2.6364	0.1	6960.5
29726	8.2469	2.5455	0.1	7350.7
29727	8.1563	2.8182	0.1	6998.4
29728	8.2469	2.7273	0.1	7330.8
29729	8.1563	3.	0.1	7005.9
29730	8.2469	2.9091	0.1	7305.7
29731	8.1563	3.1818	0.1	6998.4
29732	8.2469	3.0909	0.1	7305.7
29733	8.1563	3.3636	0.1	6960.5
29734	8.2469	3.2727	0.1	7330.8
29735	8.1563	3.5455	0.1	6844.9
29736	8.2469	3.4545	0.1	7350.7
29737	8.1563	3.7273	0.1	6582.8
29738	8.2469	3.6364	0.1	7282.4
29739	8.1563	3.9091	0.1	6138.6
29740	8.2469	3.8182	0.1	6974.
29741	8.1563	4.0909	0.1	5535.6
29742	8.2469	4.	0.1	6307.7
29743	8.1563	4.2727	0.1	4851.2
29744	8.2469	4.1818	0.1	5449.3
29745	8.1563	4.4545	0.1	4184.
29746	8.2469	4.3636	0.1	4552.7
29747	8.1563	4.6364	0.1	3591.
29748	8.2469	4.5455	0.1	3799.3
29749	8.1563	4.8182	0.1	3090.5
29750	8.2469	4.7273	0.1	3204.2
29751	8.1563	5.	0.1	2675.7
29752	8.2469	4.9091	0.1	2725.8
29753	8.1563	5.1818	0.1	2331.6
29754	8.2469	5.0909	0.1	2333.4
29755	8.1563	5.3636	0.1	2049.
29756	8.2469	5.2727	0.1	2005.9
29757	8.1563	5.5455	0.1	1826.7
29758	8.2469	5.4545	0.1	1734.1
29759	8.1563	5.7273	0.1	1673.6
29760	8.2469	5.6364	0.1	1521.2
29761	8.2469	5.8182	0.1	1389.1
29762	8.1563	5.9091	0.1	1557.9
29763	8.3375	0.27273	0.1	1242.9
29764	8.4281	0.18182	0.1	937.89
29765	8.3375	9.0909e-002	0.1	1090.5
29766	8.3375	0.45455	0.1	1444.1
29767	8.4281	0.36364	0.1	1148.2
29768	8.3375	0.63636	0.1	1713.2
29769	8.4281	0.54545	0.1	1428.3
29770	8.3375	0.81818	0.1	2034.
29771	8.4281	0.72727	0.1	1746.7
29772	8.3375	1.	0.1	2412.9
29773	8.4281	0.90909	0.1	2108.
29774	8.3375	1.1818	0.1	2871.8
29775	8.4281	1.0909	0.1	2530.9
29776	8.3375	1.3636	0.1	3447.2
29777	8.4281	1.2727	0.1	3048.3
29778	8.3375	1.5455	0.1	4197.9
29779	8.4281	1.4545	0.1	3725.6
29780	8.3375	1.7273	0.1	5169.2
29781	8.4281	1.6364	0.1	4655.3
29782	8.3375	1.9091	0.1	6218.3
29783	8.4281	1.8182	0.1	6255.3
29784	8.3375	2.0909	0.1	7134.6
29785	8.4281	2.	0.1	8186.8
29786	8.3375	2.2727	0.1	7661.
29787	8.4281	2.1818	0.1	8673.3
29788	8.3375	2.4545	0.1	7777.2
29789	8.4281	2.3636	0.1	8548.2
29790	8.3375	2.6364	0.1	7712.9
29791	8.4281	2.5455	0.1	8215.9
29792	8.3375	2.8182	0.1	7631.8
29793	8.4281	2.7273	0.1	7980.9
29794	8.3375	3.	0.1	7599.7
29795	8.4281	2.9091	0.1	7859.7
29796	8.3375	3.1818	0.1	7631.8
29797	8.4281	3.0909	0.1	7859.7
29798	8.3375	3.3636	0.1	7712.9
29799	8.4281	3.2727	0.1	7980.9
29800	8.3375	3.5455	0.1	7777.2
29801	8.4281	3.4545	0.1	8215.9
29802	8.3375	3.7273	0.1	7661.
29803	8.4281	3.6364	0.1	8548.2
29804	8.3375	3.9091	0.1	7134.6
29805	8.4281	3.8182	0.1	8673.3
29806	8.3375	4.0909	0.1	6218.3
29807	8.4281	4.	0.1	8186.8
29808	8.3375	4.2727	0.1	5169.2
29809	8.4281	4.1818	0.1	6255.3
29810	8.3375	4.4545	0.1	4197.9
29811	8.4281	4.3636	0.1	4655.3
29812	8.3375	4.6364	0.1	3447.2
29813	8.4281	4.5455	0.1	3725.6
29814	8.3375	4.8182	0.1	2871.8
29815	8.4281	4.7273	0.1	3048.3
29816	8.3375	5.	0.1	2412.9
29817	8.4281	4.9091	0.1	2530.9
29818	8.3375	5.1818	0.1	2034.
29819	8.4281	5.0909	0.1	2108.
29820	8.3375	5.3636	0.1	1713.2
29821	8.4281	5.2727	0.1	1746.7
29822	8.3375	5.5455	0.1	1444.1
29823	8.4281	5.4545	0.1	1428.3
29824	8.3375	5.7273	0.1	1242.9
29825	8.4281	5.6364	0.1	1148.2
29826	8.4281	5.8182	0.1	937.89
29827	8.3375	5.9091	0.1	1090.5
29828	8.5188	0.27273	0.1	869.21
29829	8.6094	0.18182	0.1	517.28
29830	8.5188	9.0909e-002	0.1	605.24
29831	8.5188	0.45455	0.1	1169.6
29832	8.6094	0.36364	0.1	788.32
29833	8.5188	0.63636	0.1	1499.6
29834	8.6094	0.54545	0.1	1057.9
29835	8.5188	0.81818	0.1	1859.2
29836	8.6094	0.72727	0.1	1333.4
29837	8.5188	1.	0.1	2267.4
29838	8.6094	0.90909	0.1	1630.7
29839	8.5188	1.1818	0.1	2755.6
29840	8.6094	1.0909	0.1	1970.1
29841	8.5188	1.3636	0.1	3386.6
29842	8.6094	1.2727	0.1	2381.7
29843	8.5188	1.5455	0.1	4270.2
29844	8.6094	1.4545	0.1	2930.8
29845	8.5188	1.7273	0.1	5814.1
29846	8.6094	1.6364	0.1	3712.9
29847	8.5188	1.9091	0.1	8194.3
29848	8.6094	1.8182	0.1	5129.6
29849	8.5188	2.0909	0.1	9651.9
29850	8.6094	2.	0.1	14148
29851	8.5188	2.2727	0.1	9530.8
29852	8.6094	2.1818	0.1	11408
29853	8.5188	2.4545	0.1	8976.2
29854	8.6094	2.3636	0.1	9878.2
29855	8.5188	2.6364	0.1	8478.7
29856	8.6094	2.5455	0.1	8968.6
29857	8.5188	2.8182	0.1	8204.7
29858	8.6094	2.7273	0.1	8478.8
29859	8.5188	3.	0.1	8115.7
29860	8.6094	2.9091	0.1	8259.1
29861	8.5188	3.1818	0.1	8204.7
29862	8.6094	3.0909	0.1	8259.1
29863	8.5188	3.3636	0.1	8478.7
29864	8.6094	3.2727	0.1	8478.8
29865	8.5188	3.5455	0.1	8976.2
29866	8.6094	3.4545	0.1	8968.6
29867	8.5188	3.7273	0.1	9530.8
29868	8.6094	3.6364	0.1	9878.2
29869	8.5188	3.9091	0.1	9651.9
29870	8.6094	3.8182	0.1	11408
29871	8.5188	4.0909	0.1	8194.3
29872	8.6094	4.	0.1	14148
29873	8.5188	4.2727	0.1	5814.1
29874	8.6094	4.1818	0.1	5129.6
29875	8.5188	4.4545	0.1	4270.2
29876	8.6094	4.3636	0.1	3712.9
29877	8.5188	4.6364	0.1	3386.6
29878	8.6094	4.5455	0.1	2930.8
29879	8.5188	4.8182	0.1	2755.6
29880	8.6094	4.7273	0.1	2381.7
29881	8.5188	5.	0.1	2267.4
29882	8.6094	4.9091	0.1	1970.1
29883	8.5188	5.1818	0.1	1859.2
29884	8.6094	5.0909	0.1	1630.7
29885	8.5188	5.3636	0.1	1499.6
29886	8.6094	5.2727	0.1	1333.4
29887	8.5188	5.5455	0.1	1169.6
29888	8.6094	5.4545	0.1	1057.9
29889	8.5188	5.7273	0.1	869.21
29890	8.6094	5.6364	0.1	788.32
29891	8.6094	5.8182	0.1	517.28
29892	8.5188	5.9091	0.1	605.24
29893	8.8667	3.7273	0.1	11836
29894	8.7833	3.8182	0.1	13064
29895	8.8667	3.9091	0.1	15850
29896	8.8667	3.5455	0.1	9869.6
29897	8.7833	3.6364	0.1	10460
29898	8.8667	3.3636	0.1	8938.7
29899	8.7833	3.4545	0.1	9259.
29900	8.8667	3.1818	0.1	8492.2
29901	8.7833	3.2727	0.1	8643.7
29902	8.8667	3.	0.1	8358.5
29903	8.7833	3.0909	0.1	8380.
29904	8.8667	2.8182	0.1	8492.2
29905	8.7833	2.9091	0.1	8380.
29906	8.8667	2.6364	0.1	8938.7
29907	8.7833	2.7273	0.1	8643.7
29908	8.8667	2.4545	0.1	9869.6
29909	8.7833	2.5455	0.1	9259.
29910	8.8667	2.2727	0.1	11836
29911	8.7833	2.3636	0.1	10460
29912	8.7833	2.1818	0.1	13064
29913	8.8667	2.0909	0.1	15850
29914	8.7	3.7273	0.1	11840
29915	8.7	3.9091	0.1	15745
29916	8.7	3.5455	0.1	9893.6
29917	8.7	3.3636	0.1	8975.6
29918	8.7	3.1818	0.1	8533.7
29919	8.7	3.	0.1	8401.5
29920	8.7	2.8182	0.1	8533.7
29921	8.7	2.6364	0.1	8975.6
29922	8.7	2.4545	0.1	9893.6
29923	8.7	2.2727	0.1	11840
29924	8.7	2.0909	0.1	15745
29925	8.8667	5.7273	0.1	472.53
29926	8.8667	5.9091	0.1	185.86
29927	8.8667	5.8182	5.e-002	79.783
29928	8.8667	5.5455	0.1	716.4
29929	8.8667	5.6364	5.e-002	170.34
29930	8.8667	5.3636	0.1	946.08
29931	8.8667	5.4545	5.e-002	259.89
29932	8.8667	5.1818	0.1	1186.3
29933	8.8667	5.2727	5.e-002	356.76
29934	8.8667	5.	0.1	1455.9
29935	8.8667	5.0909	5.e-002	466.13
29936	8.8667	4.8182	0.1	1778.4
29937	8.8667	4.9091	5.e-002	595.55
29938	8.8667	4.6364	0.1	2199.
29939	8.8667	4.7273	5.e-002	757.91
29940	8.8667	4.4545	0.1	2775.7
29941	8.8667	4.5455	5.e-002	975.38
29942	8.8667	4.2727	0.1	3907.4
29943	8.8667	4.3636	5.e-002	1320.7
29944	8.8667	4.0909	0.1	10686
29945	8.8667	4.1818	5.e-002	2201.7
29946	8.7833	4.	0.1	16841
29947	8.8667	4.	5.e-002	1875.8
29948	8.7	4.0909	0.1	10365
29949	8.7	4.	5.e-002	2206.2
29950	8.7	4.2727	0.1	3702.3
29951	8.7	4.1818	5.e-002	2482.8
29952	8.7	4.4545	0.1	2682.9
29953	8.7	4.3636	5.e-002	1533.8
29954	8.7	4.6364	0.1	2169.
29955	8.7	4.5455	5.e-002	1147.4
29956	8.7	4.8182	0.1	1788.2
29957	8.7	4.7273	5.e-002	901.6
29958	8.7	5.	0.1	1490.8
29959	8.7	4.9091	5.e-002	714.89
29960	8.7	5.1818	0.1	1235.1
29961	8.7	5.0909	5.e-002	563.4
29962	8.7	5.3636	0.1	1000.4
29963	8.7	5.2727	5.e-002	433.33
29964	8.7	5.5455	0.1	768.81
29965	8.7	5.4545	5.e-002	316.64
29966	8.7	5.7273	0.1	514.56
29967	8.7	5.6364	5.e-002	207.91
29968	8.7	5.9091	0.1	204.28
29969	8.7	5.8182	5.e-002	98.106
29970	8.8667	0.27273	0.1	472.53
29971	8.8667	9.0909e-002	0.1	185.86
29972	8.8667	0.18182	5.e-002	79.783
29973	8.8667	0.45455	0.1	716.4
29974	8.8667	0.36364	5.e-002	170.34
29975	8.8667	0.63636	0.1	946.07
29976	8.8667	0.54545	5.e-002	259.89
29977	8.8667	0.81818	0.1	1186.3
29978	8.8667	0.72727	5.e-002	356.76
29979	8.8667	1.	0.1	1455.9
29980	8.8667	0.90909	5.e-002	466.13
29981	8.8667	1.1818	0.1	1778.4
29982	8.8667	1.0909	5.e-002	595.55
29983	8.8667	1.3636	0.1	2199.
29984	8.8667	1.2727	5.e-002	757.91
29985	8.8667	1.5455	0.1	2775.7
29986	8.8667	1.4545	5.e-002	975.38
29987	8.8667	1.7273	0.1	3907.4
29988	8.8667	1.6364	5.e-002	1320.7
29989	8.8667	1.9091	0.1	10686
29990	8.8667	1.8182	5.e-002	2201.7
29991	8.7833	2.	0.1	16841
29992	8.8667	2.	5.e-002	1875.8
29993	8.7	1.9091	0.1	10365
29994	8.7	2.	5.e-002	2206.2
29995	8.7	1.7273	0.1	3702.3
29996	8.7	1.8182	5.e-002	2482.8
29997	8.7	1.5455	0.1	2682.9
29998	8.7	1.6364	5.e-002	1533.8
29999	8.7	1.3636	0.1	2169.
30000	8.7	1.4545	5.e-002	1147.4
30001	8.7	1.1818	0.1	1788.2
30002	8.7	1.2727	5.e-002	901.6
30003	8.7	1.	0.1	1490.8
30004	8.7	1.0909	5.e-002	714.89
30005	8.7	0.81818	0.1	1235.1
30006	8.7	0.90909	5.e-002	563.4
30007	8.7	0.63636	0.1	1000.4
30008	8.7	0.72727	5.e-002	433.33
30009	8.7	0.45455	0.1	768.81
30010	8.7	0.54545	5.e-002	316.64
30011	8.7	0.27273	0.1	514.56
30012	8.7	0.36364	5.e-002	207.91
30013	8.7	9.0909e-002	0.1	204.28
30014	8.7	0.18182	5.e-002	98.106
30015	8.9589	6.	0.1	242.93
30016	8.8667	6.	5.e-002	25.188
30017	9.1435	6.	0.1	671.32
30018	9.0512	6.	5.e-002	19.503
30019	9.328	6.	0.1	1079.1
30020	9.2358	6.	5.e-002	50.211
30021	9.5126	6.	0.1	1437.
30022	9.4203	6.	5.e-002	65.672
30023	9.6972	6.	0.1	1747.2
30024	9.6049	6.	5.e-002	73.662
30025	9.8817	6.	0.1	2009.5
30026	9.7894	6.	5.e-002	76.329
30027	10.066	6.	0.1	2225.3
30028	9.974	6.	5.e-002	75.673
30029	10.251	6.	0.1	2398.
30030	10.159	6.	5.e-002	73.075
30031	10.435	6.	0.1	2532.
30032	10.343	6.	5.e-002	69.546
30033	10.62	6.	0.1	2632.4
30034	10.528	6.	5.e-002	65.769
30035	10.804	6.	0.1	2704.3
30036	10.712	6.	5.e-002	62.176
30037	10.989	6.	0.1	2752.3
30038	10.897	6.	5.e-002	59.016
30039	11.174	6.	0.1	2780.6
30040	11.081	6.	5.e-002	56.403
30041	11.358	6.	0.1	2792.9
30042	11.266	6.	5.e-002	54.37
30043	11.543	6.	0.1	2792.2
30044	11.45	6.	5.e-002	52.895
30045	11.727	6.	0.1	2781.1
30046	11.635	6.	5.e-002	51.926
30047	11.912	6.	0.1	2761.7
30048	11.82	6.	5.e-002	51.397
30049	12.096	6.	0.1	2735.7
30050	12.004	6.	5.e-002	51.236
30051	12.281	6.	0.1	2704.6
30052	12.189	6.	5.e-002	51.377
30053	12.465	6.	0.1	2669.3
30054	12.373	6.	5.e-002	51.754
30055	12.65	6.	0.1	2631.
30056	12.558	6.	5.e-002	52.313
30057	12.835	6.	0.1	2590.2
30058	12.742	6.	5.e-002	53.003
30059	13.019	6.	0.1	2547.5
30060	12.927	6.	5.e-002	53.783
30061	13.204	6.	0.1	2503.4
30062	13.111	6.	5.e-002	54.619
30063	13.388	6.	0.1	2458.3
30064	13.296	6.	5.e-002	55.481
30065	13.573	6.	0.1	2412.5
30066	13.48	6.	5.e-002	56.349
30067	13.757	6.	0.1	2366.1
30068	13.665	6.	5.e-002	57.202
30069	13.942	6.	0.1	2319.3
30070	13.85	6.	5.e-002	58.028
30071	14.126	6.	0.1	2272.3
30072	14.034	6.	5.e-002	58.815
30073	14.311	6.	0.1	2225.2
30074	14.219	6.	5.e-002	59.557
30075	14.496	6.	0.1	2178.
30076	14.403	6.	5.e-002	60.246
30077	14.68	6.	0.1	2130.9
30078	14.588	6.	5.e-002	60.881
30079	14.865	6.	0.1	2083.8
30080	14.772	6.	5.e-002	61.458
30081	15.049	6.	0.1	2036.9
30082	14.957	6.	5.e-002	61.976
30083	15.234	6.	0.1	1990.1
30084	15.141	6.	5.e-002	62.435
30085	15.418	6.	0.1	1943.5
30086	15.326	6.	5.e-002	62.836
30087	15.603	6.	0.1	1897.
30088	15.511	6.	5.e-002	63.179
30089	15.787	6.	0.1	1850.8
30090	15.695	6.	5.e-002	63.466
30091	15.972	6.	0.1	1804.7
30092	15.88	6.	5.e-002	63.698
30093	16.157	6.	0.1	1758.8
30094	16.064	6.	5.e-002	63.876
30095	16.341	6.	0.1	1713.2
30096	16.249	6.	5.e-002	64.003
30097	16.526	6.	0.1	1667.8
30098	16.433	6.	5.e-002	64.08
30099	16.71	6.	0.1	1622.5
30100	16.618	6.	5.e-002	64.108
30101	16.895	6.	0.1	1577.5
30102	16.802	6.	5.e-002	64.089
30103	17.079	6.	0.1	1532.7
30104	16.987	6.	5.e-002	64.024
30105	17.264	6.	0.1	1488.1
30106	17.172	6.	5.e-002	63.914
30107	17.448	6.	0.1	1443.7
30108	17.356	6.	5.e-002	63.761
30109	17.633	6.	0.1	1399.5
30110	17.541	6.	5.e-002	63.564
30111	17.817	6.	0.1	1355.5
30112	17.725	6.	5.e-002	63.324
30113	18.002	6.	0.1	1311.7
30114	17.91	6.	5.e-002	63.043
30115	18.187	6.	0.1	1268.1
30116	18.094	6.	5.e-002	62.719
30117	18.371	6.	0.1	1224.7
30118	18.279	6.	5.e-002	62.352
30119	18.556	6.	0.1	1181.5
30120	18.463	6.	5.e-002	61.943
30121	18.74	6.	0.1	1138.5
30122	18.648	6.	5.e-002	61.49
30123	18.925	6.	0.1	1095.7
30124	18.833	6.	5.e-002	60.993
30125	19.109	6.	0.1	1053.1
30126	19.017	6.	5.e-002	60.45
30127	19.294	6.	0.1	1010.6
30128	19.202	6.	5.e-002	59.86
30129	19.478	6.	0.1	968.32
30130	19.386	6.	5.e-002	59.221
30131	19.663	6.	0.1	926.22
30132	19.571	6.	5.e-002	58.531
30133	19.848	6.	0.1	884.29
30134	19.755	6.	5.e-002	57.788
30135	20.032	6.	0.1	842.52
30136	19.94	6.	5.e-002	56.989
30137	20.217	6.	0.1	800.93
30138	20.124	6.	5.e-002	56.13
30139	20.401	6.	0.1	759.49
30140	20.309	6.	5.e-002	55.208
30141	20.586	6.	0.1	718.22
30142	20.493	6.	5.e-002	54.22
30143	20.77	6.	0.1	677.11
30144	20.678	6.	5.e-002	53.159
30145	20.955	6.	0.1	636.16
30146	20.863	6.	5.e-002	52.022
30147	21.139	6.	0.1	595.36
30148	21.047	6.	5.e-002	50.802
30149	21.324	6.	0.1	554.72
30150	21.232	6.	5.e-002	49.492
30151	21.509	6.	0.1	514.25
30152	21.416	6.	5.e-002	48.086
30153	21.693	6.	0.1	473.93
30154	21.601	6.	5.e-002	46.575
30155	21.878	6.	0.1	433.79
30156	21.785	6.	5.e-002	44.947
30157	22.062	6.	0.1	393.83
30158	21.97	6.	5.e-002	43.193
30159	22.247	6.	0.1	354.06
30160	22.154	6.	5.e-002	41.298
30161	22.431	6.	0.1	314.51
30162	22.339	6.	5.e-002	39.246
30163	22.616	6.	0.1	275.21
30164	22.524	6.	5.e-002	37.016
30165	22.8	6.	0.1	236.21
30166	22.708	6.	5.e-002	34.583
30167	22.985	6.	0.1	197.57
30168	22.893	6.	5.e-002	31.912
30169	23.17	6.	0.1	159.4
30170	23.077	6.	5.e-002	28.96
30171	23.354	6.	0.1	121.87
30172	23.262	6.	5.e-002	25.658
30173	23.539	6.	0.1	85.276
30174	23.446	6.	5.e-002	21.902
30175	23.723	6.	0.1	50.289
30176	23.631	6.	5.e-002	17.494
30177	23.908	6.	0.1	18.66
30178	23.815	6.	5.e-002	11.805
30179	24.	5.9091	0.1	5.8968
30180	24.	6.	5.e-002	4.5405
30181	24.	5.7273	0.1	6.9323
30182	24.	5.8182	5.e-002	4.0442
30183	24.	5.5455	0.1	7.1861
30184	24.	5.6364	5.e-002	4.6186
30185	24.	5.3636	0.1	7.2673
30186	24.	5.4545	5.e-002	5.1195
30187	24.	5.1818	0.1	7.2767
30188	24.	5.2727	5.e-002	5.3896
30189	24.	5.	0.1	7.2466
30190	24.	5.0909	5.e-002	5.5116
30191	24.	4.8182	0.1	7.2021
30192	24.	4.9091	5.e-002	5.5315
30193	24.	4.6364	0.1	7.1516
30194	24.	4.7273	5.e-002	5.4803
30195	24.	4.4545	0.1	7.1005
30196	24.	4.5455	5.e-002	5.3808
30197	24.	4.2727	0.1	7.0521
30198	24.	4.3636	5.e-002	5.2506
30199	24.	4.0909	0.1	7.008
30200	24.	4.1818	5.e-002	5.1039
30201	24.	3.9091	0.1	6.9695
30202	24.	4.	5.e-002	4.9531
30203	24.	3.7273	0.1	6.9374
30204	24.	3.8182	5.e-002	4.8087
30205	24.	3.5455	0.1	6.912
30206	24.	3.6364	5.e-002	4.6802
30207	24.	3.3636	0.1	6.8937
30208	24.	3.4545	5.e-002	4.5758
30209	24.	3.1818	0.1	6.8827
30210	24.	3.2727	5.e-002	4.5023
30211	24.	3.	0.1	6.879
30212	24.	3.0909	5.e-002	4.4642
30213	24.	2.8182	0.1	6.8827
30214	24.	2.9091	5.e-002	4.4642
30215	24.	2.6364	0.1	6.8937
30216	24.	2.7273	5.e-002	4.5022
30217	24.	2.4545	0.1	6.912
30218	24.	2.5455	5.e-002	4.5758
30219	24.	2.2727	0.1	6.9374
30220	24.	2.3636	5.e-002	4.6802
30221	24.	2.0909	0.1	6.9695
30222	24.	2.1818	5.e-002	4.8086
30223	24.	1.9091	0.1	7.008
30224	24.	2.	5.e-002	4.953
30225	24.	1.7273	0.1	7.052
30226	24.	1.8182	5.e-002	5.1039
30227	24.	1.5455	0.1	7.1005
30228	24.	1.6364	5.e-002	5.2506
30229	24.	1.3636	0.1	7.1515
30230	24.	1.4545	5.e-002	5.3808
30231	24.	1.1818	0.1	7.2021
30232	24.	1.2727	5.e-002	5.4803
30233	24.	1.	0.1	7.2466
30234	24.	1.0909	5.e-002	5.5315
30235	24.	0.81818	0.1	7.2766
30236	24.	0.90909	5.e-002	5.5116
30237	24.	0.63636	0.1	7.2673
30238	24.	0.72727	5.e-002	5.3896
30239	24.	0.45455	0.1	7.1861
30240	24.	0.54545	5.e-002	5.1195
30241	24.	0.27273	0.1	6.9323
30242	24.	0.36364	5.e-002	4.6186
30243	24.	9.0909e-002	0.1	5.8968
30244	24.	0.18182	5.e-002	4.0442
30245	2.3842e-015	0.27273	0.1	3540.6
30246	7.9472e-016	9.0909e-002	0.1	1426.1
30247	1.6109e-015	0.18182	5.e-002	94.061
30248	3.9736e-015	0.45455	0.1	5162.8
30249	3.2219e-015	0.36364	5.e-002	50.215
30250	5.563e-015	0.63636	0.1	6011.5
30251	4.8328e-015	0.54545	5.e-002	45.767
30252	7.1525e-015	0.81818	0.1	6550.
30253	6.4438e-015	0.72727	5.e-002	40.504
30254	8.7419e-015	1.	0.1	6919.3
30255	8.0547e-015	0.90909	5.e-002	34.675
30256	1.0331e-014	1.1818	0.1	7187.
30257	9.6657e-015	1.0909	5.e-002	29.67
30258	1.1921e-014	1.3636	0.1	7387.2
30259	1.1277e-014	1.2727	5.e-002	25.61
30260	1.351e-014	1.5455	0.1	7540.1
30261	1.2888e-014	1.4545	5.e-002	22.309
30262	1.51e-014	1.7273	0.1	7658.1
30263	1.4498e-014	1.6364	5.e-002	19.636
30264	1.6689e-014	1.9091	0.1	7749.6
30265	1.6109e-014	1.8182	5.e-002	17.479
30266	1.8279e-014	2.0909	0.1	7820.1
30267	1.772e-014	2.	5.e-002	15.754
30268	1.9868e-014	2.2727	0.1	7873.7
30269	1.9331e-014	2.1818	5.e-002	14.396
30270	2.1457e-014	2.4545	0.1	7912.9
30271	2.0942e-014	2.3636	5.e-002	13.36
30272	2.3047e-014	2.6364	0.1	7939.8
30273	2.2553e-014	2.5455	5.e-002	12.609
30274	2.4636e-014	2.8182	0.1	7955.4
30275	2.4164e-014	2.7273	5.e-002	12.121
30276	2.6226e-014	3.	0.1	7960.6
30277	2.5775e-014	2.9091	5.e-002	11.881
30278	2.7815e-014	3.1818	0.1	7955.4
30279	2.7386e-014	3.0909	5.e-002	11.881
30280	2.9405e-014	3.3636	0.1	7939.8
30281	2.8997e-014	3.2727	5.e-002	12.121
30282	3.0994e-014	3.5455	0.1	7912.9
30283	3.0608e-014	3.4545	5.e-002	12.609
30284	3.2583e-014	3.7273	0.1	7873.7
30285	3.2219e-014	3.6364	5.e-002	13.36
30286	3.4173e-014	3.9091	0.1	7820.1
30287	3.383e-014	3.8182	5.e-002	14.396
30288	3.5762e-014	4.0909	0.1	7749.6
30289	3.5441e-014	4.	5.e-002	15.754
30290	3.7352e-014	4.2727	0.1	7658.1
30291	3.7052e-014	4.1818	5.e-002	17.479
30292	3.8941e-014	4.4545	0.1	7540.1
30293	3.8663e-014	4.3636	5.e-002	19.636
30294	4.0531e-014	4.6364	0.1	7387.2
30295	4.0274e-014	4.5455	5.e-002	22.309
30296	4.212e-014	4.8182	0.1	7187.
30297	4.1885e-014	4.7273	5.e-002	25.61
30298	4.371e-014	5.	0.1	6919.3
30299	4.3495e-014	4.9091	5.e-002	29.671
30300	4.5299e-014	5.1818	0.1	6550.
30301	4.5106e-014	5.0909	5.e-002	34.675
30302	4.6888e-014	5.3636	0.1	6011.5
30303	4.6717e-014	5.2727	5.e-002	40.504
30304	4.8478e-014	5.5455	0.1	5162.8
30305	4.8328e-014	5.4545	5.e-002	45.767
30306	5.0067e-014	5.7273	0.1	3540.6
30307	4.9939e-014	5.6364	5.e-002	50.215
30308	5.1657e-014	5.9091	0.1	1426.1
30309	5.155e-014	5.8182	5.e-002	94.062
30310	23.908	0.	0.1	18.66
30311	24.	0.	5.e-002	4.5405
30312	23.723	0.	0.1	50.289
30313	23.815	0.	5.e-002	11.805
30314	23.539	0.	0.1	85.276
30315	23.631	0.	5.e-002	17.494
30316	23.354	0.	0.1	121.87
30317	23.446	0.	5.e-002	21.902
30318	23.17	0.	0.1	159.4
30319	23.262	0.	5.e-002	25.658
30320	22.985	0.	0.1	197.57
30321	23.077	0.	5.e-002	28.96
30322	22.8	0.	0.1	236.21
30323	22.893	0.	5.e-002	31.912
30324	22.616	0.	0.1	275.21
30325	22.708	0.	5.e-002	34.583
30326	22.431	0.	0.1	314.51
30327	22.524	0.	5.e-002	37.016
30328	22.247	0.	0.1	354.06
30329	22.339	0.	5.e-002	39.246
30330	22.062	0.	0.1	393.83
30331	22.154	0.	5.e-002	41.298
30332	21.878	0.	0.1	433.79
30333	21.97	0.	5.e-002	43.193
30334	21.693	0.	0.1	473.93
30335	21.785	0.	5.e-002	44.947
30336	21.509	0.	0.1	514.25
30337	21.601	0.	5.e-002	46.575
30338	21.324	0.	0.1	554.72
30339	21.416	0.	5.e-002	48.086
30340	21.139	0.	0.1	595.36
30341	21.232	0.	5.e-002	49.492
30342	20.955	0.	0.1	636.16
30343	21.047	0.	5.e-002	50.802
30344	20.77	0.	0.1	677.11
30345	20.863	0.	5.e-002	52.022
30346	20.586	0.	0.1	718.22
30347	20.678	0.	5.e-002	53.159
30348	20.401	0.	0.1	759.49
30349	20.493	0.	5.e-002	54.22
30350	20.217	0.	0.1	800.93
30351	20.309	0.	5.e-002	55.208
30352	20.032	0.	0.1	842.52
30353	20.124	0.	5.e-002	56.13
30354	19.848	0.	0.1	884.29
30355	19.94	0.	5.e-002	56.989
30356	19.663	0.	0.1	926.22
30357	19.755	0.	5.e-002	57.788
30358	19.478	0.	0.1	968.32
30359	19.571	0.	5.e-002	58.531
30360	19.294	0.	0.1	1010.6
30361	19.386	0.	5.e-002	59.221
30362	19.109	0.	0.1	1053.1
30363	19.202	0.	5.e-002	59.86
30364	18.925	0.	0.1	1095.7
30365	19.017	0.	5.e-002	60.45
30366	18.74	0.	0.1	1138.5
30367	18.833	0.	5.e-002	60.993
30368	18.556	0.	0.1	1181.5
30369	18.648	0.	5.e-002	61.49
30370	18.371	0.	0.1	1224.7
30371	18.463	0.	5.e-002	61.943
30372	18.187	0.	0.1	1268.1
30373	18.279	0.	5.e-002	62.352
30374	18.002	0.	0.1	1311.7
30375	18.094	0.	5.e-002	62.719
30376	17.817	0.	0.1	1355.5
30377	17.91	0.	5.e-002	63.043
30378	17.633	0.	0.1	1399.5
30379	17.725	0.	5.e-002	63.324
30380	17.448	0.	0.1	1443.7
30381	17.541	0.	5.e-002	63.564
30382	17.264	0.	0.1	1488.1
30383	17.356	0.	5.e-002	63.761
30384	17.079	0.	0.1	1532.7
30385	17.172	0.	5.e-002	63.914
30386	16.895	0.	0.1	1577.5
30387	16.987	0.	5.e-002	64.024
30388	16.71	0.	0.1	1622.5
30389	16.802	0.	5.e-002	64.089
30390	16.526	0.	0.1	1667.8
30391	16.618	0.	5.e-002	64.108
30392	16.341	0.	0.1	1713.2
30393	16.433	0.	5.e-002	64.08
30394	16.157	0.	0.1	1758.8
30395	16.249	0.	5.e-002	64.003
30396	15.972	0.	0.1	1804.7
30397	16.064	0.	5.e-002	63.876
30398	15.787	0.	0.1	1850.8
30399	15.88	0.	5.e-002	63.698
30400	15.603	0.	0.1	1897.
30401	15.695	0.	5.e-002	63.466
30402	15.418	0.	0.1	1943.5
30403	15.511	0.	5.e-002	63.179
30404	15.234	0.	0.1	1990.1
30405	15.326	0.	5.e-002	62.836
30406	15.049	0.	0.1	2036.9
30407	15.141	0.	5.e-002	62.435
30408	14.865	0.	0.1	2083.8
30409	14.957	0.	5.e-002	61.976
30410	14.68	0.	0.1	2130.9
30411	14.772	0.	5.e-002	61.458
30412	14.496	0.	0.1	2178.
30413	14.588	0.	5.e-002	60.881
30414	14.311	0.	0.1	2225.2
30415	14.403	0.	5.e-002	60.246
30416	14.126	0.	0.1	2272.3
30417	14.219	0.	5.e-002	59.557
30418	13.942	0.	0.1	2319.3
30419	14.034	0.	5.e-002	58.815
30420	13.757	0.	0.1	2366.1
30421	13.85	0.	5.e-002	58.028
30422	13.573	0.	0.1	2412.5
30423	13.665	0.	5.e-002	57.202
30424	13.388	0.	0.1	2458.3
30425	13.48	0.	5.e-002	56.349
30426	13.204	0.	0.1	2503.4
30427	13.296	0.	5.e-002	55.481
30428	13.019	0.	0.1	2547.5
30429	13.111	0.	5.e-002	54.618
30430	12.835	0.	0.1	2590.2
30431	12.927	0.	5.e-002	53.783
30432	12.65	0.	0.1	2631.
30433	12.742	0.	5.e-002	53.003
30434	12.465	0.	0.1	2669.3
30435	12.558	0.	5.e-002	52.313
30436	12.281	0.	0.1	2704.6
30437	12.373	0.	5.e-002	51.754
30438	12.096	0.	0.1	2735.7
30439	12.189	0.	5.e-002	51.377
30440	11.912	0.	0.1	2761.7
30441	12.004	0.	5.e-002	51.236
30442	11.727	0.	0.1	2781.1
30443	11.82	0.	5.e-002	51.396
30444	11.543	0.	0.1	2792.2
30445	11.635	0.	5.e-002	51.926
30446	11.358	0.	0.1	2792.9
30447	11.45	0.	5.e-002	52.895
30448	11.174	0.	0.1	2780.6
30449	11.266	0.	5.e-002	54.37
30450	10.989	0.	0.1	2752.3
30451	11.081	0.	5.e-002	56.403
30452	10.804	0.	0.1	2704.3
30453	10.897	0.	5.e-002	59.016
30454	10.62	0.	0.1	2632.4
30455	10.712	0.	5.e-002	62.176
30456	10.435	0.	0.1	2532.
30457	10.528	0.	5.e-002	65.769
30458	10.251	0.	0.1	2398.
30459	10.343	0.	5.e-002	69.546
30460	10.066	0.	0.1	2225.3
30461	10.159	0.	5.e-002	73.075
30462	9.8817	0.	0.1	2009.5
30463	9.974	0.	5.e-002	75.673
30464	9.6972	0.	0.1	1747.2
30465	9.7894	0.	5.e-002	76.329
30466	9.5126	0.	0.1	1437.
30467	9.6049	0.	5.e-002	73.662
30468	9.328	0.	0.1	1079.1
30469	9.4203	0.	5.e-002	65.672
30470	9.1435	0.	0.1	671.32
30471	9.2358	0.	5.e-002	50.211
30472	8.9589	0.	0.1	242.93
30473	9.0512	0.	5.e-002	19.503
30474	8.8667	0.	5.e-002	25.188
30475	8.6094	-7.4434e-030	0.1	277.79
30476	8.7	-7.5217e-030	5.e-002	28.407
30477	8.4281	-7.2867e-030	0.1	783.02
30478	8.5188	0.	5.e-002	15.198
30479	8.2469	-7.13e-030	0.1	1281.3
30480	8.3375	0.	5.e-002	43.517
30481	8.0656	-6.9733e-030	0.1	1736.9
30482	8.1563	0.	5.e-002	54.805
30483	7.8844	-6.8166e-030	0.1	2151.2
30484	7.975	0.	5.e-002	57.845
30485	7.7031	-6.6599e-030	0.1	2522.8
30486	7.7937	0.	5.e-002	55.161
30487	7.5219	-6.5032e-030	0.1	2851.7
30488	7.6125	0.	5.e-002	49.087
30489	7.3406	-6.3465e-030	0.1	3140.1
30490	7.4313	0.	5.e-002	41.24
30491	7.1594	-6.1898e-030	0.1	3391.2
30492	7.25	0.	5.e-002	32.813
30493	6.9781	-6.0331e-030	0.1	3609.5
30494	7.0687	0.	5.e-002	24.625
30495	6.7969	-5.8764e-030	0.1	3799.4
30496	6.8875	0.	5.e-002	17.209
30497	6.6156	-5.7197e-030	0.1	3965.3
30498	6.7063	0.	5.e-002	10.884
30499	6.4344	-5.563e-030	0.1	4111.2
30500	6.525	0.	5.e-002	5.8259
30501	6.2531	-5.4063e-030	0.1	4240.7
30502	6.3438	0.	5.e-002	2.1865
30503	6.0719	-5.2495e-030	0.1	4356.7
30504	6.1625	0.	5.e-002	1.1419
30505	5.8906	-5.0928e-030	0.1	4461.9
30506	5.9812	0.	5.e-002	2.0462
30507	5.7094	-4.9361e-030	0.1	4558.5
30508	5.8	0.	5.e-002	2.0548
30509	5.5281	-4.7794e-030	0.1	4648.3
30510	5.6188	0.	5.e-002	1.0288
30511	5.3469	-4.6227e-030	0.1	4732.6
30512	5.4375	0.	5.e-002	1.3113
30513	5.1656	-4.466e-030	0.1	4812.7
30514	5.2562	0.	5.e-002	4.3948
30515	4.9844	-4.3093e-030	0.1	4889.6
30516	5.075	0.	5.e-002	8.4917
30517	4.8031	-4.1526e-030	0.1	4964.1
30518	4.8938	0.	5.e-002	13.528
30519	4.6219	-3.9959e-030	0.1	5036.6
30520	4.7125	0.	5.e-002	19.479
30521	4.4406	-3.8392e-030	0.1	5107.8
30522	4.5313	0.	5.e-002	26.333
30523	4.2594	-3.6825e-030	0.1	5178.
30524	4.35	0.	5.e-002	34.094
30525	4.0781	-3.5258e-030	0.1	5247.4
30526	4.1687	0.	5.e-002	42.773
30527	3.8969	-3.3691e-030	0.1	5316.3
30528	3.9875	0.	5.e-002	52.394
30529	3.7156	-3.2124e-030	0.1	5384.7
30530	3.8063	0.	5.e-002	62.992
30531	3.5344	-3.0557e-030	0.1	5452.6
30532	3.625	0.	5.e-002	74.61
30533	3.3531	-2.899e-030	0.1	5519.9
30534	3.4437	0.	5.e-002	87.301
30535	3.1719	-2.7423e-030	0.1	5586.5
30536	3.2625	0.	5.e-002	101.13
30537	2.9906	-2.5856e-030	0.1	5652.1
30538	3.0812	0.	5.e-002	116.18
30539	2.8094	-2.4289e-030	0.1	5716.2
30540	2.9	0.	5.e-002	132.53
30541	2.6281	-2.2722e-030	0.1	5778.2
30542	2.7188	0.	5.e-002	150.29
30543	2.4469	-2.1155e-030	0.1	5837.3
30544	2.5375	0.	5.e-002	169.59
30545	2.2656	-1.9588e-030	0.1	5892.3
30546	2.3563	0.	5.e-002	190.56
30547	2.0844	-1.8021e-030	0.1	5941.7
30548	2.175	0.	5.e-002	213.4
30549	1.9031	-1.6454e-030	0.1	5983.4
30550	1.9937	0.	5.e-002	238.3
30551	1.7219	-1.4887e-030	0.1	6014.4
30552	1.8125	0.	5.e-002	265.54
30553	1.5406	-1.332e-030	0.1	6030.6
30554	1.6313	0.	5.e-002	295.46
30555	1.3594	-1.1753e-030	0.1	6026.
30556	1.45	0.	5.e-002	328.5
30557	1.1781	-1.0186e-030	0.1	5991.7
30558	1.2687	0.	5.e-002	365.26
30559	0.99687	-8.6187e-031	0.1	5913.3
30560	1.0875	0.	5.e-002	406.62
30561	0.81563	-7.0516e-031	0.1	5767.6
30562	0.90625	0.	5.e-002	453.8
30563	0.63437	-5.4846e-031	0.1	5509.1
30564	0.725	0.	5.e-002	509.27
30565	0.45312	-3.9176e-031	0.1	5051.6
30566	0.54375	0.	5.e-002	576.45
30567	0.27187	-2.3505e-031	0.1	4137.9
30568	0.3625	0.	5.e-002	666.91
30569	9.0625e-002	-7.8351e-032	0.1	1928.7
30570	0.18125	0.	5.e-002	847.13
30571	0.	0.	5.e-002	1117.9
30572	9.0625e-002	6.	0.1	1928.7
30573	5.2451e-014	6.	5.e-002	1117.9
30574	0.27187	6.	0.1	4137.9
30575	0.18125	6.	5.e-002	847.13
30576	0.45312	6.	0.1	5051.6
30577	0.3625	6.	5.e-002	666.91
30578	0.63437	6.	0.1	5509.1
30579	0.54375	6.	5.e-002	576.45
30580	0.81563	6.	0.1	5767.6
30581	0.725	6.	5.e-002	509.27
30582	0.99687	6.	0.1	5913.3
30583	0.90625	6.	5.e-002	453.8
30584	1.1781	6.	0.1	5991.7
30585	1.0875	6.	5.e-002	406.62
30586	1.3594	6.	0.1	6026.
30587	1.2687	6.	5.e-002	365.26
30588	1.5406	6.	0.1	6030.6
30589	1.45	6.	5.e-002	328.5
30590	1.7219	6.	0.1	6014.4
30591	1.6313	6.	5.e-002	295.46
30592	1.9031	6.	0.1	5983.4
30593	1.8125	6.	5.e-002	265.54
30594	2.0844	6.	0.1	5941.7
30595	1.9937	6.	5.e-002	238.3
30596	2.2656	6.	0.1	5892.3
30597	2.175	6.	5.e-002	213.4
30598	2.4469	6.	0.1	5837.3
30599	2.3563	6.	5.e-002	190.56
30600	2.6281	6.	0.1	5778.2
30601	2.5375	6.	5.e-002	169.59
30602	2.8094	6.	0.1	5716.2
30603	2.7188	6.	5.e-002	150.29
30604	2.9906	6.	0.1	5652.1
30605	2.9	6.	5.e-002	132.53
30606	3.1719	6.	0.1	5586.5
30607	3.0812	6.	5.e-002	116.18
30608	3.3531	6.	0.1	5519.9
30609	3.2625	6.	5.e-002	101.13
30610	3.5344	6.	0.1	5452.6
30611	3.4437	6.	5.e-002	87.301
30612	3.7156	6.	0.1	5384.7
30613	3.625	6.	5.e-002	74.609
30614	3.8969	6.	0.1	5316.3
30615	3.8063	6.	5.e-002	62.992
30616	4.0781	6.	0.1	5247.4
30617	3.9875	6.	5.e-002	52.394
30618	4.2594	6.	0.1	5178.
30619	4.1687	6.	5.e-002	42.773
30620	4.4406	6.	0.1	5107.8
30621	4.35	6.	5.e-002	34.094
30622	4.6219	6.	0.1	5036.6
30623	4.5313	6.	5.e-002	26.333
30624	4.8031	6.	0.1	4964.1
30625	4.7125	6.	5.e-002	19.479
30626	4.9844	6.	0.1	4889.6
30627	4.8938	6.	5.e-002	13.528
30628	5.1656	6.	0.1	4812.7
30629	5.075	6.	5.e-002	8.4916
30630	5.3469	6.	0.1	4732.6
30631	5.2562	6.	5.e-002	4.3946
30632	5.5281	6.	0.1	4648.3
30633	5.4375	6.	5.e-002	1.3113
30634	5.7094	6.	0.1	4558.5
30635	5.6188	6.	5.e-002	1.029
30636	5.8906	6.	0.1	4461.9
30637	5.8	6.	5.e-002	2.0549
30638	6.0719	6.	0.1	4356.7
30639	5.9812	6.	5.e-002	2.0463
30640	6.2531	6.	0.1	4240.7
30641	6.1625	6.	5.e-002	1.142
30642	6.4344	6.	0.1	4111.2
30643	6.3438	6.	5.e-002	2.1864
30644	6.6156	6.	0.1	3965.3
30645	6.525	6.	5.e-002	5.8258
30646	6.7969	6.	0.1	3799.4
30647	6.7063	6.	5.e-002	10.883
30648	6.9781	6.	0.1	3609.5
30649	6.8875	6.	5.e-002	17.209
30650	7.1594	6.	0.1	3391.2
30651	7.0687	6.	5.e-002	24.625
30652	7.3406	6.	0.1	3140.1
30653	7.25	6.	5.e-002	32.813
30654	7.5219	6.	0.1	2851.7
30655	7.4313	6.	5.e-002	41.24
30656	7.7031	6.	0.1	2522.8
30657	7.6125	6.	5.e-002	49.087
30658	7.8844	6.	0.1	2151.2
30659	7.7937	6.	5.e-002	55.161
30660	8.0656	6.	0.1	1736.9
30661	7.975	6.	5.e-002	57.844
30662	8.2469	6.	0.1	1281.3
30663	8.1563	6.	5.e-002	54.805
30664	8.4281	6.	0.1	783.02
30665	8.3375	6.	5.e-002	43.517
30666	8.6094	6.	0.1	277.79
30667	8.5188	6.	5.e-002	15.198
30668	8.7	6.	5.e-002	28.407
30669	8.4281	6.	0.	15.272
30670	8.6094	6.	0.	5.4777
30671	8.2469	6.	0.	17.035
30672	8.0656	6.	0.	17.072
30673	7.8844	6.	0.	15.684
30674	7.7031	6.	0.	13.65
30675	7.5219	6.	0.	11.515
30676	7.3406	6.	0.	9.5089
30677	7.1594	6.	0.	7.733
30678	6.9781	6.	0.	6.2041
30679	6.7969	6.	0.	4.9018
30680	6.6156	6.	0.	3.7902
30681	6.4344	6.	0.	2.8321
30682	6.2531	6.	0.	1.9946
30683	6.0719	6.	0.	1.2531
30684	5.8906	6.	0.	0.59566
30685	5.7094	6.	0.	0.20155
30686	5.5281	6.	0.	0.33948
30687	5.3469	6.	0.	0.50526
30688	5.1656	6.	0.	0.66661
30689	4.9844	6.	0.	0.82306
30690	4.8031	6.	0.	0.97627
30691	4.6219	6.	0.	1.1283
30692	4.4406	6.	0.	1.2815
30693	4.2594	6.	0.	1.4383
30694	4.0781	6.	0.	1.6015
30695	3.8969	6.	0.	1.7748
30696	3.7156	6.	0.	1.9642
30697	3.5344	6.	0.	2.1813
30698	3.3531	6.	0.	2.4576
30699	3.1719	6.	0.	2.9113
30700	2.9906	6.	0.	3.9491
30701	2.8094	6.	0.	5.8615
30702	2.6281	6.	0.	8.4868
30703	2.4469	6.	0.	11.809
30704	2.2656	6.	0.	15.923
30705	2.0844	6.	0.	20.978
30706	1.9031	6.	0.	27.175
30707	1.7219	6.	0.	34.788
30708	1.5406	6.	0.	44.187
30709	1.3594	6.	0.	55.924
30710	1.1781	6.	0.	70.778
30711	0.99687	6.	0.	90.184
30712	0.81563	6.	0.	116.23
30713	0.63437	6.	0.	154.24
30714	0.45312	6.	0.	216.44
30715	0.27187	6.	0.	338.11
30716	9.0625e-002	6.	0.	909.34
30717	8.7	5.9091	0.	26.328
30718	5.1657e-014	5.9091	0.	152.19
30719	0.27187	-2.3505e-031	0.	338.11
30720	9.0625e-002	-7.8351e-032	0.	909.34
30721	0.45312	-3.9176e-031	0.	216.44
30722	0.63437	-5.4846e-031	0.	154.24
30723	0.81563	-7.0516e-031	0.	116.23
30724	0.99687	-8.6187e-031	0.	90.184
30725	1.1781	-1.0186e-030	0.	70.778
30726	1.3594	-1.1753e-030	0.	55.924
30727	1.5406	-1.332e-030	0.	44.188
30728	1.7219	-1.4887e-030	0.	34.788
30729	1.9031	-1.6454e-030	0.	27.175
30730	2.0844	-1.8021e-030	0.	20.978
30731	2.2656	-1.9588e-030	0.	15.923
30732	2.4469	-2.1155e-030	0.	11.809
30733	2.6281	-2.2722e-030	0.	8.4868
30734	2.8094	-2.4289e-030	0.	5.8615
30735	2.9906	-2.5856e-030	0.	3.9491
30736	3.1719	-2.7423e-030	0.	2.9114
30737	3.3531	-2.899e-030	0.	2.4576
30738	3.5344	-3.0557e-030	0.	2.1813
30739	3.7156	-3.2124e-030	0.	1.9642
30740	3.8969	-3.3691e-030	0.	1.7748
30741	4.0781	-3.5258e-030	0.	1.6015
30742	4.2594	-3.6825e-030	0.	1.4383
30743	4.4406	-3.8392e-030	0.	1.2815
30744	4.6219	-3.9959e-030	0.	1.1283
30745	4.8031	-4.1526e-030	0.	0.97627
30746	4.9844	-4.3093e-030	0.	0.82306
30747	5.1656	-4.466e-030	0.	0.66661
30748	5.3469	-4.6227e-030	0.	0.50526
30749	5.5281	-4.7794e-030	0.	0.33948
30750	5.7094	-4.9361e-030	0.	0.20155
30751	5.8906	-5.0928e-030	0.	0.59566
30752	6.0719	-5.2495e-030	0.	1.2531
30753	6.2531	-5.4063e-030	0.	1.9946
30754	6.4344	-5.563e-030	0.	2.8321
30755	6.6156	-5.7197e-030	0.	3.7902
30756	6.7969	-5.8764e-030	0.	4.9018
30757	6.9781	-6.0331e-030	0.	6.2041
30758	7.1594	-6.1898e-030	0.	7.733
30759	7.3406	-6.3465e-030	0.	9.5089
30760	7.5219	-6.5032e-030	0.	11.515
30761	7.7031	-6.6599e-030	0.	13.65
30762	7.8844	-6.8166e-030	0.	15.684
30763	8.0656	-6.9733e-030	0.	17.072
30764	8.2469	-7.13e-030	0.	17.035
30765	8.4281	-7.2867e-030	0.	15.272
30766	8.6094	-7.4434e-030	0.	5.4777
30767	8.7	9.0909e-002	0.	26.328
30768	7.9472e-016	9.0909e-002	0.	152.19
30769	9.1435	0.	0.	16.8
30770	8.9589	0.	0.	5.4386
30771	9.328	0.	0.	20.175
30772	9.5126	0.	0.	21.174
30773	9.6972	0.	0.	20.279
30774	9.8817	0.	0.	18.375
30775	10.066	0.	0.	16.118
30776	10.251	0.	0.	13.845
30777	10.435	0.	0.	11.744
30778	10.62	0.	0.	9.8977
30779	10.804	0.	0.	8.3299
30780	10.989	0.	0.	7.0319
30781	11.174	0.	0.	5.9798
30782	11.358	0.	0.	5.1443
30783	11.543	0.	0.	4.4956
30784	11.727	0.	0.	4.0064
30785	11.912	0.	0.	3.6523
30786	12.096	0.	0.	3.4122
30787	12.281	0.	0.	3.2679
30788	12.465	0.	0.	3.2038
30789	12.65	0.	0.	3.2066
30790	12.835	0.	0.	3.2648
30791	13.019	0.	0.	3.3687
30792	13.204	0.	0.	3.5098
30793	13.388	0.	0.	3.681
30794	13.573	0.	0.	3.8762
30795	13.757	0.	0.	4.0903
30796	13.942	0.	0.	4.3189
30797	14.126	0.	0.	4.5584
30798	14.311	0.	0.	4.8059
30799	14.496	0.	0.	5.0588
30800	14.68	0.	0.	5.3153
30801	14.865	0.	0.	5.5737
30802	15.049	0.	0.	5.8328
30803	15.234	0.	0.	6.0916
30804	15.418	0.	0.	6.3495
30805	15.603	0.	0.	6.606
30806	15.787	0.	0.	6.8607
30807	15.972	0.	0.	7.1135
30808	16.157	0.	0.	7.3644
30809	16.341	0.	0.	7.6133
30810	16.526	0.	0.	7.8604
30811	16.71	0.	0.	8.1058
30812	16.895	0.	0.	8.3497
30813	17.079	0.	0.	8.5923
30814	17.264	0.	0.	8.8339
30815	17.448	0.	0.	9.0748
30816	17.633	0.	0.	9.3151
30817	17.817	0.	0.	9.5551
30818	18.002	0.	0.	9.795
30819	18.187	0.	0.	10.035
30820	18.371	0.	0.	10.276
30821	18.556	0.	0.	10.516
30822	18.74	0.	0.	10.758
30823	18.925	0.	0.	11.
30824	19.109	0.	0.	11.242
30825	19.294	0.	0.	11.485
30826	19.478	0.	0.	11.728
30827	19.663	0.	0.	11.972
30828	19.848	0.	0.	12.215
30829	20.032	0.	0.	12.457
30830	20.217	0.	0.	12.698
30831	20.401	0.	0.	12.938
30832	20.586	0.	0.	13.174
30833	20.77	0.	0.	13.407
30834	20.955	0.	0.	13.635
30835	21.139	0.	0.	13.856
30836	21.324	0.	0.	14.069
30837	21.509	0.	0.	14.271
30838	21.693	0.	0.	14.46
30839	21.878	0.	0.	14.632
30840	22.062	0.	0.	14.783
30841	22.247	0.	0.	14.909
30842	22.431	0.	0.	15.002
30843	22.616	0.	0.	15.053
30844	22.8	0.	0.	15.05
30845	22.985	0.	0.	14.975
30846	23.17	0.	0.	14.8
30847	23.354	0.	0.	14.463
30848	23.539	0.	0.	13.911
30849	23.723	0.	0.	12.434
30850	23.908	0.	0.	8.5555
30851	8.8667	9.0909e-002	0.	19.306
30852	24.	9.0909e-002	0.	20.231
30853	5.0067e-014	5.7273	0.	-1663.1
30854	4.8478e-014	5.5455	0.	-2514.8
30855	4.6888e-014	5.3636	0.	-2948.4
30856	4.5299e-014	5.1818	0.	-3218.3
30857	4.371e-014	5.	0.	-3402.6
30858	4.212e-014	4.8182	0.	-3535.9
30859	4.0531e-014	4.6364	0.	-3635.5
30860	3.8941e-014	4.4545	0.	-3711.5
30861	3.7352e-014	4.2727	0.	-3770.2
30862	3.5762e-014	4.0909	0.	-3815.6
30863	3.4173e-014	3.9091	0.	-3850.7
30864	3.2583e-014	3.7273	0.	-3877.4
30865	3.0994e-014	3.5455	0.	-3897.
30866	2.9405e-014	3.3636	0.	-3910.4
30867	2.7815e-014	3.1818	0.	-3918.3
30868	2.6226e-014	3.	0.	-3920.9
30869	2.4636e-014	2.8182	0.	-3918.3
30870	2.3047e-014	2.6364	0.	-3910.4
30871	2.1457e-014	2.4545	0.	-3897.
30872	1.9868e-014	2.2727	0.	-3877.4
30873	1.8279e-014	2.0909	0.	-3850.7
30874	1.6689e-014	1.9091	0.	-3815.6
30875	1.51e-014	1.7273	0.	-3770.2
30876	1.351e-014	1.5455	0.	-3711.5
30877	1.1921e-014	1.3636	0.	-3635.5
30878	1.0331e-014	1.1818	0.	-3535.9
30879	8.7419e-015	1.	0.	-3402.6
30880	7.1525e-015	0.81818	0.	-3218.3
30881	5.563e-015	0.63636	0.	-2948.4
30882	3.9736e-015	0.45455	0.	-2514.8
30883	2.3842e-015	0.27273	0.	-1663.1
30884	24.	0.27273	0.	50.058
30885	24.	0.45455	0.	74.229
30886	24.	0.63636	0.	93.476
30887	24.	0.81818	0.	109.65
30888	24.	1.	0.	123.51
30889	24.	1.1818	0.	135.48
30890	24.	1.3636	0.	145.84
30891	24.	1.5455	0.	154.79
30892	24.	1.7273	0.	162.45
30893	24.	1.9091	0.	168.92
30894	24.	2.0909	0.	174.3
30895	24.	2.2727	0.	178.62
30896	24.	2.4545	0.	181.95
30897	24.	2.6364	0.	184.3
30898	24.	2.8182	0.	185.7
30899	24.	3.	0.	186.17
30900	24.	3.1818	0.	185.7
30901	24.	3.3636	0.	184.3
30902	24.	3.5455	0.	181.95
30903	24.	3.7273	0.	178.62
30904	24.	3.9091	0.	174.3
30905	24.	4.0909	0.	168.92
30906	24.	4.2727	0.	162.45
30907	24.	4.4545	0.	154.79
30908	24.	4.6364	0.	145.84
30909	24.	4.8182	0.	135.48
30910	24.	5.	0.	123.51
30911	24.	5.1818	0.	109.65
30912	24.	5.3636	0.	93.476
30913	24.	5.5455	0.	74.229
30914	24.	5.7273	0.	50.058
30915	24.	5.9091	0.	20.231
30916	23.908	6.	0.	8.5556
30917	23.723	6.	0.	12.434
30918	23.539	6.	0.	13.911
30919	23.354	6.	0.	14.463
30920	23.17	6.	0.	14.8
30921	22.985	6.	0.	14.975
30922	22.8	6.	0.	15.05
30923	22.616	6.	0.	15.053
30924	22.431	6.	0.	15.002
30925	22.247	6.	0.	14.909
30926	22.062	6.	0.	14.783
30927	21.878	6.	0.	14.632
30928	21.693	6.	0.	14.46
30929	21.509	6.	0.	14.271
30930	21.324	6.	0.	14.069
30931	21.139	6.	0.	13.856
30932	20.955	6.	0.	13.635
30933	20.77	6.	0.	13.407
30934	20.586	6.	0.	13.174
30935	20.401	6.	0.	12.938
30936	20.217	6.	0.	12.699
30937	20.032	6.	0.	12.457
30938	19.848	6.	0.	12.215
30939	19.663	6.	0.	11.972
30940	19.478	6.	0.	11.728
30941	19.294	6.	0.	11.485
30942	19.109	6.	0.	11.242
30943	18.925	6.	0.	11.
30944	18.74	6.	0.	10.758
30945	18.556	6.	0.	10.516
30946	18.371	6.	0.	10.276
30947	18.187	6.	0.	10.035
30948	18.002	6.	0.	9.7951
30949	17.817	6.	0.	9.5551
30950	17.633	6.	0.	9.3151
30951	17.448	6.	0.	9.0748
30952	17.264	6.	0.	8.8339
30953	17.079	6.	0.	8.5923
30954	16.895	6.	0.	8.3497
30955	16.71	6.	0.	8.1058
30956	16.526	6.	0.	7.8604
30957	16.341	6.	0.	7.6133
30958	16.157	6.	0.	7.3644
30959	15.972	6.	0.	7.1136
30960	15.787	6.	0.	6.8607
30961	15.603	6.	0.	6.606
30962	15.418	6.	0.	6.3495
30963	15.234	6.	0.	6.0916
30964	15.049	6.	0.	5.8328
30965	14.865	6.	0.	5.5737
30966	14.68	6.	0.	5.3153
30967	14.496	6.	0.	5.0589
30968	14.311	6.	0.	4.8059
30969	14.126	6.	0.	4.5584
30970	13.942	6.	0.	4.3189
30971	13.757	6.	0.	4.0903
30972	13.573	6.	0.	3.8762
30973	13.388	6.	0.	3.681
30974	13.204	6.	0.	3.5098
30975	13.019	6.	0.	3.3687
30976	12.835	6.	0.	3.2649
30977	12.65	6.	0.	3.2066
30978	12.465	6.	0.	3.2038
30979	12.281	6.	0.	3.2679
30980	12.096	6.	0.	3.4122
30981	11.912	6.	0.	3.6523
30982	11.727	6.	0.	4.0064
30983	11.543	6.	0.	4.4956
30984	11.358	6.	0.	5.1443
30985	11.174	6.	0.	5.9798
30986	10.989	6.	0.	7.0319
30987	10.804	6.	0.	8.3299
30988	10.62	6.	0.	9.8977
30989	10.435	6.	0.	11.744
30990	10.251	6.	0.	13.845
30991	10.066	6.	0.	16.118
30992	9.8817	6.	0.	18.375
30993	9.6972	6.	0.	20.279
30994	9.5126	6.	0.	21.174
30995	9.328	6.	0.	20.175
30996	9.1435	6.	0.	16.8
30997	8.9589	6.	0.	5.4386
30998	8.8667	5.9091	0.	19.306
30999	8.7	1.7273	0.	3773.2
31000	8.7	1.9091	0.	3922.
31001	8.7	1.5455	0.	2227.4
31002	8.7	1.3636	0.	1693.1
31003	8.7	1.1818	0.	1263.4
31004	8.7	1.	0.	944.42
31005	8.7	0.81818	0.	689.07
31006	8.7	0.63636	0.	477.84
31007	8.7	0.45455	0.	300.71
31008	8.7	0.27273	0.	152.72
31009	8.7833	2.	0.	2172.1
31010	8.8667	0.27273	0.	115.48
31011	8.8667	0.45455	0.	225.38
31012	8.8667	0.63636	0.	354.76
31013	8.8667	0.81818	0.	507.91
31014	8.8667	1.	0.	692.96
31015	8.8667	1.1818	0.	925.1
31016	8.8667	1.3636	0.	1243.1
31017	8.8667	1.5455	0.	1621.1
31018	8.8667	1.7273	0.	2882.1
31019	8.8667	1.9091	0.	2749.7
31020	8.7	4.2727	0.	3773.2
31021	8.7	4.0909	0.	3922.
31022	8.7	4.4545	0.	2227.4
31023	8.7	4.6364	0.	1693.1
31024	8.7	4.8182	0.	1263.4
31025	8.7	5.	0.	944.42
31026	8.7	5.1818	0.	689.07
31027	8.7	5.3636	0.	477.84
31028	8.7	5.5455	0.	300.71
31029	8.7	5.7273	0.	152.72
31030	8.7833	4.	0.	2172.1
31031	8.8667	5.7273	0.	115.48
31032	8.8667	5.5455	0.	225.38
31033	8.8667	5.3636	0.	354.76
31034	8.8667	5.1818	0.	507.91
31035	8.8667	5.	0.	692.96
31036	8.8667	4.8182	0.	925.09
31037	8.8667	4.6364	0.	1243.1
31038	8.8667	4.4545	0.	1621.1
31039	8.8667	4.2727	0.	2882.1
31040	8.8667	4.0909	0.	2749.7
